!Keysight Technologies,P9374A,MY57304198,A.17.20.09
!Date: Tuesday, August 20, 2024 13:00:20
!Correction: S11(C  1-Port  ) 
!S21(C  1-Port  ) 
!S12(Off) 
!S22(Off) 
!S2P File: Measurements: S11, S21, S12, S22:
# Hz S  dB   R 50
300000 0.00094421749 -0.0083857067 -200 45 -200 45 -200 45
1300116.6861144 0.00064968923 -0.014276589 -200 45 -200 45 -200 45
2300233.3722287 0.00073975796 -0.031472541 -200 45 -200 45 -200 45
3300350.0583431 -0.00059697148 -0.0479111 -200 45 -200 45 -200 45
4300466.7444574 -0.0006484919 -0.05791495 -200 45 -200 45 -200 45
5300583.4305718 -0.00071140466 -0.071818516 -200 45 -200 45 -200 45
6300700.1166861 -0.00072926894 -0.089071475 -200 45 -200 45 -200 45
7300816.8028005 -0.00025187776 -0.09768483 -200 45 -200 45 -200 45
8300933.4889148 -0.00024204055 -0.10907269 -200 45 -200 45 -200 45
9301050.1750292 0.00051613554 -0.12665161 -200 45 -200 45 -200 45
10301166.861144 -0.0017170968 -0.12114379 -200 45 -200 45 -200 45
11301283.547258 -0.00076318538 -0.15826276 -200 45 -200 45 -200 45
12301400.233372 0.00025885197 -0.17441592 -200 45 -200 45 -200 45
13301516.919487 -0.0017126944 -0.18239038 -200 45 -200 45 -200 45
14301633.605601 -0.00035982986 -0.18997286 -200 45 -200 45 -200 45
15301750.291715 -0.00037769269 -0.20592766 -200 45 -200 45 -200 45
16301866.97783 -0.0003279876 -0.21279112 -200 45 -200 45 -200 45
17301983.663944 -0.00058066106 -0.23113604 -200 45 -200 45 -200 45
18302100.350058 -0.0024663387 -0.24627168 -200 45 -200 45 -200 45
19302217.036173 -0.0027178414 -0.25635317 -200 45 -200 45 -200 45
20302333.722287 -0.0010223573 -0.27219218 -200 45 -200 45 -200 45
21302450.408401 -0.0019165021 -0.28428516 -200 45 -200 45 -200 45
22302567.094516 -0.001283875 -0.30377629 -200 45 -200 45 -200 45
23302683.78063 -0.00036008874 -0.30747178 -200 45 -200 45 -200 45
24302800.466744 -0.0022019008 -0.31579688 -200 45 -200 45 -200 45
25302917.152859 -0.0025603592 -0.32802013 -200 45 -200 45 -200 45
26303033.838973 -0.0037136353 -0.36020935 -200 45 -200 45 -200 45
27303150.525088 -0.0035276189 -0.36777484 -200 45 -200 45 -200 45
28303267.211202 -0.0025316088 -0.38437331 -200 45 -200 45 -200 45
29303383.897316 -0.0035462719 -0.39469409 -200 45 -200 45 -200 45
30303500.583431 -0.0035454948 -0.40849596 -200 45 -200 45 -200 45
31303617.269545 -0.0027074807 -0.41373464 -200 45 -200 45 -200 45
32303733.955659 -0.0020017053 -0.42861003 -200 45 -200 45 -200 45
33303850.641774 -0.0030232389 -0.44086462 -200 45 -200 45 -200 45
34303967.327888 -0.0040507126 -0.46395367 -200 45 -200 45 -200 45
35304084.014002 -0.0049584392 -0.47347966 -200 45 -200 45 -200 45
36304200.700117 -0.003062095 -0.48953766 -200 45 -200 45 -200 45
37304317.386231 -0.005157216 -0.50506926 -200 45 -200 45 -200 45
38304434.072345 -0.0058526173 -0.51250696 -200 45 -200 45 -200 45
39304550.75846 -0.0052367812 -0.53545195 -200 45 -200 45 -200 45
40304667.444574 -0.0046326932 -0.52972871 -200 45 -200 45 -200 45
41304784.130688 -0.006460764 -0.54822963 -200 45 -200 45 -200 45
42304900.816803 -0.00591094 -0.5650624 -200 45 -200 45 -200 45
43305017.502917 -0.0056364429 -0.57650506 -200 45 -200 45 -200 45
44305134.189032 -0.0079607554 -0.5932762 -200 45 -200 45 -200 45
45305250.875146 -0.0066277208 -0.61043698 -200 45 -200 45 -200 45
46305367.56126 -0.0073129861 -0.61454421 -200 45 -200 45 -200 45
47305484.247375 -0.0077805216 -0.62219679 -200 45 -200 45 -200 45
48305600.933489 -0.0086999219 -0.63830161 -200 45 -200 45 -200 45
49305717.619603 -0.0080839414 -0.65274388 -200 45 -200 45 -200 45
50305834.305718 -0.007902924 -0.67586792 -200 45 -200 45 -200 45
51305950.991832 -0.0087678796 -0.68608052 -200 45 -200 45 -200 45
52306067.677946 -0.0091909533 -0.71262628 -200 45 -200 45 -200 45
53306184.364061 -0.008661015 -0.72085279 -200 45 -200 45 -200 45
54306301.050175 -0.010726143 -0.72854817 -200 45 -200 45 -200 45
55306417.736289 -0.0093447855 -0.74686402 -200 45 -200 45 -200 45
56306534.422404 -0.0094475159 -0.76036954 -200 45 -200 45 -200 45
57306651.108518 -0.011360666 -0.77373379 -200 45 -200 45 -200 45
58306767.794632 -0.011490956 -0.78790045 -200 45 -200 45 -200 45
59306884.480747 -0.012200871 -0.80259866 -200 45 -200 45 -200 45
60307001.166861 -0.012779271 -0.81755167 -200 45 -200 45 -200 45
61307117.852975 -0.012224494 -0.81972003 -200 45 -200 45 -200 45
62307234.53909 -0.014090303 -0.82271594 -200 45 -200 45 -200 45
63307351.225204 -0.013903323 -0.8417545 -200 45 -200 45 -200 45
64307467.911319 -0.014721422 -0.85042286 -200 45 -200 45 -200 45
65307584.597433 -0.012883381 -0.86279118 -200 45 -200 45 -200 45
66307701.283547 -0.013898648 -0.88524121 -200 45 -200 45 -200 45
67307817.969662 -0.016850503 -0.89829987 -200 45 -200 45 -200 45
68307934.655776 -0.016164251 -0.92217183 -200 45 -200 45 -200 45
69308051.34189 -0.016701082 -0.94638556 -200 45 -200 45 -200 45
70308168.028005 -0.017814972 -0.94617665 -200 45 -200 45 -200 45
71308284.714119 -0.016387446 -0.95757043 -200 45 -200 45 -200 45
72308401.400233 -0.018944228 -0.96576643 -200 45 -200 45 -200 45
73308518.086348 -0.016945094 -0.97606426 -200 45 -200 45 -200 45
74308634.772462 -0.019703729 -0.98991364 -200 45 -200 45 -200 45
75308751.458576 -0.019417958 -1.0203019 -200 45 -200 45 -200 45
76308868.144691 -0.021420311 -1.0150844 -200 45 -200 45 -200 45
77308984.830805 -0.021191655 -1.0284556 -200 45 -200 45 -200 45
78309101.516919 -0.021855807 -1.0390263 -200 45 -200 45 -200 45
79309218.203034 -0.02456888 -1.0385134 -200 45 -200 45 -200 45
80309334.889148 -0.023520665 -1.0527582 -200 45 -200 45 -200 45
81309451.575263 -0.023196647 -1.0759366 -200 45 -200 45 -200 45
82309568.261377 -0.022974143 -1.085905 -200 45 -200 45 -200 45
83309684.947491 -0.023760116 -1.0940487 -200 45 -200 45 -200 45
84309801.633606 -0.024473341 -1.120363 -200 45 -200 45 -200 45
85309918.31972 -0.026061079 -1.1379793 -200 45 -200 45 -200 45
86310035.005834 -0.027498562 -1.1500788 -200 45 -200 45 -200 45
87310151.691949 -0.026775723 -1.1430088 -200 45 -200 45 -200 45
88310268.378063 -0.028240019 -1.1568171 -200 45 -200 45 -200 45
89310385.064177 -0.029428802 -1.1607095 -200 45 -200 45 -200 45
90310501.750292 -0.028113134 -1.187601 -200 45 -200 45 -200 45
91310618.436406 -0.030203173 -1.2061156 -200 45 -200 45 -200 45
92310735.12252 -0.028850006 -1.2152789 -200 45 -200 45 -200 45
93310851.808635 -0.030893994 -1.2116416 -200 45 -200 45 -200 45
94310968.494749 -0.031534079 -1.2215289 -200 45 -200 45 -200 45
95311085.180863 -0.031875409 -1.2402276 -200 45 -200 45 -200 45
96311201.866978 -0.032390192 -1.25495 -200 45 -200 45 -200 45
97311318.553092 -0.032598834 -1.253199 -200 45 -200 45 -200 45
98311435.239207 -0.033646114 -1.2674561 -200 45 -200 45 -200 45
99311551.925321 -0.035541248 -1.2949392 -200 45 -200 45 -200 45
100311668.61144 -0.037328854 -1.2999966 -200 45 -200 45 -200 45
101311785.29755 -0.03724426 -1.3282442 -200 45 -200 45 -200 45
102311901.98366 -0.03626607 -1.3274976 -200 45 -200 45 -200 45
103312018.66978 -0.036434434 -1.3432946 -200 45 -200 45 -200 45
104312135.35589 -0.038045354 -1.3385019 -200 45 -200 45 -200 45
105312252.04201 -0.03846189 -1.353171 -200 45 -200 45 -200 45
106312368.72812 -0.039744385 -1.3732851 -200 45 -200 45 -200 45
107312485.41424 -0.039603841 -1.3905604 -200 45 -200 45 -200 45
108312602.10035 -0.039839737 -1.4014753 -200 45 -200 45 -200 45
109312718.78646 -0.040569197 -1.396015 -200 45 -200 45 -200 45
110312835.47258 -0.039110925 -1.399677 -200 45 -200 45 -200 45
111312952.15869 -0.041916091 -1.4213063 -200 45 -200 45 -200 45
112313068.84481 -0.041738361 -1.4235585 -200 45 -200 45 -200 45
113313185.53092 -0.04307542 -1.4227948 -200 45 -200 45 -200 45
114313302.21704 -0.040824484 -1.4516672 -200 45 -200 45 -200 45
115313418.90315 -0.042519897 -1.4654672 -200 45 -200 45 -200 45
116313535.58926 -0.043003526 -1.4812921 -200 45 -200 45 -200 45
117313652.27538 -0.04389276 -1.5207642 -200 45 -200 45 -200 45
118313768.96149 -0.046499282 -1.5252273 -200 45 -200 45 -200 45
119313885.64761 -0.045259256 -1.5132579 -200 45 -200 45 -200 45
120314002.33372 -0.046765123 -1.5228353 -200 45 -200 45 -200 45
121314119.01984 -0.045081388 -1.5438572 -200 45 -200 45 -200 45
122314235.70595 -0.047537357 -1.5582353 -200 45 -200 45 -200 45
123314352.39207 -0.047892507 -1.5699428 -200 45 -200 45 -200 45
124314469.07818 -0.049832363 -1.5909253 -200 45 -200 45 -200 45
125314585.76429 -0.048823845 -1.5972563 -200 45 -200 45 -200 45
126314702.45041 -0.050382275 -1.6010549 -200 45 -200 45 -200 45
127314819.13652 -0.049968261 -1.601671 -200 45 -200 45 -200 45
128314935.82264 -0.051126864 -1.6140141 -200 45 -200 45 -200 45
129315052.50875 -0.051087838 -1.6341128 -200 45 -200 45 -200 45
130315169.19487 -0.052164737 -1.6342572 -200 45 -200 45 -200 45
131315285.88098 -0.055577416 -1.6640557 -200 45 -200 45 -200 45
132315402.56709 -0.054644372 -1.6781744 -200 45 -200 45 -200 45
133315519.25321 -0.056651756 -1.7018527 -200 45 -200 45 -200 45
134315635.93932 -0.056547642 -1.7186332 -200 45 -200 45 -200 45
135315752.62544 -0.057501823 -1.7228907 -200 45 -200 45 -200 45
136315869.31155 -0.058302201 -1.7263446 -200 45 -200 45 -200 45
137315985.99767 -0.057779092 -1.7367189 -200 45 -200 45 -200 45
138316102.68378 -0.057699606 -1.7542959 -200 45 -200 45 -200 45
139316219.36989 -0.060660917 -1.7735074 -200 45 -200 45 -200 45
140316336.05601 -0.06082052 -1.7863083 -200 45 -200 45 -200 45
141316452.74212 -0.061289128 -1.7907264 -200 45 -200 45 -200 45
142316569.42824 -0.061037887 -1.7929896 -200 45 -200 45 -200 45
143316686.11435 -0.06097278 -1.7907588 -200 45 -200 45 -200 45
144316802.80047 -0.061978873 -1.805149 -200 45 -200 45 -200 45
145316919.48658 -0.06342908 -1.8297263 -200 45 -200 45 -200 45
146317036.1727 -0.064019866 -1.8255206 -200 45 -200 45 -200 45
147317152.85881 -0.065030865 -1.8491586 -200 45 -200 45 -200 45
148317269.54492 -0.066605113 -1.8770026 -200 45 -200 45 -200 45
149317386.23104 -0.066906095 -1.8955363 -200 45 -200 45 -200 45
150317502.91715 -0.069140352 -1.9206181 -200 45 -200 45 -200 45
151317619.60327 -0.070025742 -1.9209363 -200 45 -200 45 -200 45
152317736.28938 -0.069812141 -1.9132351 -200 45 -200 45 -200 45
153317852.9755 -0.070942104 -1.9184966 -200 45 -200 45 -200 45
154317969.66161 -0.071864709 -1.935056 -200 45 -200 45 -200 45
155318086.34772 -0.074835174 -1.9676063 -200 45 -200 45 -200 45
156318203.03384 -0.072845429 -1.9862286 -200 45 -200 45 -200 45
157318319.71995 -0.074933149 -1.9829544 -200 45 -200 45 -200 45
158318436.40607 -0.075901642 -1.9882895 -200 45 -200 45 -200 45
159318553.09218 -0.073777653 -1.9871932 -200 45 -200 45 -200 45
160318669.7783 -0.075724363 -1.9915581 -200 45 -200 45 -200 45
161318786.46441 -0.077832446 -2.0094056 -200 45 -200 45 -200 45
162318903.15053 -0.077682756 -2.017158 -200 45 -200 45 -200 45
163319019.83664 -0.078390129 -2.0386806 -200 45 -200 45 -200 45
164319136.52275 -0.08251334 -2.0564501 -200 45 -200 45 -200 45
165319253.20887 -0.083469279 -2.0915298 -200 45 -200 45 -200 45
166319369.89498 -0.083245777 -2.0975122 -200 45 -200 45 -200 45
167319486.5811 -0.085253499 -2.0945861 -200 45 -200 45 -200 45
168319603.26721 -0.085448854 -2.0955839 -200 45 -200 45 -200 45
169319719.95333 -0.085826397 -2.102025 -200 45 -200 45 -200 45
170319836.63944 -0.087634556 -2.117558 -200 45 -200 45 -200 45
171319953.32555 -0.089405425 -2.1386883 -200 45 -200 45 -200 45
172320070.01167 -0.090482883 -2.1471756 -200 45 -200 45 -200 45
173320186.69778 -0.088516071 -2.1694236 -200 45 -200 45 -200 45
174320303.3839 -0.089161009 -2.157119 -200 45 -200 45 -200 45
175320420.07001 -0.09099514 -2.162221 -200 45 -200 45 -200 45
176320536.75613 -0.09118785 -2.1617699 -200 45 -200 45 -200 45
177320653.44224 -0.092213921 -2.1707554 -200 45 -200 45 -200 45
178320770.12835 -0.093326457 -2.1958661 -200 45 -200 45 -200 45
179320886.81447 -0.091780305 -2.1995473 -200 45 -200 45 -200 45
180321003.50058 -0.094715744 -2.232816 -200 45 -200 45 -200 45
181321120.1867 -0.096880972 -2.2326438 -200 45 -200 45 -200 45
182321236.87281 -0.098937906 -2.2825253 -200 45 -200 45 -200 45
183321353.55893 -0.098463632 -2.26264 -200 45 -200 45 -200 45
184321470.24504 -0.097791895 -2.2659404 -200 45 -200 45 -200 45
185321586.93116 -0.099054694 -2.264538 -200 45 -200 45 -200 45
186321703.61727 -0.09978278 -2.276659 -200 45 -200 45 -200 45
187321820.30338 -0.10278301 -2.3213191 -200 45 -200 45 -200 45
188321936.9895 -0.10317691 -2.3186522 -200 45 -200 45 -200 45
189322053.67561 -0.10500955 -2.3438375 -200 45 -200 45 -200 45
190322170.36173 -0.10423418 -2.3425367 -200 45 -200 45 -200 45
191322287.04784 -0.10416525 -2.3399377 -200 45 -200 45 -200 45
192322403.73396 -0.1039078 -2.3330538 -200 45 -200 45 -200 45
193322520.42007 -0.1049459 -2.3494334 -200 45 -200 45 -200 45
194322637.10618 -0.1081689 -2.3605895 -200 45 -200 45 -200 45
195322753.7923 -0.10807841 -2.3554604 -200 45 -200 45 -200 45
196322870.47841 -0.11014012 -2.4038937 -200 45 -200 45 -200 45
197322987.16453 -0.11293364 -2.4197361 -200 45 -200 45 -200 45
198323103.85064 -0.11298624 -2.4512691 -200 45 -200 45 -200 45
199323220.53676 -0.11470714 -2.4603827 -200 45 -200 45 -200 45
200323337.22287 -0.11459418 -2.4441395 -200 45 -200 45 -200 45
201323453.90898 -0.11558779 -2.4494622 -200 45 -200 45 -200 45
202323570.5951 -0.11405575 -2.4444699 -200 45 -200 45 -200 45
203323687.28121 -0.11745892 -2.4798174 -200 45 -200 45 -200 45
204323803.96733 -0.11784298 -2.4989178 -200 45 -200 45 -200 45
205323920.65344 -0.12064704 -2.5149176 -200 45 -200 45 -200 45
206324037.33956 -0.1199913 -2.5068598 -200 45 -200 45 -200 45
207324154.02567 -0.11935507 -2.4911189 -200 45 -200 45 -200 45
208324270.71179 -0.12066168 -2.5038283 -200 45 -200 45 -200 45
209324387.3979 -0.12271553 -2.5190775 -200 45 -200 45 -200 45
210324504.08401 -0.12302283 -2.5265882 -200 45 -200 45 -200 45
211324620.77013 -0.12344227 -2.5324244 -200 45 -200 45 -200 45
212324737.45624 -0.12648048 -2.5604062 -200 45 -200 45 -200 45
213324854.14236 -0.12683868 -2.5803759 -200 45 -200 45 -200 45
214324970.82847 -0.13084489 -2.6103671 -200 45 -200 45 -200 45
215325087.51459 -0.1309308 -2.6278934 -200 45 -200 45 -200 45
216325204.2007 -0.13011213 -2.6168182 -200 45 -200 45 -200 45
217325320.88681 -0.13212721 -2.6142375 -200 45 -200 45 -200 45
218325437.57293 -0.12999822 -2.6148248 -200 45 -200 45 -200 45
219325554.25904 -0.13170427 -2.6507215 -200 45 -200 45 -200 45
220325670.94516 -0.13605177 -2.6647878 -200 45 -200 45 -200 45
221325787.63127 -0.13698912 -2.6885734 -200 45 -200 45 -200 45
222325904.31739 -0.13857979 -2.6850922 -200 45 -200 45 -200 45
223326021.0035 -0.13599595 -2.673456 -200 45 -200 45 -200 45
224326137.68961 -0.13743609 -2.6811728 -200 45 -200 45 -200 45
225326254.37573 -0.13952677 -2.6913424 -200 45 -200 45 -200 45
226326371.06184 -0.13897641 -2.7124944 -200 45 -200 45 -200 45
227326487.74796 -0.14107451 -2.7064888 -200 45 -200 45 -200 45
228326604.43407 -0.14238313 -2.717561 -200 45 -200 45 -200 45
229326721.12019 -0.14512171 -2.7497311 -200 45 -200 45 -200 45
230326837.8063 -0.14753504 -2.7734361 -200 45 -200 45 -200 45
231326954.49242 -0.14994916 -2.7999585 -200 45 -200 45 -200 45
232327071.17853 -0.14956975 -2.7830458 -200 45 -200 45 -200 45
233327187.86464 -0.14953895 -2.7857866 -200 45 -200 45 -200 45
234327304.55076 -0.15058264 -2.7878783 -200 45 -200 45 -200 45
235327421.23687 -0.15169254 -2.8046839 -200 45 -200 45 -200 45
236327537.92299 -0.15391991 -2.8326201 -200 45 -200 45 -200 45
237327654.6091 -0.15528926 -2.8331509 -200 45 -200 45 -200 45
238327771.29522 -0.15620153 -2.8617363 -200 45 -200 45 -200 45
239327887.98133 -0.1569151 -2.8390937 -200 45 -200 45 -200 45
240328004.66744 -0.15629974 -2.8435888 -200 45 -200 45 -200 45
241328121.35356 -0.15532334 -2.8463984 -200 45 -200 45 -200 45
242328238.03967 -0.15817158 -2.8540428 -200 45 -200 45 -200 45
243328354.72579 -0.15999724 -2.8760319 -200 45 -200 45 -200 45
244328471.4119 -0.16015275 -2.8564758 -200 45 -200 45 -200 45
245328588.09802 -0.16295497 -2.9029033 -200 45 -200 45 -200 45
246328704.78413 -0.16541696 -2.9180324 -200 45 -200 45 -200 45
247328821.47025 -0.16842306 -2.9502459 -200 45 -200 45 -200 45
248328938.15636 -0.16791449 -2.9489033 -200 45 -200 45 -200 45
249329054.84247 -0.16734277 -2.952352 -200 45 -200 45 -200 45
250329171.52859 -0.17023821 -2.9382634 -200 45 -200 45 -200 45
251329288.2147 -0.17011949 -2.9525874 -200 45 -200 45 -200 45
252329404.90082 -0.17173366 -2.9827676 -200 45 -200 45 -200 45
253329521.58693 -0.17422864 -2.991514 -200 45 -200 45 -200 45
254329638.27305 -0.1750457 -3.0257328 -200 45 -200 45 -200 45
255329754.95916 -0.17702487 -3.0042002 -200 45 -200 45 -200 45
256329871.64527 -0.17592736 -3.0102105 -200 45 -200 45 -200 45
257329988.33139 -0.1763026 -2.9954748 -200 45 -200 45 -200 45
258330105.0175 -0.17805578 -3.0146723 -200 45 -200 45 -200 45
259330221.70362 -0.18109278 -3.0319221 -200 45 -200 45 -200 45
260330338.38973 -0.18104367 -3.027488 -200 45 -200 45 -200 45
261330455.07585 -0.18361799 -3.0570271 -200 45 -200 45 -200 45
262330571.76196 -0.184624 -3.0760052 -200 45 -200 45 -200 45
263330688.44807 -0.18753126 -3.1064823 -200 45 -200 45 -200 45
264330805.13419 -0.18999207 -3.12221 -200 45 -200 45 -200 45
265330921.8203 -0.19047807 -3.1018863 -200 45 -200 45 -200 45
266331038.50642 -0.19075909 -3.11076 -200 45 -200 45 -200 45
267331155.19253 -0.19026496 -3.1154315 -200 45 -200 45 -200 45
268331271.87865 -0.19508925 -3.1200256 -200 45 -200 45 -200 45
269331388.56476 -0.1961835 -3.1434135 -200 45 -200 45 -200 45
270331505.25088 -0.19744599 -3.1720967 -200 45 -200 45 -200 45
271331621.93699 -0.19880991 -3.1648021 -200 45 -200 45 -200 45
272331738.6231 -0.1987671 -3.1427855 -200 45 -200 45 -200 45
273331855.30922 -0.19928688 -3.1524944 -200 45 -200 45 -200 45
274331971.99533 -0.19949529 -3.1560733 -200 45 -200 45 -200 45
275332088.68145 -0.20237076 -3.1574154 -200 45 -200 45 -200 45
276332205.36756 -0.20116432 -3.1667233 -200 45 -200 45 -200 45
277332322.05368 -0.20518817 -3.184983 -200 45 -200 45 -200 45
278332438.73979 -0.20736466 -3.2153215 -200 45 -200 45 -200 45
279332555.4259 -0.20978566 -3.2452412 -200 45 -200 45 -200 45
280332672.11202 -0.21241297 -3.2663453 -200 45 -200 45 -200 45
281332788.79813 -0.21222894 -3.2367253 -200 45 -200 45 -200 45
282332905.48425 -0.2113706 -3.248632 -200 45 -200 45 -200 45
283333022.17036 -0.21237545 -3.2446623 -200 45 -200 45 -200 45
284333138.85648 -0.21414734 -3.2615073 -200 45 -200 45 -200 45
285333255.54259 -0.21656887 -3.2786901 -200 45 -200 45 -200 45
286333372.2287 -0.21877939 -3.2874379 -200 45 -200 45 -200 45
287333488.91482 -0.22076443 -3.3006001 -200 45 -200 45 -200 45
288333605.60093 -0.21867186 -3.28756 -200 45 -200 45 -200 45
289333722.28705 -0.22057733 -3.2919924 -200 45 -200 45 -200 45
290333838.97316 -0.21879844 -3.2842147 -200 45 -200 45 -200 45
291333955.65928 -0.22100194 -3.2886701 -200 45 -200 45 -200 45
292334072.34539 -0.21981618 -3.2996862 -200 45 -200 45 -200 45
293334189.03151 -0.22270651 -3.3044815 -200 45 -200 45 -200 45
294334305.71762 -0.22736733 -3.3429723 -200 45 -200 45 -200 45
295334422.40373 -0.22950995 -3.365855 -200 45 -200 45 -200 45
296334539.08985 -0.2329046 -3.3974087 -200 45 -200 45 -200 45
297334655.77596 -0.23257495 -3.3982897 -200 45 -200 45 -200 45
298334772.46208 -0.23135218 -3.3908105 -200 45 -200 45 -200 45
299334889.14819 -0.23301576 -3.3710175 -200 45 -200 45 -200 45
300335005.83431 -0.23348229 -3.3772502 -200 45 -200 45 -200 45
301335122.52042 -0.23696534 -3.4148395 -200 45 -200 45 -200 45
302335239.20653 -0.23760018 -3.427932 -200 45 -200 45 -200 45
303335355.89265 -0.24100609 -3.4547818 -200 45 -200 45 -200 45
304335472.57876 -0.23943929 -3.4377866 -200 45 -200 45 -200 45
305335589.26488 -0.24137934 -3.4240365 -200 45 -200 45 -200 45
306335705.95099 -0.23879489 -3.4261215 -200 45 -200 45 -200 45
307335822.63711 -0.24254362 -3.4215391 -200 45 -200 45 -200 45
308335939.32322 -0.24411209 -3.4543948 -200 45 -200 45 -200 45
309336056.00933 -0.24106711 -3.4421375 -200 45 -200 45 -200 45
310336172.69545 -0.24822609 -3.4744325 -200 45 -200 45 -200 45
311336289.38156 -0.25092804 -3.4947426 -200 45 -200 45 -200 45
312336406.06768 -0.25454289 -3.5301099 -200 45 -200 45 -200 45
313336522.75379 -0.25303212 -3.5270436 -200 45 -200 45 -200 45
314336639.43991 -0.25510919 -3.5107608 -200 45 -200 45 -200 45
315336756.12602 -0.25449896 -3.5044632 -200 45 -200 45 -200 45
316336872.81214 -0.25426924 -3.5142884 -200 45 -200 45 -200 45
317336989.49825 -0.25828519 -3.5509195 -200 45 -200 45 -200 45
318337106.18436 -0.26114434 -3.5679576 -200 45 -200 45 -200 45
319337222.87048 -0.26615018 -3.5829351 -200 45 -200 45 -200 45
320337339.55659 -0.26119739 -3.5548472 -200 45 -200 45 -200 45
321337456.24271 -0.26140246 -3.5643992 -200 45 -200 45 -200 45
322337572.92882 -0.26126501 -3.5458496 -200 45 -200 45 -200 45
323337689.61494 -0.26358753 -3.5581157 -200 45 -200 45 -200 45
324337806.30105 -0.26573542 -3.5646822 -200 45 -200 45 -200 45
325337922.98716 -0.2629357 -3.563673 -200 45 -200 45 -200 45
326338039.67328 -0.27004021 -3.5954828 -200 45 -200 45 -200 45
327338156.35939 -0.27145275 -3.6255076 -200 45 -200 45 -200 45
328338273.04551 -0.27807665 -3.6603756 -200 45 -200 45 -200 45
329338389.73162 -0.27715859 -3.6752105 -200 45 -200 45 -200 45
330338506.41774 -0.27638137 -3.6491137 -200 45 -200 45 -200 45
331338623.10385 -0.27708352 -3.6397481 -200 45 -200 45 -200 45
332338739.78997 -0.27603105 -3.6378634 -200 45 -200 45 -200 45
333338856.47608 -0.28051284 -3.6687379 -200 45 -200 45 -200 45
334338973.16219 -0.28253624 -3.6741736 -200 45 -200 45 -200 45
335339089.84831 -0.28571853 -3.7081828 -200 45 -200 45 -200 45
336339206.53442 -0.2856226 -3.6986051 -200 45 -200 45 -200 45
337339323.22054 -0.28495613 -3.6866169 -200 45 -200 45 -200 45
338339439.90665 -0.28428116 -3.6811604 -200 45 -200 45 -200 45
339339556.59277 -0.28708974 -3.687212 -200 45 -200 45 -200 45
340339673.27888 -0.28944823 -3.6904571 -200 45 -200 45 -200 45
341339789.96499 -0.28992474 -3.6927743 -200 45 -200 45 -200 45
342339906.65111 -0.29112232 -3.7144341 -200 45 -200 45 -200 45
343340023.33722 -0.29602206 -3.7449327 -200 45 -200 45 -200 45
344340140.02334 -0.30037612 -3.7799447 -200 45 -200 45 -200 45
345340256.70945 -0.30321622 -3.7878342 -200 45 -200 45 -200 45
346340373.39557 -0.30079696 -3.77439 -200 45 -200 45 -200 45
347340490.08168 -0.30342719 -3.7715652 -200 45 -200 45 -200 45
348340606.76779 -0.30027461 -3.7624085 -200 45 -200 45 -200 45
349340723.45391 -0.3042717 -3.7767045 -200 45 -200 45 -200 45
350340840.14002 -0.30893034 -3.8194816 -200 45 -200 45 -200 45
351340956.82614 -0.31088194 -3.8288496 -200 45 -200 45 -200 45
352341073.51225 -0.31278628 -3.8315637 -200 45 -200 45 -200 45
353341190.19837 -0.31093866 -3.8018486 -200 45 -200 45 -200 45
354341306.88448 -0.3104454 -3.8127525 -200 45 -200 45 -200 45
355341423.5706 -0.31112331 -3.7889936 -200 45 -200 45 -200 45
356341540.25671 -0.31454983 -3.8134308 -200 45 -200 45 -200 45
357341656.94282 -0.31467423 -3.8089998 -200 45 -200 45 -200 45
358341773.62894 -0.31557938 -3.8240983 -200 45 -200 45 -200 45
359341890.31505 -0.32051852 -3.8556917 -200 45 -200 45 -200 45
360342007.00117 -0.32537764 -3.8761921 -200 45 -200 45 -200 45
361342123.68728 -0.32873556 -3.9016311 -200 45 -200 45 -200 45
362342240.3734 -0.32655603 -3.9021559 -200 45 -200 45 -200 45
363342357.05951 -0.32710359 -3.8831837 -200 45 -200 45 -200 45
364342473.74562 -0.32601073 -3.8591914 -200 45 -200 45 -200 45
365342590.43174 -0.32892096 -3.8814361 -200 45 -200 45 -200 45
366342707.11785 -0.33283302 -3.9128933 -200 45 -200 45 -200 45
367342823.80397 -0.33366483 -3.9211771 -200 45 -200 45 -200 45
368342940.49008 -0.33808285 -3.9458277 -200 45 -200 45 -200 45
369343057.1762 -0.33563206 -3.9189787 -200 45 -200 45 -200 45
370343173.86231 -0.33506551 -3.909775 -200 45 -200 45 -200 45
371343290.54842 -0.33449066 -3.9124289 -200 45 -200 45 -200 45
372343407.23454 -0.33675057 -3.9215915 -200 45 -200 45 -200 45
373343523.92065 -0.3401047 -3.9220171 -200 45 -200 45 -200 45
374343640.60677 -0.34009659 -3.9126604 -200 45 -200 45 -200 45
375343757.29288 -0.34707648 -3.9569476 -200 45 -200 45 -200 45
376343873.979 -0.34837714 -3.9837036 -200 45 -200 45 -200 45
377343990.66511 -0.35457063 -4.011261 -200 45 -200 45 -200 45
378344107.35123 -0.35495293 -4.0045404 -200 45 -200 45 -200 45
379344224.03734 -0.35175264 -3.99245 -200 45 -200 45 -200 45
380344340.72345 -0.35234943 -3.9813614 -200 45 -200 45 -200 45
381344457.40957 -0.35368344 -3.9880211 -200 45 -200 45 -200 45
382344574.09568 -0.35800856 -4.0220861 -200 45 -200 45 -200 45
383344690.7818 -0.36088267 -4.0220828 -200 45 -200 45 -200 45
384344807.46791 -0.36344343 -4.0403419 -200 45 -200 45 -200 45
385344924.15403 -0.36223954 -4.0221357 -200 45 -200 45 -200 45
386345040.84014 -0.36191934 -4.0128198 -200 45 -200 45 -200 45
387345157.52625 -0.36220494 -4.0088258 -200 45 -200 45 -200 45
388345274.21237 -0.36315581 -4.0130367 -200 45 -200 45 -200 45
389345390.89848 -0.36626369 -4.0274596 -200 45 -200 45 -200 45
390345507.5846 -0.36416233 -4.0175781 -200 45 -200 45 -200 45
391345624.27071 -0.36913058 -4.0446911 -200 45 -200 45 -200 45
392345740.95683 -0.37260967 -4.0746651 -200 45 -200 45 -200 45
393345857.64294 -0.37864634 -4.1016245 -200 45 -200 45 -200 45
394345974.32905 -0.37930223 -4.1104765 -200 45 -200 45 -200 45
395346091.01517 -0.37936804 -4.0905371 -200 45 -200 45 -200 45
396346207.70128 -0.3784444 -4.0791092 -200 45 -200 45 -200 45
397346324.3874 -0.37665871 -4.0737863 -200 45 -200 45 -200 45
398346441.07351 -0.38215625 -4.1073351 -200 45 -200 45 -200 45
399346557.75963 -0.38520876 -4.1236181 -200 45 -200 45 -200 45
400346674.44574 -0.38970983 -4.1422691 -200 45 -200 45 -200 45
401346791.13186 -0.39122531 -4.1263747 -200 45 -200 45 -200 45
402346907.81797 -0.38733503 -4.1167922 -200 45 -200 45 -200 45
403347024.50408 -0.38625973 -4.1069098 -200 45 -200 45 -200 45
404347141.1902 -0.3874788 -4.1053953 -200 45 -200 45 -200 45
405347257.87631 -0.39032745 -4.1268067 -200 45 -200 45 -200 45
406347374.56243 -0.39094374 -4.1133561 -200 45 -200 45 -200 45
407347491.24854 -0.39290056 -4.1321797 -200 45 -200 45 -200 45
408347607.93466 -0.40066022 -4.1656246 -200 45 -200 45 -200 45
409347724.62077 -0.40454623 -4.1922674 -200 45 -200 45 -200 45
410347841.30688 -0.40784341 -4.1975994 -200 45 -200 45 -200 45
411347957.993 -0.40408596 -4.178865 -200 45 -200 45 -200 45
412348074.67911 -0.40688983 -4.1781154 -200 45 -200 45 -200 45
413348191.36523 -0.40487698 -4.1563826 -200 45 -200 45 -200 45
414348308.05134 -0.40938711 -4.1785922 -200 45 -200 45 -200 45
415348424.73746 -0.41303498 -4.2128496 -200 45 -200 45 -200 45
416348541.42357 -0.41511685 -4.2181697 -200 45 -200 45 -200 45
417348658.10968 -0.41725069 -4.2313075 -200 45 -200 45 -200 45
418348774.7958 -0.41389427 -4.198772 -200 45 -200 45 -200 45
419348891.48191 -0.41297406 -4.1981344 -200 45 -200 45 -200 45
420349008.16803 -0.41396573 -4.2011433 -200 45 -200 45 -200 45
421349124.85414 -0.41706118 -4.1942863 -200 45 -200 45 -200 45
422349241.54026 -0.41866976 -4.2012625 -200 45 -200 45 -200 45
423349358.22637 -0.419265 -4.2009659 -200 45 -200 45 -200 45
424349474.91249 -0.42632657 -4.2459168 -200 45 -200 45 -200 45
425349591.5986 -0.42791885 -4.246531 -200 45 -200 45 -200 45
426349708.28471 -0.43654364 -4.2820411 -200 45 -200 45 -200 45
427349824.97083 -0.43328553 -4.2573147 -200 45 -200 45 -200 45
428349941.65694 -0.43352264 -4.2555346 -200 45 -200 45 -200 45
429350058.34306 -0.43308645 -4.2452378 -200 45 -200 45 -200 45
430350175.02917 -0.43217391 -4.2471051 -200 45 -200 45 -200 45
431350291.71529 -0.43806064 -4.2788978 -200 45 -200 45 -200 45
432350408.4014 -0.43950343 -4.2868204 -200 45 -200 45 -200 45
433350525.08751 -0.44801036 -4.2989902 -200 45 -200 45 -200 45
434350641.77363 -0.44305915 -4.2753754 -200 45 -200 45 -200 45
435350758.45974 -0.44166419 -4.2641573 -200 45 -200 45 -200 45
436350875.14586 -0.44130629 -4.2592216 -200 45 -200 45 -200 45
437350991.83197 -0.44214481 -4.2543454 -200 45 -200 45 -200 45
438351108.51809 -0.44536653 -4.2609029 -200 45 -200 45 -200 45
439351225.2042 -0.44522944 -4.2507858 -200 45 -200 45 -200 45
440351341.89032 -0.45042372 -4.2805147 -200 45 -200 45 -200 45
441351458.57643 -0.45392808 -4.3027229 -200 45 -200 45 -200 45
442351575.26254 -0.45966682 -4.3365178 -200 45 -200 45 -200 45
443351691.94866 -0.45903322 -4.3292937 -200 45 -200 45 -200 45
444351808.63477 -0.45833528 -4.3120522 -200 45 -200 45 -200 45
445351925.32089 -0.45838016 -4.3053393 -200 45 -200 45 -200 45
446352042.007 -0.45743293 -4.29355 -200 45 -200 45 -200 45
447352158.69312 -0.46197152 -4.3238082 -200 45 -200 45 -200 45
448352275.37923 -0.46440968 -4.3264551 -200 45 -200 45 -200 45
449352392.06534 -0.46950901 -4.3535929 -200 45 -200 45 -200 45
450352508.75146 -0.46658549 -4.3356299 -200 45 -200 45 -200 45
451352625.43757 -0.46513802 -4.3194675 -200 45 -200 45 -200 45
452352742.12369 -0.46386671 -4.3132849 -200 45 -200 45 -200 45
453352858.8098 -0.46557367 -4.3237257 -200 45 -200 45 -200 45
454352975.49592 -0.46819463 -4.3272834 -200 45 -200 45 -200 45
455353092.18203 -0.46807411 -4.3218932 -200 45 -200 45 -200 45
456353208.86814 -0.47372073 -4.3390942 -200 45 -200 45 -200 45
457353325.55426 -0.47843707 -4.3768587 -200 45 -200 45 -200 45
458353442.24037 -0.48415914 -4.3902321 -200 45 -200 45 -200 45
459353558.92649 -0.48554754 -4.4022813 -200 45 -200 45 -200 45
460353675.6126 -0.48262826 -4.3904858 -200 45 -200 45 -200 45
461353792.29872 -0.48267946 -4.3825326 -200 45 -200 45 -200 45
462353908.98483 -0.48229501 -4.3579316 -200 45 -200 45 -200 45
463354025.67095 -0.48571372 -4.3842149 -200 45 -200 45 -200 45
464354142.35706 -0.49035415 -4.4071126 -200 45 -200 45 -200 45
465354259.04317 -0.49464938 -4.4255686 -200 45 -200 45 -200 45
466354375.72929 -0.49410868 -4.4170933 -200 45 -200 45 -200 45
467354492.4154 -0.48956072 -4.385797 -200 45 -200 45 -200 45
468354609.10152 -0.49162045 -4.3758621 -200 45 -200 45 -200 45
469354725.78763 -0.48978791 -4.3738661 -200 45 -200 45 -200 45
470354842.47375 -0.49290398 -4.398839 -200 45 -200 45 -200 45
471354959.15986 -0.49330416 -4.387423 -200 45 -200 45 -200 45
472355075.84597 -0.498225 -4.4122605 -200 45 -200 45 -200 45
473355192.53209 -0.50368714 -4.4420385 -200 45 -200 45 -200 45
474355309.2182 -0.50632948 -4.444562 -200 45 -200 45 -200 45
475355425.90432 -0.51343423 -4.4639268 -200 45 -200 45 -200 45
476355542.59043 -0.50941002 -4.4460893 -200 45 -200 45 -200 45
477355659.27655 -0.50852758 -4.4436755 -200 45 -200 45 -200 45
478355775.96266 -0.50611484 -4.4302044 -200 45 -200 45 -200 45
479355892.64877 -0.50932181 -4.4344788 -200 45 -200 45 -200 45
480356009.33489 -0.51552105 -4.4576993 -200 45 -200 45 -200 45
481356126.021 -0.51842147 -4.4695582 -200 45 -200 45 -200 45
482356242.70712 -0.52171344 -4.4869881 -200 45 -200 45 -200 45
483356359.39323 -0.51788419 -4.4568667 -200 45 -200 45 -200 45
484356476.07935 -0.51647347 -4.4529781 -200 45 -200 45 -200 45
485356592.76546 -0.5162816 -4.4417248 -200 45 -200 45 -200 45
486356709.45158 -0.51825404 -4.4494476 -200 45 -200 45 -200 45
487356826.13769 -0.5207091 -4.4578886 -200 45 -200 45 -200 45
488356942.8238 -0.52007473 -4.4405389 -200 45 -200 45 -200 45
489357059.50992 -0.53021139 -4.4926162 -200 45 -200 45 -200 45
490357176.19603 -0.5308879 -4.491261 -200 45 -200 45 -200 45
491357292.88215 -0.53937751 -4.5224228 -200 45 -200 45 -200 45
492357409.56826 -0.5380699 -4.520412 -200 45 -200 45 -200 45
493357526.25438 -0.53512216 -4.4983778 -200 45 -200 45 -200 45
494357642.94049 -0.5328213 -4.4909625 -200 45 -200 45 -200 45
495357759.6266 -0.5353927 -4.4890251 -200 45 -200 45 -200 45
496357876.31272 -0.54006809 -4.5132666 -200 45 -200 45 -200 45
497357992.99883 -0.54250765 -4.5213089 -200 45 -200 45 -200 45
498358109.68495 -0.54778093 -4.5360899 -200 45 -200 45 -200 45
499358226.37106 -0.54546195 -4.5194883 -200 45 -200 45 -200 45
500358343.05718 -0.54154456 -4.496017 -200 45 -200 45 -200 45
501358459.74329 -0.54188883 -4.4927897 -200 45 -200 45 -200 45
502358576.4294 -0.54435557 -4.5097332 -200 45 -200 45 -200 45
503358693.11552 -0.54771602 -4.5102234 -200 45 -200 45 -200 45
504358809.80163 -0.54370099 -4.4875054 -200 45 -200 45 -200 45
505358926.48775 -0.55071646 -4.520647 -200 45 -200 45 -200 45
506359043.17386 -0.55590761 -4.5397663 -200 45 -200 45 -200 45
507359159.85998 -0.56294751 -4.5677543 -200 45 -200 45 -200 45
508359276.54609 -0.56381309 -4.5715351 -200 45 -200 45 -200 45
509359393.23221 -0.56024641 -4.5519757 -200 45 -200 45 -200 45
510359509.91832 -0.56034124 -4.5336838 -200 45 -200 45 -200 45
511359626.60443 -0.55833989 -4.5409985 -200 45 -200 45 -200 45
512359743.29055 -0.56404948 -4.5568519 -200 45 -200 45 -200 45
513359859.97666 -0.56727505 -4.5718474 -200 45 -200 45 -200 45
514359976.66278 -0.57100672 -4.588037 -200 45 -200 45 -200 45
515360093.34889 -0.57149237 -4.5806756 -200 45 -200 45 -200 45
516360210.03501 -0.56611067 -4.5477204 -200 45 -200 45 -200 45
517360326.72112 -0.56768334 -4.5496354 -200 45 -200 45 -200 45
518360443.40723 -0.56766272 -4.552269 -200 45 -200 45 -200 45
519360560.09335 -0.57036728 -4.5660515 -200 45 -200 45 -200 45
520360676.77946 -0.56968188 -4.5503006 -200 45 -200 45 -200 45
521360793.46558 -0.57443804 -4.5657806 -200 45 -200 45 -200 45
522360910.15169 -0.58070058 -4.5972071 -200 45 -200 45 -200 45
523361026.83781 -0.5855245 -4.6216979 -200 45 -200 45 -200 45
524361143.52392 -0.59014595 -4.6349096 -200 45 -200 45 -200 45
525361260.21004 -0.58675814 -4.6137214 -200 45 -200 45 -200 45
526361376.89615 -0.58624709 -4.6039896 -200 45 -200 45 -200 45
527361493.58226 -0.58356988 -4.5860019 -200 45 -200 45 -200 45
528361610.26838 -0.58888376 -4.6066198 -200 45 -200 45 -200 45
529361726.95449 -0.59310228 -4.6293488 -200 45 -200 45 -200 45
530361843.64061 -0.59687364 -4.6321273 -200 45 -200 45 -200 45
531361960.32672 -0.59892195 -4.6451159 -200 45 -200 45 -200 45
532362077.01284 -0.59480411 -4.6057706 -200 45 -200 45 -200 45
533362193.69895 -0.59358358 -4.6147151 -200 45 -200 45 -200 45
534362310.38506 -0.59294409 -4.5957546 -200 45 -200 45 -200 45
535362427.07118 -0.59559232 -4.600235 -200 45 -200 45 -200 45
536362543.75729 -0.59667856 -4.6121573 -200 45 -200 45 -200 45
537362660.44341 -0.59762961 -4.6025305 -200 45 -200 45 -200 45
538362777.12952 -0.60696483 -4.6308546 -200 45 -200 45 -200 45
539362893.81564 -0.60940242 -4.6431193 -200 45 -200 45 -200 45
540363010.50175 -0.61460578 -4.6842661 -200 45 -200 45 -200 45
541363127.18786 -0.61220253 -4.6605263 -200 45 -200 45 -200 45
542363243.87398 -0.61120301 -4.6514525 -200 45 -200 45 -200 45
543363360.56009 -0.610246 -4.6311917 -200 45 -200 45 -200 45
544363477.24621 -0.61266929 -4.6381087 -200 45 -200 45 -200 45
545363593.93232 -0.61785096 -4.6672573 -200 45 -200 45 -200 45
546363710.61844 -0.6211248 -4.6665492 -200 45 -200 45 -200 45
547363827.30455 -0.62670678 -4.6852288 -200 45 -200 45 -200 45
548363943.99067 -0.62137777 -4.6606355 -200 45 -200 45 -200 45
549364060.67678 -0.61973447 -4.645226 -200 45 -200 45 -200 45
550364177.36289 -0.61785632 -4.63658 -200 45 -200 45 -200 45
551364294.04901 -0.62080944 -4.6355658 -200 45 -200 45 -200 45
552364410.73512 -0.62393343 -4.6433005 -200 45 -200 45 -200 45
553364527.42124 -0.62273431 -4.6359401 -200 45 -200 45 -200 45
554364644.10735 -0.62944001 -4.6700406 -200 45 -200 45 -200 45
555364760.79347 -0.63450593 -4.670692 -200 45 -200 45 -200 45
556364877.47958 -0.64123434 -4.7029696 -200 45 -200 45 -200 45
557364994.16569 -0.64258176 -4.6991892 -200 45 -200 45 -200 45
558365110.85181 -0.63671923 -4.6888256 -200 45 -200 45 -200 45
559365227.53792 -0.63864845 -4.6749349 -200 45 -200 45 -200 45
560365344.22404 -0.63745242 -4.6682 -200 45 -200 45 -200 45
561365460.91015 -0.64158094 -4.6928253 -200 45 -200 45 -200 45
562365577.59627 -0.6439029 -4.6982989 -200 45 -200 45 -200 45
563365694.28238 -0.64973515 -4.722199 -200 45 -200 45 -200 45
564365810.96849 -0.64953798 -4.7026653 -200 45 -200 45 -200 45
565365927.65461 -0.6453346 -4.6827993 -200 45 -200 45 -200 45
566366044.34072 -0.64488745 -4.6743383 -200 45 -200 45 -200 45
567366161.02684 -0.64583409 -4.6710849 -200 45 -200 45 -200 45
568366277.71295 -0.64967775 -4.6827559 -200 45 -200 45 -200 45
569366394.39907 -0.64738488 -4.6742992 -200 45 -200 45 -200 45
570366511.08518 -0.65238881 -4.6797628 -200 45 -200 45 -200 45
571366627.7713 -0.6591754 -4.712368 -200 45 -200 45 -200 45
572366744.45741 -0.66395134 -4.723 -200 45 -200 45 -200 45
573366861.14352 -0.66945577 -4.7300119 -200 45 -200 45 -200 45
574366977.82964 -0.66334933 -4.7274122 -200 45 -200 45 -200 45
575367094.51575 -0.66249329 -4.7179418 -200 45 -200 45 -200 45
576367211.20187 -0.66165394 -4.6946864 -200 45 -200 45 -200 45
577367327.88798 -0.66656023 -4.7053261 -200 45 -200 45 -200 45
578367444.5741 -0.67168605 -4.7287679 -200 45 -200 45 -200 45
579367561.26021 -0.67582756 -4.739181 -200 45 -200 45 -200 45
580367677.94632 -0.67635536 -4.7420831 -200 45 -200 45 -200 45
581367794.63244 -0.67072648 -4.6998386 -200 45 -200 45 -200 45
582367911.31855 -0.66994417 -4.7046523 -200 45 -200 45 -200 45
583368028.00467 -0.6708014 -4.6972547 -200 45 -200 45 -200 45
584368144.69078 -0.67308009 -4.7067895 -200 45 -200 45 -200 45
585368261.3769 -0.67453331 -4.7062998 -200 45 -200 45 -200 45
586368378.06301 -0.67603385 -4.7121501 -200 45 -200 45 -200 45
587368494.74912 -0.68484133 -4.7390904 -200 45 -200 45 -200 45
588368611.43524 -0.68843484 -4.7517967 -200 45 -200 45 -200 45
589368728.12135 -0.69476438 -4.7629013 -200 45 -200 45 -200 45
590368844.80747 -0.69096226 -4.7573891 -200 45 -200 45 -200 45
591368961.49358 -0.6895439 -4.7330151 -200 45 -200 45 -200 45
592369078.1797 -0.68787313 -4.7324142 -200 45 -200 45 -200 45
593369194.86581 -0.68999481 -4.7410088 -200 45 -200 45 -200 45
594369311.55193 -0.69708121 -4.7579021 -200 45 -200 45 -200 45
595369428.23804 -0.6990642 -4.7507682 -200 45 -200 45 -200 45
596369544.92415 -0.70299453 -4.7806015 -200 45 -200 45 -200 45
597369661.61027 -0.69875711 -4.7431402 -200 45 -200 45 -200 45
598369778.29638 -0.69702804 -4.7368927 -200 45 -200 45 -200 45
599369894.9825 -0.6950022 -4.7137489 -200 45 -200 45 -200 45
600370011.66861 -0.69795966 -4.7428956 -200 45 -200 45 -200 45
601370128.35473 -0.69976115 -4.7371631 -200 45 -200 45 -200 45
602370245.04084 -0.69730461 -4.7261667 -200 45 -200 45 -200 45
603370361.72695 -0.70792985 -4.7631421 -200 45 -200 45 -200 45
604370478.41307 -0.71158493 -4.7722178 -200 45 -200 45 -200 45
605370595.09918 -0.71974802 -4.7910442 -200 45 -200 45 -200 45
606370711.7853 -0.71922684 -4.8007522 -200 45 -200 45 -200 45
607370828.47141 -0.71354342 -4.7820997 -200 45 -200 45 -200 45
608370945.15753 -0.71492106 -4.7685418 -200 45 -200 45 -200 45
609371061.84364 -0.71350986 -4.7684793 -200 45 -200 45 -200 45
610371178.52976 -0.72044742 -4.7848668 -200 45 -200 45 -200 45
611371295.21587 -0.72373509 -4.7920966 -200 45 -200 45 -200 45
612371411.90198 -0.7302829 -4.8176975 -200 45 -200 45 -200 45
613371528.5881 -0.72734994 -4.7913828 -200 45 -200 45 -200 45
614371645.27421 -0.72246832 -4.7634196 -200 45 -200 45 -200 45
615371761.96033 -0.72136426 -4.7672939 -200 45 -200 45 -200 45
616371878.64644 -0.72396624 -4.766798 -200 45 -200 45 -200 45
617371995.33256 -0.72697377 -4.7761307 -200 45 -200 45 -200 45
618372112.01867 -0.72631222 -4.7577777 -200 45 -200 45 -200 45
619372228.70478 -0.73186535 -4.7872925 -200 45 -200 45 -200 45
620372345.3909 -0.73798823 -4.7944369 -200 45 -200 45 -200 45
621372462.07701 -0.74546385 -4.8125196 -200 45 -200 45 -200 45
622372578.76313 -0.74810618 -4.825171 -200 45 -200 45 -200 45
623372695.44924 -0.74301815 -4.8045135 -200 45 -200 45 -200 45
624372812.13536 -0.74267417 -4.7942495 -200 45 -200 45 -200 45
625372928.82147 -0.74225432 -4.7899227 -200 45 -200 45 -200 45
626373045.50758 -0.7472108 -4.8079076 -200 45 -200 45 -200 45
627373162.1937 -0.74940443 -4.8121271 -200 45 -200 45 -200 45
628373278.87981 -0.75645852 -4.8343992 -200 45 -200 45 -200 45
629373395.56593 -0.75278026 -4.8025045 -200 45 -200 45 -200 45
630373512.25204 -0.74958193 -4.7920294 -200 45 -200 45 -200 45
631373628.93816 -0.74663556 -4.7787924 -200 45 -200 45 -200 45
632373745.62427 -0.74947858 -4.7796502 -200 45 -200 45 -200 45
633373862.31039 -0.75380921 -4.7906094 -200 45 -200 45 -200 45
634373978.9965 -0.74841863 -4.7844572 -200 45 -200 45 -200 45
635374095.68261 -0.75727105 -4.7975063 -200 45 -200 45 -200 45
636374212.36873 -0.76386136 -4.8167553 -200 45 -200 45 -200 45
637374329.05484 -0.77056217 -4.8380914 -200 45 -200 45 -200 45
638374445.74096 -0.77253753 -4.8304811 -200 45 -200 45 -200 45
639374562.42707 -0.76869488 -4.8194466 -200 45 -200 45 -200 45
640374679.11319 -0.76837665 -4.8122587 -200 45 -200 45 -200 45
641374795.7993 -0.76774609 -4.8039398 -200 45 -200 45 -200 45
642374912.48541 -0.77182567 -4.8137584 -200 45 -200 45 -200 45
643375029.17153 -0.77856976 -4.8226027 -200 45 -200 45 -200 45
644375145.85764 -0.78370953 -4.8363175 -200 45 -200 45 -200 45
645375262.54376 -0.78195065 -4.8337798 -200 45 -200 45 -200 45
646375379.22987 -0.77745748 -4.8081536 -200 45 -200 45 -200 45
647375495.91599 -0.7739715 -4.7928801 -200 45 -200 45 -200 45
648375612.6021 -0.77712965 -4.7876673 -200 45 -200 45 -200 45
649375729.28821 -0.77881902 -4.8051181 -200 45 -200 45 -200 45
650375845.97433 -0.77734417 -4.7855458 -200 45 -200 45 -200 45
651375962.66044 -0.78236938 -4.7936263 -200 45 -200 45 -200 45
652376079.34656 -0.79067022 -4.816895 -200 45 -200 45 -200 45
653376196.03267 -0.79542732 -4.8316627 -200 45 -200 45 -200 45
654376312.71879 -0.79945588 -4.8366175 -200 45 -200 45 -200 45
655376429.4049 -0.79437077 -4.8213634 -200 45 -200 45 -200 45
656376546.09102 -0.79489666 -4.8158426 -200 45 -200 45 -200 45
657376662.77713 -0.79064381 -4.7992349 -200 45 -200 45 -200 45
658376779.46324 -0.79577649 -4.8034372 -200 45 -200 45 -200 45
659376896.14936 -0.80173022 -4.8290639 -200 45 -200 45 -200 45
660377012.83547 -0.80580795 -4.8250556 -200 45 -200 45 -200 45
661377129.52159 -0.80824965 -4.8338041 -200 45 -200 45 -200 45
662377246.2077 -0.80052799 -4.7997365 -200 45 -200 45 -200 45
663377362.89382 -0.8017866 -4.7967844 -200 45 -200 45 -200 45
664377479.57993 -0.79829687 -4.7916312 -200 45 -200 45 -200 45
665377596.26604 -0.80240619 -4.7902675 -200 45 -200 45 -200 45
666377712.95216 -0.80338126 -4.7883182 -200 45 -200 45 -200 45
667377829.63827 -0.80539376 -4.788763 -200 45 -200 45 -200 45
668377946.32439 -0.81290525 -4.8187399 -200 45 -200 45 -200 45
669378063.0105 -0.8189429 -4.8228912 -200 45 -200 45 -200 45
670378179.69662 -0.82424057 -4.8387475 -200 45 -200 45 -200 45
671378296.38273 -0.82097542 -4.8224707 -200 45 -200 45 -200 45
672378413.06884 -0.81871909 -4.821106 -200 45 -200 45 -200 45
673378529.75496 -0.81666857 -4.8010907 -200 45 -200 45 -200 45
674378646.44107 -0.81900507 -4.7985048 -200 45 -200 45 -200 45
675378763.12719 -0.82679725 -4.8195958 -200 45 -200 45 -200 45
676378879.8133 -0.82968414 -4.8271065 -200 45 -200 45 -200 45
677378996.49942 -0.83398551 -4.8489385 -200 45 -200 45 -200 45
678379113.18553 -0.82739478 -4.8095875 -200 45 -200 45 -200 45
679379229.87165 -0.82552642 -4.79252 -200 45 -200 45 -200 45
680379346.55776 -0.82362312 -4.7832699 -200 45 -200 45 -200 45
681379463.24387 -0.82735217 -4.7928629 -200 45 -200 45 -200 45
682379579.92999 -0.82788497 -4.8077226 -200 45 -200 45 -200 45
683379696.6161 -0.82751006 -4.7851319 -200 45 -200 45 -200 45
684379813.30222 -0.83680654 -4.8172317 -200 45 -200 45 -200 45
685379929.98833 -0.8406468 -4.8157597 -200 45 -200 45 -200 45
686380046.67445 -0.84949553 -4.846168 -200 45 -200 45 -200 45
687380163.36056 -0.84797317 -4.8400249 -200 45 -200 45 -200 45
688380280.04667 -0.84382808 -4.8195992 -200 45 -200 45 -200 45
689380396.73279 -0.84098488 -4.8029633 -200 45 -200 45 -200 45
690380513.4189 -0.84352881 -4.8110614 -200 45 -200 45 -200 45
691380630.10502 -0.85124171 -4.8205476 -200 45 -200 45 -200 45
692380746.79113 -0.85239345 -4.8212409 -200 45 -200 45 -200 45
693380863.47725 -0.85943615 -4.8308158 -200 45 -200 45 -200 45
694380980.16336 -0.85229045 -4.816246 -200 45 -200 45 -200 45
695381096.84947 -0.85152888 -4.799602 -200 45 -200 45 -200 45
696381213.53559 -0.84878385 -4.7816062 -200 45 -200 45 -200 45
697381330.2217 -0.85092586 -4.7903385 -200 45 -200 45 -200 45
698381446.90782 -0.85614103 -4.8003063 -200 45 -200 45 -200 45
699381563.59393 -0.85274029 -4.7904649 -200 45 -200 45 -200 45
700381680.28005 -0.86168444 -4.8045168 -200 45 -200 45 -200 45
701381796.96616 -0.86597174 -4.8183942 -200 45 -200 45 -200 45
702381913.65228 -0.8731609 -4.8368001 -200 45 -200 45 -200 45
703382030.33839 -0.874928 -4.8374891 -200 45 -200 45 -200 45
704382147.0245 -0.86793476 -4.8118773 -200 45 -200 45 -200 45
705382263.71062 -0.86930978 -4.8042011 -200 45 -200 45 -200 45
706382380.39673 -0.86720681 -4.7818723 -200 45 -200 45 -200 45
707382497.08285 -0.87337548 -4.8132677 -200 45 -200 45 -200 45
708382613.76896 -0.87809324 -4.8218398 -200 45 -200 45 -200 45
709382730.45508 -0.88461894 -4.8306913 -200 45 -200 45 -200 45
710382847.14119 -0.88141972 -4.8174438 -200 45 -200 45 -200 45
711382963.8273 -0.8756718 -4.7978134 -200 45 -200 45 -200 45
712383080.51342 -0.87293935 -4.7794051 -200 45 -200 45 -200 45
713383197.19953 -0.87642533 -4.7878017 -200 45 -200 45 -200 45
714383313.88565 -0.87854612 -4.7938714 -200 45 -200 45 -200 45
715383430.57176 -0.87683266 -4.7897229 -200 45 -200 45 -200 45
716383547.25788 -0.88270229 -4.7959614 -200 45 -200 45 -200 45
717383663.94399 -0.89108706 -4.8049383 -200 45 -200 45 -200 45
718383780.63011 -0.89598858 -4.8171215 -200 45 -200 45 -200 45
719383897.31622 -0.90053862 -4.8306966 -200 45 -200 45 -200 45
720384014.00233 -0.89322615 -4.8128128 -200 45 -200 45 -200 45
721384130.68845 -0.89470333 -4.7985835 -200 45 -200 45 -200 45
722384247.37456 -0.8906936 -4.7893081 -200 45 -200 45 -200 45
723384364.06068 -0.89566249 -4.8106594 -200 45 -200 45 -200 45
724384480.74679 -0.90304565 -4.8163948 -200 45 -200 45 -200 45
725384597.43291 -0.90525472 -4.8285999 -200 45 -200 45 -200 45
726384714.11902 -0.90720433 -4.8227701 -200 45 -200 45 -200 45
727384830.80513 -0.89947844 -4.793961 -200 45 -200 45 -200 45
728384947.49125 -0.89969367 -4.7911968 -200 45 -200 45 -200 45
729385064.17736 -0.89760327 -4.7828913 -200 45 -200 45 -200 45
730385180.86348 -0.90131199 -4.7881584 -200 45 -200 45 -200 45
731385297.54959 -0.90290415 -4.7903199 -200 45 -200 45 -200 45
732385414.23571 -0.90403533 -4.7902093 -200 45 -200 45 -200 45
733385530.92182 -0.91267693 -4.8144436 -200 45 -200 45 -200 45
734385647.60793 -0.91887963 -4.8194928 -200 45 -200 45 -200 45
735385764.29405 -0.92587662 -4.8165507 -200 45 -200 45 -200 45
736385880.98016 -0.92010838 -4.8062105 -200 45 -200 45 -200 45
737385997.66628 -0.91844082 -4.8126235 -200 45 -200 45 -200 45
738386114.35239 -0.91538632 -4.7907238 -200 45 -200 45 -200 45
739386231.03851 -0.91922027 -4.7978163 -200 45 -200 45 -200 45
740386347.72462 -0.92762715 -4.8069267 -200 45 -200 45 -200 45
741386464.41074 -0.92848045 -4.818531 -200 45 -200 45 -200 45
742386581.09685 -0.93317056 -4.8223286 -200 45 -200 45 -200 45
743386697.78296 -0.92568409 -4.7939124 -200 45 -200 45 -200 45
744386814.46908 -0.92646009 -4.7889209 -200 45 -200 45 -200 45
745386931.15519 -0.9229328 -4.7782931 -200 45 -200 45 -200 45
746387047.84131 -0.92503351 -4.7854843 -200 45 -200 45 -200 45
747387164.52742 -0.9281432 -4.7832875 -200 45 -200 45 -200 45
748387281.21354 -0.92723554 -4.781198 -200 45 -200 45 -200 45
749387397.89965 -0.93832642 -4.8014064 -200 45 -200 45 -200 45
750387514.58576 -0.94047797 -4.8129253 -200 45 -200 45 -200 45
751387631.27188 -0.94853681 -4.8196702 -200 45 -200 45 -200 45
752387747.95799 -0.94665903 -4.8175788 -200 45 -200 45 -200 45
753387864.64411 -0.94332278 -4.8006949 -200 45 -200 45 -200 45
754387981.33022 -0.94129038 -4.7854929 -200 45 -200 45 -200 45
755388098.01634 -0.94272423 -4.7844744 -200 45 -200 45 -200 45
756388214.70245 -0.95089191 -4.8023896 -200 45 -200 45 -200 45
757388331.38856 -0.95086229 -4.8086033 -200 45 -200 45 -200 45
758388448.07468 -0.95795137 -4.8242531 -200 45 -200 45 -200 45
759388564.76079 -0.95228416 -4.7853441 -200 45 -200 45 -200 45
760388681.44691 -0.94863212 -4.7696037 -200 45 -200 45 -200 45
761388798.13302 -0.94523871 -4.7616534 -200 45 -200 45 -200 45
762388914.81914 -0.95006579 -4.7649908 -200 45 -200 45 -200 45
763389031.50525 -0.95069504 -4.771574 -200 45 -200 45 -200 45
764389148.19137 -0.94942862 -4.7576189 -200 45 -200 45 -200 45
765389264.87748 -0.95875281 -4.7963643 -200 45 -200 45 -200 45
766389381.56359 -0.96441174 -4.7886157 -200 45 -200 45 -200 45
767389498.24971 -0.97141814 -4.8039608 -200 45 -200 45 -200 45
768389614.93582 -0.97289562 -4.7947407 -200 45 -200 45 -200 45
769389731.62194 -0.96560782 -4.782382 -200 45 -200 45 -200 45
770389848.30805 -0.96463412 -4.7704287 -200 45 -200 45 -200 45
771389964.99417 -0.96733403 -4.7638512 -200 45 -200 45 -200 45
772390081.68028 -0.97229558 -4.7798862 -200 45 -200 45 -200 45
773390198.36639 -0.97515029 -4.7854633 -200 45 -200 45 -200 45
774390315.05251 -0.98365778 -4.7877641 -200 45 -200 45 -200 45
775390431.73862 -0.9772051 -4.7729435 -200 45 -200 45 -200 45
776390548.42474 -0.97442967 -4.7549796 -200 45 -200 45 -200 45
777390665.11085 -0.97104424 -4.7443986 -200 45 -200 45 -200 45
778390781.79697 -0.972031 -4.7509542 -200 45 -200 45 -200 45
779390898.48308 -0.97739929 -4.7511101 -200 45 -200 45 -200 45
780391015.16919 -0.9716056 -4.7378478 -200 45 -200 45 -200 45
781391131.85531 -0.98201436 -4.7409387 -200 45 -200 45 -200 45
782391248.54142 -0.98750967 -4.75738 -200 45 -200 45 -200 45
783391365.22754 -0.99448639 -4.7681265 -200 45 -200 45 -200 45
784391481.91365 -0.99724013 -4.766634 -200 45 -200 45 -200 45
785391598.59977 -0.99108267 -4.7514367 -200 45 -200 45 -200 45
786391715.28588 -0.99060231 -4.7529731 -200 45 -200 45 -200 45
787391831.972 -0.98902613 -4.7423105 -200 45 -200 45 -200 45
788391948.65811 -0.99488705 -4.7476764 -200 45 -200 45 -200 45
789392065.34422 -0.99905223 -4.7659659 -200 45 -200 45 -200 45
790392182.03034 -1.0057952 -4.7600956 -200 45 -200 45 -200 45
791392298.71645 -1.0029696 -4.742291 -200 45 -200 45 -200 45
792392415.40257 -0.99582136 -4.7281685 -200 45 -200 45 -200 45
793392532.08868 -0.99702322 -4.7216311 -200 45 -200 45 -200 45
794392648.7748 -0.99663699 -4.7182174 -200 45 -200 45 -200 45
795392765.46091 -0.99829805 -4.7220984 -200 45 -200 45 -200 45
796392882.14702 -0.99613196 -4.7114325 -200 45 -200 45 -200 45
797392998.83314 -1.0018339 -4.7219448 -200 45 -200 45 -200 45
798393115.51925 -1.0112071 -4.7295613 -200 45 -200 45 -200 45
799393232.20537 -1.0158602 -4.735045 -200 45 -200 45 -200 45
800393348.89148 -1.0218934 -4.7483325 -200 45 -200 45 -200 45
801393465.5776 -1.0148048 -4.7462516 -200 45 -200 45 -200 45
802393582.26371 -1.0136634 -4.7261977 -200 45 -200 45 -200 45
803393698.94983 -1.0105828 -4.7046971 -200 45 -200 45 -200 45
804393815.63594 -1.0154138 -4.7221155 -200 45 -200 45 -200 45
805393932.32205 -1.0222671 -4.7297049 -200 45 -200 45 -200 45
806394049.00817 -1.0257164 -4.7230387 -200 45 -200 45 -200 45
807394165.69428 -1.0279356 -4.7308707 -200 45 -200 45 -200 45
808394282.3804 -1.0193437 -4.7096133 -200 45 -200 45 -200 45
809394399.06651 -1.0210462 -4.6892085 -200 45 -200 45 -200 45
810394515.75263 -1.0155319 -4.7023849 -200 45 -200 45 -200 45
811394632.43874 -1.0204669 -4.6976528 -200 45 -200 45 -200 45
812394749.12485 -1.0218771 -4.6910419 -200 45 -200 45 -200 45
813394865.81097 -1.0217637 -4.6886468 -200 45 -200 45 -200 45
814394982.49708 -1.0313047 -4.7146382 -200 45 -200 45 -200 45
815395099.1832 -1.0357081 -4.6992292 -200 45 -200 45 -200 45
816395215.86931 -1.0435922 -4.7170539 -200 45 -200 45 -200 45
817395332.55543 -1.038465 -4.7113404 -200 45 -200 45 -200 45
818395449.24154 -1.0365618 -4.6973619 -200 45 -200 45 -200 45
819395565.92765 -1.0332865 -4.6952591 -200 45 -200 45 -200 45
820395682.61377 -1.034735 -4.6895957 -200 45 -200 45 -200 45
821395799.29988 -1.0441449 -4.7136931 -200 45 -200 45 -200 45
822395915.986 -1.046011 -4.7057614 -200 45 -200 45 -200 45
823396032.67211 -1.0499129 -4.7156668 -200 45 -200 45 -200 45
824396149.35823 -1.0427512 -4.6850038 -200 45 -200 45 -200 45
825396266.04434 -1.0424619 -4.6676044 -200 45 -200 45 -200 45
826396382.73046 -1.0388418 -4.6703639 -200 45 -200 45 -200 45
827396499.41657 -1.0414445 -4.6852241 -200 45 -200 45 -200 45
828396616.10268 -1.0441409 -4.6758161 -200 45 -200 45 -200 45
829396732.7888 -1.0412991 -4.6710858 -200 45 -200 45 -200 45
830396849.47491 -1.0520889 -4.6875472 -200 45 -200 45 -200 45
831396966.16103 -1.055321 -4.681407 -200 45 -200 45 -200 45
832397082.84714 -1.0662644 -4.7060113 -200 45 -200 45 -200 45
833397199.53326 -1.0631994 -4.691093 -200 45 -200 45 -200 45
834397316.21937 -1.0574081 -4.6804204 -200 45 -200 45 -200 45
835397432.90548 -1.0546288 -4.6806526 -200 45 -200 45 -200 45
836397549.5916 -1.0563363 -4.6752429 -200 45 -200 45 -200 45
837397666.27771 -1.0639368 -4.6826539 -200 45 -200 45 -200 45
838397782.96383 -1.0660272 -4.679873 -200 45 -200 45 -200 45
839397899.64994 -1.0745562 -4.6948013 -200 45 -200 45 -200 45
840398016.33606 -1.067943 -4.6844101 -200 45 -200 45 -200 45
841398133.02217 -1.0652351 -4.6680646 -200 45 -200 45 -200 45
842398249.70828 -1.0620611 -4.6621871 -200 45 -200 45 -200 45
843398366.3944 -1.063786 -4.6555109 -200 45 -200 45 -200 45
844398483.08051 -1.0666747 -4.6743355 -200 45 -200 45 -200 45
845398599.76663 -1.0633096 -4.6540642 -200 45 -200 45 -200 45
846398716.45274 -1.0732244 -4.6664824 -200 45 -200 45 -200 45
847398833.13886 -1.0780517 -4.6810503 -200 45 -200 45 -200 45
848398949.82497 -1.0867218 -4.686543 -200 45 -200 45 -200 45
849399066.51109 -1.0877585 -4.6865005 -200 45 -200 45 -200 45
850399183.1972 -1.0803752 -4.6706204 -200 45 -200 45 -200 45
851399299.88331 -1.0790766 -4.6629887 -200 45 -200 45 -200 45
852399416.56943 -1.0778835 -4.6669874 -200 45 -200 45 -200 45
853399533.25554 -1.0850226 -4.6633205 -200 45 -200 45 -200 45
854399649.94166 -1.0881114 -4.6720037 -200 45 -200 45 -200 45
855399766.62777 -1.0958058 -4.6938262 -200 45 -200 45 -200 45
856399883.31389 -1.0938976 -4.6765609 -200 45 -200 45 -200 45
857400000 -1.0876192 -4.6567688 -200 45 -200 45 -200 45
858400116.68611 -1.0837327 -4.6526198 -200 45 -200 45 -200 45
859400233.37223 -1.0850664 -4.6577663 -200 45 -200 45 -200 45
860400350.05834 -1.0882015 -4.6563678 -200 45 -200 45 -200 45
861400466.74446 -1.0853839 -4.6539102 -200 45 -200 45 -200 45
862400583.43057 -1.0933338 -4.6550617 -200 45 -200 45 -200 45
863400700.11669 -1.1001309 -4.6663399 -200 45 -200 45 -200 45
864400816.8028 -1.1074418 -4.6741567 -200 45 -200 45 -200 45
865400933.48891 -1.1113094 -4.6723199 -200 45 -200 45 -200 45
866401050.17503 -1.106208 -4.671102 -200 45 -200 45 -200 45
867401166.86114 -1.1032702 -4.6643834 -200 45 -200 45 -200 45
868401283.54726 -1.1002187 -4.6563144 -200 45 -200 45 -200 45
869401400.23337 -1.104628 -4.6656356 -200 45 -200 45 -200 45
870401516.91949 -1.1133745 -4.6698751 -200 45 -200 45 -200 45
871401633.6056 -1.1171862 -4.6749244 -200 45 -200 45 -200 45
872401750.29172 -1.1211362 -4.6715488 -200 45 -200 45 -200 45
873401866.97783 -1.1117969 -4.6328654 -200 45 -200 45 -200 45
874401983.66394 -1.1098663 -4.6520438 -200 45 -200 45 -200 45
875402100.35006 -1.1091971 -4.6361084 -200 45 -200 45 -200 45
876402217.03617 -1.1109637 -4.6314797 -200 45 -200 45 -200 45
877402333.72229 -1.1111218 -4.6273165 -200 45 -200 45 -200 45
878402450.4084 -1.1133367 -4.6318383 -200 45 -200 45 -200 45
879402567.09452 -1.122736 -4.6498799 -200 45 -200 45 -200 45
880402683.78063 -1.1285627 -4.6538792 -200 45 -200 45 -200 45
881402800.46674 -1.1350952 -4.6575685 -200 45 -200 45 -200 45
882402917.15286 -1.1290643 -4.6435575 -200 45 -200 45 -200 45
883403033.83897 -1.1277679 -4.6447616 -200 45 -200 45 -200 45
884403150.52509 -1.1252763 -4.6283741 -200 45 -200 45 -200 45
885403267.2112 -1.1280502 -4.6355877 -200 45 -200 45 -200 45
886403383.89732 -1.1360447 -4.6469302 -200 45 -200 45 -200 45
887403500.58343 -1.1401449 -4.6427922 -200 45 -200 45 -200 45
888403617.26954 -1.1441958 -4.6432772 -200 45 -200 45 -200 45
889403733.95566 -1.136187 -4.6283927 -200 45 -200 45 -200 45
890403850.64177 -1.1348485 -4.6150999 -200 45 -200 45 -200 45
891403967.32789 -1.1307791 -4.6113219 -200 45 -200 45 -200 45
892404084.014 -1.1349527 -4.6167817 -200 45 -200 45 -200 45
893404200.70012 -1.1366638 -4.6102815 -200 45 -200 45 -200 45
894404317.38623 -1.1360034 -4.5976453 -200 45 -200 45 -200 45
895404434.07235 -1.1458172 -4.6225786 -200 45 -200 45 -200 45
896404550.75846 -1.1499785 -4.6196356 -200 45 -200 45 -200 45
897404667.44457 -1.1595001 -4.6278224 -200 45 -200 45 -200 45
898404784.13069 -1.1565458 -4.6194735 -200 45 -200 45 -200 45
899404900.8168 -1.1523284 -4.614543 -200 45 -200 45 -200 45
900405017.50292 -1.1504937 -4.6113558 -200 45 -200 45 -200 45
901405134.18903 -1.1525141 -4.5892372 -200 45 -200 45 -200 45
902405250.87515 -1.1594214 -4.5945168 -200 45 -200 45 -200 45
903405367.56126 -1.162928 -4.6017814 -200 45 -200 45 -200 45
904405484.24737 -1.1694134 -4.6044302 -200 45 -200 45 -200 45
905405600.93349 -1.1631246 -4.5936508 -200 45 -200 45 -200 45
906405717.6196 -1.1594636 -4.5795588 -200 45 -200 45 -200 45
907405834.30572 -1.1558404 -4.5692611 -200 45 -200 45 -200 45
908405950.99183 -1.1591066 -4.5669456 -200 45 -200 45 -200 45
909406067.67795 -1.161518 -4.5668116 -200 45 -200 45 -200 45
910406184.36406 -1.1575165 -4.5649209 -200 45 -200 45 -200 45
911406301.05018 -1.1694632 -4.5675383 -200 45 -200 45 -200 45
912406417.73629 -1.1728548 -4.565258 -200 45 -200 45 -200 45
913406534.4224 -1.183598 -4.5867114 -200 45 -200 45 -200 45
914406651.10852 -1.1813701 -4.5809689 -200 45 -200 45 -200 45
915406767.79463 -1.1770906 -4.5642972 -200 45 -200 45 -200 45
916406884.48075 -1.1751094 -4.5564823 -200 45 -200 45 -200 45
917407001.16686 -1.1744468 -4.5500059 -200 45 -200 45 -200 45
918407117.85298 -1.1800816 -4.5481272 -200 45 -200 45 -200 45
919407234.53909 -1.185758 -4.5468702 -200 45 -200 45 -200 45
920407351.2252 -1.1914874 -4.5558558 -200 45 -200 45 -200 45
921407467.91132 -1.1878704 -4.5493846 -200 45 -200 45 -200 45
922407584.59743 -1.1840032 -4.5394225 -200 45 -200 45 -200 45
923407701.28355 -1.1805307 -4.530436 -200 45 -200 45 -200 45
924407817.96966 -1.1810892 -4.5297155 -200 45 -200 45 -200 45
925407934.65578 -1.1835988 -4.5256429 -200 45 -200 45 -200 45
926408051.34189 -1.18206 -4.5148869 -200 45 -200 45 -200 45
927408168.028 -1.1878176 -4.5198612 -200 45 -200 45 -200 45
928408284.71412 -1.1961603 -4.5289664 -200 45 -200 45 -200 45
929408401.40023 -1.2044233 -4.5232649 -200 45 -200 45 -200 45
930408518.08635 -1.2056119 -4.5328455 -200 45 -200 45 -200 45
931408634.77246 -1.2004911 -4.5138083 -200 45 -200 45 -200 45
932408751.45858 -1.19928 -4.5172462 -200 45 -200 45 -200 45
933408868.14469 -1.1960999 -4.4865694 -200 45 -200 45 -200 45
934408984.83081 -1.2027744 -4.5024467 -200 45 -200 45 -200 45
935409101.51692 -1.2065797 -4.5133753 -200 45 -200 45 -200 45
936409218.20303 -1.2125927 -4.5096469 -200 45 -200 45 -200 45
937409334.88915 -1.2114357 -4.5014997 -200 45 -200 45 -200 45
938409451.57526 -1.2042986 -4.487473 -200 45 -200 45 -200 45
939409568.26138 -1.204879 -4.4896526 -200 45 -200 45 -200 45
940409684.94749 -1.2032154 -4.4823213 -200 45 -200 45 -200 45
941409801.63361 -1.203981 -4.4841223 -200 45 -200 45 -200 45
942409918.31972 -1.2050629 -4.4732342 -200 45 -200 45 -200 45
943410035.00583 -1.2074475 -4.4792438 -200 45 -200 45 -200 45
944410151.69195 -1.2158252 -4.4842362 -200 45 -200 45 -200 45
945410268.37806 -1.2222716 -4.497797 -200 45 -200 45 -200 45
946410385.06418 -1.2276679 -4.4846568 -200 45 -200 45 -200 45
947410501.75029 -1.2230595 -4.4923086 -200 45 -200 45 -200 45
948410618.43641 -1.2205868 -4.4739156 -200 45 -200 45 -200 45
949410735.12252 -1.2140985 -4.4605246 -200 45 -200 45 -200 45
950410851.80863 -1.2212728 -4.4607487 -200 45 -200 45 -200 45
951410968.49475 -1.2271249 -4.464633 -200 45 -200 45 -200 45
952411085.18086 -1.2311021 -4.4788117 -200 45 -200 45 -200 45
953411201.86698 -1.2342721 -4.4769554 -200 45 -200 45 -200 45
954411318.55309 -1.2268764 -4.4571671 -200 45 -200 45 -200 45
955411435.23921 -1.2256072 -4.4579506 -200 45 -200 45 -200 45
956411551.92532 -1.2225387 -4.4444547 -200 45 -200 45 -200 45
957411668.61144 -1.2242552 -4.4484897 -200 45 -200 45 -200 45
958411785.29755 -1.226922 -4.441937 -200 45 -200 45 -200 45
959411901.98366 -1.2260493 -4.4373064 -200 45 -200 45 -200 45
960412018.66978 -1.2357627 -4.447763 -200 45 -200 45 -200 45
961412135.35589 -1.2391789 -4.4507027 -200 45 -200 45 -200 45
962412252.04201 -1.2488238 -4.4544258 -200 45 -200 45 -200 45
963412368.72812 -1.24509 -4.4431958 -200 45 -200 45 -200 45
964412485.41424 -1.2408351 -4.4476266 -200 45 -200 45 -200 45
965412602.10035 -1.2369103 -4.4444313 -200 45 -200 45 -200 45
966412718.78646 -1.239444 -4.4399676 -200 45 -200 45 -200 45
967412835.47258 -1.2474833 -4.4414845 -200 45 -200 45 -200 45
968412952.15869 -1.2501382 -4.4511137 -200 45 -200 45 -200 45
969413068.84481 -1.257259 -4.4466496 -200 45 -200 45 -200 45
970413185.53092 -1.2475995 -4.4314423 -200 45 -200 45 -200 45
971413302.21704 -1.2455707 -4.4275069 -200 45 -200 45 -200 45
972413418.90315 -1.2406068 -4.412426 -200 45 -200 45 -200 45
973413535.58926 -1.2437562 -4.4183745 -200 45 -200 45 -200 45
974413652.27538 -1.2472752 -4.4159684 -200 45 -200 45 -200 45
975413768.96149 -1.2442602 -4.4241443 -200 45 -200 45 -200 45
976413885.64761 -1.2550943 -4.4392095 -200 45 -200 45 -200 45
977414002.33372 -1.2577929 -4.4301968 -200 45 -200 45 -200 45
978414119.01984 -1.2678654 -4.4364729 -200 45 -200 45 -200 45
979414235.70595 -1.2669022 -4.4441147 -200 45 -200 45 -200 45
980414352.39207 -1.2623219 -4.4276457 -200 45 -200 45 -200 45
981414469.07818 -1.2599936 -4.4225502 -200 45 -200 45 -200 45
982414585.76429 -1.2583456 -4.4295926 -200 45 -200 45 -200 45
983414702.45041 -1.2669771 -4.4238338 -200 45 -200 45 -200 45
984414819.13652 -1.2696303 -4.425406 -200 45 -200 45 -200 45
985414935.82264 -1.2775204 -4.4392033 -200 45 -200 45 -200 45
986415052.50875 -1.2728852 -4.4136295 -200 45 -200 45 -200 45
987415169.19487 -1.2673885 -4.4095454 -200 45 -200 45 -200 45
988415285.88098 -1.2621797 -4.4031916 -200 45 -200 45 -200 45
989415402.56709 -1.2658509 -4.4006324 -200 45 -200 45 -200 45
990415519.25321 -1.2693551 -4.4114499 -200 45 -200 45 -200 45
991415635.93932 -1.2655326 -4.3998871 -200 45 -200 45 -200 45
992415752.62544 -1.2743919 -4.402617 -200 45 -200 45 -200 45
993415869.31155 -1.2803946 -4.4141984 -200 45 -200 45 -200 45
994415985.99767 -1.2886573 -4.4192014 -200 45 -200 45 -200 45
995416102.68378 -1.2913243 -4.4148126 -200 45 -200 45 -200 45
996416219.36989 -1.2829883 -4.4113612 -200 45 -200 45 -200 45
997416336.05601 -1.2843266 -4.4083681 -200 45 -200 45 -200 45
998416452.74212 -1.2817522 -4.3959837 -200 45 -200 45 -200 45
999416569.42824 -1.2876199 -4.395843 -200 45 -200 45 -200 45
1000416686.1144 -1.2919924 -4.3953376 -200 45 -200 45 -200 45
1001416802.8005 -1.2998048 -4.4132977 -200 45 -200 45 -200 45
1002416919.4866 -1.2980353 -4.4007254 -200 45 -200 45 -200 45
1003417036.1727 -1.2886013 -4.3877697 -200 45 -200 45 -200 45
1004417152.8588 -1.2866187 -4.3917022 -200 45 -200 45 -200 45
1005417269.5449 -1.2890245 -4.3892741 -200 45 -200 45 -200 45
1006417386.231 -1.291594 -4.3850832 -200 45 -200 45 -200 45
1007417502.9172 -1.2900475 -4.3901143 -200 45 -200 45 -200 45
1008417619.6033 -1.2953056 -4.3822689 -200 45 -200 45 -200 45
1009417736.2894 -1.303983 -4.3900671 -200 45 -200 45 -200 45
1010417852.9755 -1.3095893 -4.3912621 -200 45 -200 45 -200 45
1011417969.6616 -1.3142729 -4.3975945 -200 45 -200 45 -200 45
1012418086.3477 -1.3090644 -4.3875537 -200 45 -200 45 -200 45
1013418203.0338 -1.3080473 -4.3836422 -200 45 -200 45 -200 45
1014418319.72 -1.3038355 -4.3711815 -200 45 -200 45 -200 45
1015418436.4061 -1.3097451 -4.3673344 -200 45 -200 45 -200 45
1016418553.0922 -1.3165462 -4.3820834 -200 45 -200 45 -200 45
1017418669.7783 -1.3217518 -4.3776879 -200 45 -200 45 -200 45
1018418786.4644 -1.3244475 -4.3740115 -200 45 -200 45 -200 45
1019418903.1505 -1.3144485 -4.3704176 -200 45 -200 45 -200 45
1020419019.8366 -1.3145784 -4.3482022 -200 45 -200 45 -200 45
1021419136.5228 -1.3123924 -4.3584938 -200 45 -200 45 -200 45
1022419253.2089 -1.3167053 -4.3557677 -200 45 -200 45 -200 45
1023419369.895 -1.3171 -4.3553491 -200 45 -200 45 -200 45
1024419486.5811 -1.3189549 -4.3464432 -200 45 -200 45 -200 45
1025419603.2672 -1.3286144 -4.3498673 -200 45 -200 45 -200 45
1026419719.9533 -1.3339907 -4.3538532 -200 45 -200 45 -200 45
1027419836.6394 -1.3415996 -4.3522372 -200 45 -200 45 -200 45
1028419953.3256 -1.3369113 -4.3452086 -200 45 -200 45 -200 45
1029420070.0117 -1.3346326 -4.3489418 -200 45 -200 45 -200 45
1030420186.6978 -1.3312054 -4.3345847 -200 45 -200 45 -200 45
1031420303.3839 -1.334386 -4.327939 -200 45 -200 45 -200 45
1032420420.07 -1.3419245 -4.3419609 -200 45 -200 45 -200 45
1033420536.7561 -1.3448774 -4.3360391 -200 45 -200 45 -200 45
1034420653.4422 -1.3510116 -4.3319578 -200 45 -200 45 -200 45
1035420770.1284 -1.3425374 -4.3196249 -200 45 -200 45 -200 45
1036420886.8145 -1.339674 -4.3141265 -200 45 -200 45 -200 45
1037421003.5006 -1.3369254 -4.3095074 -200 45 -200 45 -200 45
1038421120.1867 -1.3407052 -4.3111067 -200 45 -200 45 -200 45
1039421236.8728 -1.3440695 -4.3087025 -200 45 -200 45 -200 45
1040421353.5589 -1.3411077 -4.306591 -200 45 -200 45 -200 45
1041421470.245 -1.3538115 -4.3007712 -200 45 -200 45 -200 45
1042421586.9312 -1.3564236 -4.2926006 -200 45 -200 45 -200 45
1043421703.6173 -1.3668702 -4.3066988 -200 45 -200 45 -200 45
1044421820.3034 -1.3633415 -4.3110747 -200 45 -200 45 -200 45
1045421936.9895 -1.3582486 -4.2940907 -200 45 -200 45 -200 45
1046422053.6756 -1.3549334 -4.296 -200 45 -200 45 -200 45
1047422170.3617 -1.3578076 -4.2784743 -200 45 -200 45 -200 45
1048422287.0478 -1.3655562 -4.2910295 -200 45 -200 45 -200 45
1049422403.734 -1.3677224 -4.2776413 -200 45 -200 45 -200 45
1050422520.4201 -1.3755292 -4.2807684 -200 45 -200 45 -200 45
1051422637.1062 -1.3696977 -4.2832937 -200 45 -200 45 -200 45
1052422753.7923 -1.3652847 -4.2687001 -200 45 -200 45 -200 45
1053422870.4784 -1.3616858 -4.2653971 -200 45 -200 45 -200 45
1054422987.1645 -1.3641827 -4.2633619 -200 45 -200 45 -200 45
1055423103.8506 -1.3694075 -4.2632856 -200 45 -200 45 -200 45
1056423220.5368 -1.3653461 -4.2596898 -200 45 -200 45 -200 45
1057423337.2229 -1.3733023 -4.2658391 -200 45 -200 45 -200 45
1058423453.909 -1.3804464 -4.2508807 -200 45 -200 45 -200 45
1059423570.5951 -1.3877434 -4.2513957 -200 45 -200 45 -200 45
1060423687.2812 -1.3900594 -4.2570291 -200 45 -200 45 -200 45
1061423803.9673 -1.3832439 -4.2595115 -200 45 -200 45 -200 45
1062423920.6534 -1.382324 -4.260222 -200 45 -200 45 -200 45
1063424037.3396 -1.3823738 -4.2548838 -200 45 -200 45 -200 45
1064424154.0257 -1.390269 -4.253305 -200 45 -200 45 -200 45
1065424270.7118 -1.393399 -4.2389941 -200 45 -200 45 -200 45
1066424387.3979 -1.3994882 -4.2282438 -200 45 -200 45 -200 45
1067424504.084 -1.3950031 -4.2362905 -200 45 -200 45 -200 45
1068424620.7701 -1.3881735 -4.2200913 -200 45 -200 45 -200 45
1069424737.4562 -1.3860363 -4.2145081 -200 45 -200 45 -200 45
1070424854.1424 -1.3885736 -4.2171583 -200 45 -200 45 -200 45
1071424970.8285 -1.3895054 -4.2129984 -200 45 -200 45 -200 45
1072425087.5146 -1.3867248 -4.230144 -200 45 -200 45 -200 45
1073425204.2007 -1.3951576 -4.2246723 -200 45 -200 45 -200 45
1074425320.8868 -1.4013236 -4.230114 -200 45 -200 45 -200 45
1075425437.5729 -1.4079311 -4.215373 -200 45 -200 45 -200 45
1076425554.259 -1.412114 -4.2227859 -200 45 -200 45 -200 45
1077425670.9452 -1.4058106 -4.2236958 -200 45 -200 45 -200 45
1078425787.6313 -1.4057097 -4.2262049 -200 45 -200 45 -200 45
1079425904.3174 -1.4006435 -4.2170305 -200 45 -200 45 -200 45
1080426021.0035 -1.4067389 -4.2207475 -200 45 -200 45 -200 45
1081426137.6896 -1.4130565 -4.2290282 -200 45 -200 45 -200 45
1082426254.3757 -1.418999 -4.2308846 -200 45 -200 45 -200 45
1083426371.0618 -1.4195129 -4.2320509 -200 45 -200 45 -200 45
1084426487.748 -1.4111191 -4.2152176 -200 45 -200 45 -200 45
1085426604.4341 -1.4084989 -4.2179084 -200 45 -200 45 -200 45
1086426721.1202 -1.4076837 -4.2253385 -200 45 -200 45 -200 45
1087426837.8063 -1.4119624 -4.2177424 -200 45 -200 45 -200 45
1088426954.4924 -1.4132328 -4.2155175 -200 45 -200 45 -200 45
1089427071.1785 -1.4141648 -4.2247591 -200 45 -200 45 -200 45
1090427187.8646 -1.4229877 -4.2351589 -200 45 -200 45 -200 45
1091427304.5508 -1.4297085 -4.2259884 -200 45 -200 45 -200 45
1092427421.2369 -1.4361862 -4.2395587 -200 45 -200 45 -200 45
1093427537.923 -1.4307333 -4.2445707 -200 45 -200 45 -200 45
1094427654.6091 -1.4294991 -4.2568731 -200 45 -200 45 -200 45
1095427771.2952 -1.4256051 -4.2354608 -200 45 -200 45 -200 45
1096427887.9813 -1.4281988 -4.2486076 -200 45 -200 45 -200 45
1097428004.6674 -1.4378799 -4.2617946 -200 45 -200 45 -200 45
1098428121.3536 -1.4409885 -4.2721477 -200 45 -200 45 -200 45
1099428238.0397 -1.4478722 -4.269887 -200 45 -200 45 -200 45
1100428354.7258 -1.4408619 -4.2676101 -200 45 -200 45 -200 45
1101428471.4119 -1.4384499 -4.2587585 -200 45 -200 45 -200 45
1102428588.098 -1.4337695 -4.2632399 -200 45 -200 45 -200 45
1103428704.7841 -1.4385346 -4.274776 -200 45 -200 45 -200 45
1104428821.4702 -1.4411224 -4.2905731 -200 45 -200 45 -200 45
1105428938.1564 -1.4401944 -4.3117905 -200 45 -200 45 -200 45
1106429054.8425 -1.4546964 -4.318068 -200 45 -200 45 -200 45
1107429171.5286 -1.4600812 -4.3118277 -200 45 -200 45 -200 45
1108429288.2147 -1.4705909 -4.3210893 -200 45 -200 45 -200 45
1109429404.9008 -1.4689126 -4.3525667 -200 45 -200 45 -200 45
1110429521.5869 -1.4680629 -4.3771777 -200 45 -200 45 -200 45
1111429638.273 -1.4729508 -4.3704157 -200 45 -200 45 -200 45
1112429754.9592 -1.4755174 -4.3511577 -200 45 -200 45 -200 45
1113429871.6453 -1.4881955 -4.3336229 -200 45 -200 45 -200 45
1114429988.3314 -1.4904329 -4.2849913 -200 45 -200 45 -200 45
1115430105.0175 -1.4918585 -4.272706 -200 45 -200 45 -200 45
1116430221.7036 -1.4811436 -4.3059835 -200 45 -200 45 -200 45
1117430338.3897 -1.4752247 -4.3236094 -200 45 -200 45 -200 45
1118430455.0758 -1.4721907 -4.3508158 -200 45 -200 45 -200 45
1119430571.762 -1.4746583 -4.405725 -200 45 -200 45 -200 45
1120430688.4481 -1.48037 -4.4443927 -200 45 -200 45 -200 45
1121430805.1342 -1.4798267 -4.4918704 -200 45 -200 45 -200 45
1122430921.8203 -1.4916246 -4.5403967 -200 45 -200 45 -200 45
1123431038.5064 -1.5004642 -4.6019182 -200 45 -200 45 -200 45
1124431155.1925 -1.5191096 -4.6630144 -200 45 -200 45 -200 45
1125431271.8786 -1.5236866 -4.717411 -200 45 -200 45 -200 45
1126431388.5648 -1.5272595 -4.8063779 -200 45 -200 45 -200 45
1127431505.2509 -1.5399694 -4.9133177 -200 45 -200 45 -200 45
1128431621.937 -1.5556027 -5.0094533 -200 45 -200 45 -200 45
1129431738.6231 -1.5925925 -5.1333871 -200 45 -200 45 -200 45
1130431855.3092 -1.6250784 -5.1956201 -200 45 -200 45 -200 45
1131431971.9953 -1.6697204 -5.3197331 -200 45 -200 45 -200 45
1132432088.6814 -1.7278893 -5.4352384 -200 45 -200 45 -200 45
1133432205.3676 -1.8171384 -5.4520617 -200 45 -200 45 -200 45
1134432322.0537 -1.948092 -5.1147556 -200 45 -200 45 -200 45
1135432438.7398 -2.0612807 -3.992485 -200 45 -200 45 -200 45
1136432555.4259 -2.0216784 -2.5549238 -200 45 -200 45 -200 45
1137432672.112 -1.8689976 -1.8476986 -200 45 -200 45 -200 45
1138432788.7981 -1.7634993 -1.8268156 -200 45 -200 45 -200 45
1139432905.4842 -1.7139182 -1.9577444 -200 45 -200 45 -200 45
1140433022.1704 -1.6894721 -1.926797 -200 45 -200 45 -200 45
1141433138.8565 -1.6483847 -1.8404498 -200 45 -200 45 -200 45
1142433255.5426 -1.5855381 -1.8560385 -200 45 -200 45 -200 45
1143433372.2287 -1.540881 -1.9961363 -200 45 -200 45 -200 45
1144433488.9148 -1.5073793 -2.165277 -200 45 -200 45 -200 45
1145433605.6009 -1.4938838 -2.3455338 -200 45 -200 45 -200 45
1146433722.287 -1.4908346 -2.5019438 -200 45 -200 45 -200 45
1147433838.9732 -1.4901505 -2.6268339 -200 45 -200 45 -200 45
1148433955.6593 -1.4864976 -2.7113118 -200 45 -200 45 -200 45
1149434072.3454 -1.4739437 -2.7930996 -200 45 -200 45 -200 45
1150434189.0315 -1.4707915 -2.8496437 -200 45 -200 45 -200 45
1151434305.7176 -1.4694449 -2.9149652 -200 45 -200 45 -200 45
1152434422.4037 -1.4717104 -2.9572628 -200 45 -200 45 -200 45
1153434539.0898 -1.4716755 -3.0064738 -200 45 -200 45 -200 45
1154434655.776 -1.4743356 -3.0487983 -200 45 -200 45 -200 45
1155434772.4621 -1.4821668 -3.0820484 -200 45 -200 45 -200 45
1156434889.1482 -1.4881061 -3.104739 -200 45 -200 45 -200 45
1157435005.8343 -1.4938076 -3.1402524 -200 45 -200 45 -200 45
1158435122.5204 -1.4892411 -3.1598277 -200 45 -200 45 -200 45
1159435239.2065 -1.48869 -3.1737547 -200 45 -200 45 -200 45
1160435355.8926 -1.4834808 -3.1801579 -200 45 -200 45 -200 45
1161435472.5788 -1.4884183 -3.1970134 -200 45 -200 45 -200 45
1162435589.2649 -1.4964099 -3.217227 -200 45 -200 45 -200 45
1163435705.951 -1.5037961 -3.221781 -200 45 -200 45 -200 45
1164435822.6371 -1.503095 -3.1894407 -200 45 -200 45 -200 45
1165435939.3232 -1.4921403 -3.2149377 -200 45 -200 45 -200 45
1166436056.0093 -1.4882746 -3.2120016 -200 45 -200 45 -200 45
1167436172.6954 -1.4840728 -3.2252045 -200 45 -200 45 -200 45
1168436289.3816 -1.4887075 -3.2424364 -200 45 -200 45 -200 45
1169436406.0677 -1.491267 -3.2544861 -200 45 -200 45 -200 45
1170436522.7538 -1.4888544 -3.25999 -200 45 -200 45 -200 45
1171436639.4399 -1.499595 -3.2671573 -200 45 -200 45 -200 45
1172436756.126 -1.5031239 -3.2689295 -200 45 -200 45 -200 45
1173436872.8121 -1.5137061 -3.2849531 -200 45 -200 45 -200 45
1174436989.4982 -1.5068966 -3.2836628 -200 45 -200 45 -200 45
1175437106.1844 -1.5051072 -3.3003731 -200 45 -200 45 -200 45
1176437222.8705 -1.5009605 -3.3034527 -200 45 -200 45 -200 45
1177437339.5566 -1.5020607 -3.2877436 -200 45 -200 45 -200 45
1178437456.2427 -1.5102955 -3.3043876 -200 45 -200 45 -200 45
1179437572.9288 -1.5128223 -3.3097799 -200 45 -200 45 -200 45
1180437689.6149 -1.5187052 -3.3099427 -200 45 -200 45 -200 45
1181437806.3011 -1.5112936 -3.3071163 -200 45 -200 45 -200 45
1182437922.9872 -1.5071412 -3.310132 -200 45 -200 45 -200 45
1183438039.6733 -1.5025506 -3.3229628 -200 45 -200 45 -200 45
1184438156.3594 -1.5084321 -3.309479 -200 45 -200 45 -200 45
1185438273.0455 -1.5085673 -3.2990859 -200 45 -200 45 -200 45
1186438389.7316 -1.5057055 -3.3184493 -200 45 -200 45 -200 45
1187438506.4177 -1.5174191 -3.3160393 -200 45 -200 45 -200 45
1188438623.1039 -1.5206223 -3.3120515 -200 45 -200 45 -200 45
1189438739.79 -1.529489 -3.3108408 -200 45 -200 45 -200 45
1190438856.4761 -1.5279377 -3.3236799 -200 45 -200 45 -200 45
1191438973.1622 -1.522328 -3.3272567 -200 45 -200 45 -200 45
1192439089.8483 -1.5208349 -3.3329911 -200 45 -200 45 -200 45
1193439206.5344 -1.5209911 -3.3357551 -200 45 -200 45 -200 45
1194439323.2205 -1.5268264 -3.3375671 -200 45 -200 45 -200 45
1195439439.9067 -1.5306809 -3.323375 -200 45 -200 45 -200 45
1196439556.5928 -1.5381862 -3.3321016 -200 45 -200 45 -200 45
1197439673.2789 -1.5329646 -3.3295476 -200 45 -200 45 -200 45
1198439789.965 -1.5265141 -3.3230903 -200 45 -200 45 -200 45
1199439906.6511 -1.5232778 -3.3171873 -200 45 -200 45 -200 45
1200440023.3372 -1.5250446 -3.323792 -200 45 -200 45 -200 45
1201440140.0233 -1.5293171 -3.3298514 -200 45 -200 45 -200 45
1202440256.7095 -1.5246658 -3.316685 -200 45 -200 45 -200 45
1203440373.3956 -1.5334381 -3.3185322 -200 45 -200 45 -200 45
1204440490.0817 -1.5391923 -3.3255928 -200 45 -200 45 -200 45
1205440606.7678 -1.547984 -3.3221536 -200 45 -200 45 -200 45
1206440723.4539 -1.5487157 -3.3119628 -200 45 -200 45 -200 45
1207440840.14 -1.5429832 -3.3217325 -200 45 -200 45 -200 45
1208440956.8261 -1.540926 -3.3330159 -200 45 -200 45 -200 45
1209441073.5123 -1.5377513 -3.3190565 -200 45 -200 45 -200 45
1210441190.1984 -1.5428631 -3.3206284 -200 45 -200 45 -200 45
1211441306.8845 -1.5492083 -3.3211994 -200 45 -200 45 -200 45
1212441423.5706 -1.5558782 -3.3192053 -200 45 -200 45 -200 45
1213441540.2567 -1.5533289 -3.3079033 -200 45 -200 45 -200 45
1214441656.9428 -1.5469253 -3.3110301 -200 45 -200 45 -200 45
1215441773.6289 -1.545379 -3.3042178 -200 45 -200 45 -200 45
1216441890.3151 -1.543265 -3.3066757 -200 45 -200 45 -200 45
1217442007.0012 -1.5475008 -3.3084557 -200 45 -200 45 -200 45
1218442123.6873 -1.5460397 -3.3060124 -200 45 -200 45 -200 45
1219442240.3734 -1.549638 -3.3022776 -200 45 -200 45 -200 45
1220442357.0595 -1.5585165 -3.3023844 -200 45 -200 45 -200 45
1221442473.7456 -1.5644199 -3.2878237 -200 45 -200 45 -200 45
1222442590.4317 -1.5683963 -3.2877011 -200 45 -200 45 -200 45
1223442707.1179 -1.5632803 -3.2947004 -200 45 -200 45 -200 45
1224442823.804 -1.5612168 -3.2976284 -200 45 -200 45 -200 45
1225442940.4901 -1.5566672 -3.2896698 -200 45 -200 45 -200 45
1226443057.1762 -1.5610362 -3.2871187 -200 45 -200 45 -200 45
1227443173.8623 -1.5685631 -3.2842281 -200 45 -200 45 -200 45
1228443290.5484 -1.5730684 -3.2780757 -200 45 -200 45 -200 45
1229443407.2345 -1.5744709 -3.2781765 -200 45 -200 45 -200 45
1230443523.9207 -1.5648311 -3.2634826 -200 45 -200 45 -200 45
1231443640.6068 -1.5645579 -3.2643342 -200 45 -200 45 -200 45
1232443757.2929 -1.5610871 -3.2690809 -200 45 -200 45 -200 45
1233443873.979 -1.5641055 -3.2613084 -200 45 -200 45 -200 45
1234443990.6651 -1.5665097 -3.2646947 -200 45 -200 45 -200 45
1235444107.3512 -1.5663921 -3.2631431 -200 45 -200 45 -200 45
1236444224.0373 -1.5757416 -3.2537861 -200 45 -200 45 -200 45
1237444340.7235 -1.5786464 -3.2557881 -200 45 -200 45 -200 45
1238444457.4096 -1.5869282 -3.243464 -200 45 -200 45 -200 45
1239444574.0957 -1.5827265 -3.2521174 -200 45 -200 45 -200 45
1240444690.7818 -1.581672 -3.2455747 -200 45 -200 45 -200 45
1241444807.4679 -1.5761354 -3.2416608 -200 45 -200 45 -200 45
1242444924.154 -1.5780236 -3.2397184 -200 45 -200 45 -200 45
1243445040.8401 -1.5862669 -3.2380557 -200 45 -200 45 -200 45
1244445157.5263 -1.5878128 -3.231596 -200 45 -200 45 -200 45
1245445274.2124 -1.5935731 -3.2342782 -200 45 -200 45 -200 45
1246445390.8985 -1.5842894 -3.2307396 -200 45 -200 45 -200 45
1247445507.5846 -1.5830795 -3.2303567 -200 45 -200 45 -200 45
1248445624.2707 -1.5794235 -3.2175956 -200 45 -200 45 -200 45
1249445740.9568 -1.5818713 -3.2139413 -200 45 -200 45 -200 45
1250445857.6429 -1.5839509 -3.2151704 -200 45 -200 45 -200 45
1251445974.3291 -1.5845993 -3.2109034 -200 45 -200 45 -200 45
1252446091.0152 -1.5962583 -3.207334 -200 45 -200 45 -200 45
1253446207.7013 -1.5990885 -3.2000132 -200 45 -200 45 -200 45
1254446324.3874 -1.605788 -3.1967366 -200 45 -200 45 -200 45
1255446441.0735 -1.5995969 -3.202517 -200 45 -200 45 -200 45
1256446557.7596 -1.5987747 -3.2006934 -200 45 -200 45 -200 45
1257446674.4457 -1.5945513 -3.2041731 -200 45 -200 45 -200 45
1258446791.1319 -1.5975755 -3.1899259 -200 45 -200 45 -200 45
1259446907.818 -1.6038151 -3.1819367 -200 45 -200 45 -200 45
1260447024.5041 -1.6080114 -3.1816318 -200 45 -200 45 -200 45
1261447141.1902 -1.6122216 -3.1900387 -200 45 -200 45 -200 45
1262447257.8763 -1.6010742 -3.1926076 -200 45 -200 45 -200 45
1263447374.5624 -1.6007214 -3.1675045 -200 45 -200 45 -200 45
1264447491.2485 -1.5994084 -3.1751359 -200 45 -200 45 -200 45
1265447607.9347 -1.6025963 -3.1842725 -200 45 -200 45 -200 45
1266447724.6208 -1.6051297 -3.1734879 -200 45 -200 45 -200 45
1267447841.3069 -1.6052799 -3.1810296 -200 45 -200 45 -200 45
1268447957.993 -1.6151816 -3.1682334 -200 45 -200 45 -200 45
1269448074.6791 -1.6198273 -3.1847289 -200 45 -200 45 -200 45
1270448191.3652 -1.6288377 -3.1798933 -200 45 -200 45 -200 45
1271448308.0513 -1.6283199 -3.2122324 -200 45 -200 45 -200 45
1272448424.7375 -1.6319948 -3.2158818 -200 45 -200 45 -200 45
1273448541.4236 -1.63791 -3.1815324 -200 45 -200 45 -200 45
1274448658.1097 -1.643665 -3.0901673 -200 45 -200 45 -200 45
1275448774.7958 -1.6429008 -3.0194106 -200 45 -200 45 -200 45
1276448891.4819 -1.6367242 -2.9988101 -200 45 -200 45 -200 45
1277449008.168 -1.6387197 -3.0108311 -200 45 -200 45 -200 45
1278449124.8541 -1.6293138 -3.0162194 -200 45 -200 45 -200 45
1279449241.5403 -1.6237389 -2.9981377 -200 45 -200 45 -200 45
1280449358.2264 -1.6197975 -2.984473 -200 45 -200 45 -200 45
1281449474.9125 -1.6187981 -3.0069323 -200 45 -200 45 -200 45
1282449591.5986 -1.6206771 -3.0112646 -200 45 -200 45 -200 45
1283449708.2847 -1.6174512 -3.0120034 -200 45 -200 45 -200 45
1284449824.9708 -1.6290622 -3.0062754 -200 45 -200 45 -200 45
1285449941.6569 -1.6313643 -3.0151739 -200 45 -200 45 -200 45
1286450058.3431 -1.6404524 -3.0203454 -200 45 -200 45 -200 45
1287450175.0292 -1.637531 -3.0146027 -200 45 -200 45 -200 45
1288450291.7153 -1.633386 -3.0185318 -200 45 -200 45 -200 45
1289450408.4014 -1.6299309 -3.0065248 -200 45 -200 45 -200 45
1290450525.0875 -1.6306599 -3.0133059 -200 45 -200 45 -200 45
1291450641.7736 -1.6374638 -3.0134914 -200 45 -200 45 -200 45
1292450758.4597 -1.6387185 -3.0109081 -200 45 -200 45 -200 45
1293450875.1459 -1.6446333 -2.9984615 -200 45 -200 45 -200 45
1294450991.832 -1.636228 -3.0036962 -200 45 -200 45 -200 45
1295451108.5181 -1.6339259 -3.0006933 -200 45 -200 45 -200 45
1296451225.2042 -1.6300288 -2.9971142 -200 45 -200 45 -200 45
1297451341.8903 -1.6350449 -2.9947662 -200 45 -200 45 -200 45
1298451458.5764 -1.6358311 -2.995399 -200 45 -200 45 -200 45
1299451575.2625 -1.6337057 -3.0020473 -200 45 -200 45 -200 45
1300451691.9487 -1.6442361 -2.9774742 -200 45 -200 45 -200 45
1301451808.6348 -1.6464536 -2.9863758 -200 45 -200 45 -200 45
1302451925.3209 -1.6559005 -2.9754331 -200 45 -200 45 -200 45
1303452042.007 -1.6539682 -2.9719722 -200 45 -200 45 -200 45
1304452158.6931 -1.6503597 -2.9808102 -200 45 -200 45 -200 45
1305452275.3792 -1.6454662 -2.9758677 -200 45 -200 45 -200 45
1306452392.0653 -1.6466911 -2.9751616 -200 45 -200 45 -200 45
1307452508.7515 -1.6540941 -2.9639232 -200 45 -200 45 -200 45
1308452625.4376 -1.6544585 -2.962791 -200 45 -200 45 -200 45
1309452742.1237 -1.663826 -2.9575865 -200 45 -200 45 -200 45
1310452858.8098 -1.6540126 -2.9608421 -200 45 -200 45 -200 45
1311452975.4959 -1.6497909 -2.9652877 -200 45 -200 45 -200 45
1312453092.182 -1.6465715 -2.9603279 -200 45 -200 45 -200 45
1313453208.8681 -1.6509374 -2.9489601 -200 45 -200 45 -200 45
1314453325.5543 -1.6550034 -2.9529092 -200 45 -200 45 -200 45
1315453442.2404 -1.6510267 -2.9480529 -200 45 -200 45 -200 45
1316453558.9265 -1.6600871 -2.9334917 -200 45 -200 45 -200 45
1317453675.6126 -1.6613396 -2.933413 -200 45 -200 45 -200 45
1318453792.2987 -1.6723154 -2.9170454 -200 45 -200 45 -200 45
1319453908.9848 -1.6726228 -2.9251044 -200 45 -200 45 -200 45
1320454025.6709 -1.6679056 -2.9288495 -200 45 -200 45 -200 45
1321454142.3571 -1.6663594 -2.9201312 -200 45 -200 45 -200 45
1322454259.0432 -1.6645372 -2.9191413 -200 45 -200 45 -200 45
1323454375.7293 -1.6707083 -2.9169817 -200 45 -200 45 -200 45
1324454492.4154 -1.6724718 -2.9172659 -200 45 -200 45 -200 45
1325454609.1015 -1.6795449 -2.9039073 -200 45 -200 45 -200 45
1326454725.7876 -1.6743071 -2.9017093 -200 45 -200 45 -200 45
1327454842.4737 -1.6677197 -2.9035723 -200 45 -200 45 -200 45
1328454959.1599 -1.6653569 -2.897105 -200 45 -200 45 -200 45
1329455075.846 -1.6691824 -2.8936605 -200 45 -200 45 -200 45
1330455192.5321 -1.6707441 -2.8914952 -200 45 -200 45 -200 45
1331455309.2182 -1.6678745 -2.8868248 -200 45 -200 45 -200 45
1332455425.9043 -1.6764106 -2.8800087 -200 45 -200 45 -200 45
1333455542.5904 -1.6816727 -2.8827472 -200 45 -200 45 -200 45
1334455659.2765 -1.6890374 -2.8679361 -200 45 -200 45 -200 45
1335455775.9627 -1.6904802 -2.8727541 -200 45 -200 45 -200 45
1336455892.6488 -1.684088 -2.8759813 -200 45 -200 45 -200 45
1337456009.3349 -1.6845088 -2.8581967 -200 45 -200 45 -200 45
1338456126.021 -1.680096 -2.8626907 -200 45 -200 45 -200 45
1339456242.7071 -1.6876497 -2.8711565 -200 45 -200 45 -200 45
1340456359.3932 -1.6910181 -2.8502939 -200 45 -200 45 -200 45
1341456476.0793 -1.6996118 -2.8469026 -200 45 -200 45 -200 45
1342456592.7655 -1.6938993 -2.8484886 -200 45 -200 45 -200 45
1343456709.4516 -1.6878915 -2.8311195 -200 45 -200 45 -200 45
1344456826.1377 -1.6856802 -2.8326557 -200 45 -200 45 -200 45
1345456942.8238 -1.6850295 -2.8203154 -200 45 -200 45 -200 45
1346457059.5099 -1.6899855 -2.8238826 -200 45 -200 45 -200 45
1347457176.196 -1.6876704 -2.8172038 -200 45 -200 45 -200 45
1348457292.8821 -1.6927998 -2.8117704 -200 45 -200 45 -200 45
1349457409.5683 -1.69876 -2.8065736 -200 45 -200 45 -200 45
1350457526.2544 -1.7062129 -2.7975099 -200 45 -200 45 -200 45
1351457642.9405 -1.7099004 -2.7924583 -200 45 -200 45 -200 45
1352457759.6266 -1.7021458 -2.7998095 -200 45 -200 45 -200 45
1353457876.3127 -1.7013012 -2.7960103 -200 45 -200 45 -200 45
1354457992.9988 -1.6969285 -2.7927313 -200 45 -200 45 -200 45
1355458109.6849 -1.7027534 -2.7834854 -200 45 -200 45 -200 45
1356458226.3711 -1.7077258 -2.7746444 -200 45 -200 45 -200 45
1357458343.0572 -1.7139559 -2.7698543 -200 45 -200 45 -200 45
1358458459.7433 -1.709968 -2.7711129 -200 45 -200 45 -200 45
1359458576.4294 -1.7018464 -2.7705176 -200 45 -200 45 -200 45
1360458693.1155 -1.7027006 -2.762234 -200 45 -200 45 -200 45
1361458809.8016 -1.7023777 -2.7613578 -200 45 -200 45 -200 45
1362458926.4877 -1.7048144 -2.7569854 -200 45 -200 45 -200 45
1363459043.1739 -1.7030312 -2.7550256 -200 45 -200 45 -200 45
1364459159.86 -1.7095842 -2.7497153 -200 45 -200 45 -200 45
1365459276.5461 -1.7158327 -2.7393427 -200 45 -200 45 -200 45
1366459393.2322 -1.72165 -2.7350073 -200 45 -200 45 -200 45
1367459509.9183 -1.7245392 -2.7239695 -200 45 -200 45 -200 45
1368459626.6044 -1.7189542 -2.7137899 -200 45 -200 45 -200 45
1369459743.2905 -1.7188646 -2.7133358 -200 45 -200 45 -200 45
1370459859.9767 -1.7141111 -2.7179923 -200 45 -200 45 -200 45
1371459976.6628 -1.7192125 -2.7077188 -200 45 -200 45 -200 45
1372460093.3489 -1.7226683 -2.7010972 -200 45 -200 45 -200 45
1373460210.035 -1.7291688 -2.7003965 -200 45 -200 45 -200 45
1374460326.7211 -1.7291588 -2.6955454 -200 45 -200 45 -200 45
1375460443.4072 -1.7203573 -2.6865213 -200 45 -200 45 -200 45
1376460560.0933 -1.7188146 -2.6855314 -200 45 -200 45 -200 45
1377460676.7795 -1.7175419 -2.6873791 -200 45 -200 45 -200 45
1378460793.4656 -1.7224854 -2.679837 -200 45 -200 45 -200 45
1379460910.1517 -1.7208762 -2.6934154 -200 45 -200 45 -200 45
1380461026.8378 -1.7215834 -2.6710136 -200 45 -200 45 -200 45
1381461143.5239 -1.7319326 -2.6623881 -200 45 -200 45 -200 45
1382461260.21 -1.7366351 -2.6540728 -200 45 -200 45 -200 45
1383461376.8961 -1.7407446 -2.6519251 -200 45 -200 45 -200 45
1384461493.5823 -1.7375375 -2.6495819 -200 45 -200 45 -200 45
1385461610.2684 -1.7364783 -2.6522963 -200 45 -200 45 -200 45
1386461726.9545 -1.7323565 -2.6492615 -200 45 -200 45 -200 45
1387461843.6406 -1.734508 -2.645226 -200 45 -200 45 -200 45
1388461960.3267 -1.7420418 -2.6298356 -200 45 -200 45 -200 45
1389462077.0128 -1.7459035 -2.6236308 -200 45 -200 45 -200 45
1390462193.6989 -1.746304 -2.6132379 -200 45 -200 45 -200 45
1391462310.3851 -1.7376503 -2.6133139 -200 45 -200 45 -200 45
1392462427.0712 -1.7365235 -2.605052 -200 45 -200 45 -200 45
1393462543.7573 -1.7332462 -2.6153426 -200 45 -200 45 -200 45
1394462660.4434 -1.7368031 -2.6053004 -200 45 -200 45 -200 45
1395462777.1295 -1.7386129 -2.6065071 -200 45 -200 45 -200 45
1396462893.8156 -1.7386163 -2.5961094 -200 45 -200 45 -200 45
1397463010.5018 -1.7469286 -2.5960379 -200 45 -200 45 -200 45
1398463127.1879 -1.7510487 -2.5785594 -200 45 -200 45 -200 45
1399463243.874 -1.7571179 -2.5792608 -200 45 -200 45 -200 45
1400463360.5601 -1.7550091 -2.5724466 -200 45 -200 45 -200 45
1401463477.2462 -1.7501915 -2.5698617 -200 45 -200 45 -200 45
1402463593.9323 -1.7461736 -2.5708103 -200 45 -200 45 -200 45
1403463710.6184 -1.7499087 -2.5618467 -200 45 -200 45 -200 45
1404463827.3046 -1.757784 -2.5708966 -200 45 -200 45 -200 45
1405463943.9907 -1.7605948 -2.5612502 -200 45 -200 45 -200 45
1406464060.6768 -1.7644874 -2.5469224 -200 45 -200 45 -200 45
1407464177.3629 -1.7549466 -2.55039 -200 45 -200 45 -200 45
1408464294.049 -1.7522529 -2.5429254 -200 45 -200 45 -200 45
1409464410.7351 -1.7491663 -2.5464365 -200 45 -200 45 -200 45
1410464527.4212 -1.7518003 -2.5328283 -200 45 -200 45 -200 45
1411464644.1074 -1.7559065 -2.5277734 -200 45 -200 45 -200 45
1412464760.7935 -1.7520267 -2.5376103 -200 45 -200 45 -200 45
1413464877.4796 -1.764881 -2.5243714 -200 45 -200 45 -200 45
1414464994.1657 -1.7653925 -2.5076392 -200 45 -200 45 -200 45
1415465110.8518 -1.77458 -2.5153663 -200 45 -200 45 -200 45
1416465227.5379 -1.7695893 -2.5061173 -200 45 -200 45 -200 45
1417465344.224 -1.7665311 -2.5082321 -200 45 -200 45 -200 45
1418465460.9102 -1.7646719 -2.4942813 -200 45 -200 45 -200 45
1419465577.5963 -1.7636986 -2.4922888 -200 45 -200 45 -200 45
1420465694.2824 -1.7728337 -2.5009859 -200 45 -200 45 -200 45
1421465810.9685 -1.7744129 -2.4937308 -200 45 -200 45 -200 45
1422465927.6546 -1.7810761 -2.4742723 -200 45 -200 45 -200 45
1423466044.3407 -1.7724993 -2.4803112 -200 45 -200 45 -200 45
1424466161.0268 -1.7693177 -2.4724789 -200 45 -200 45 -200 45
1425466277.713 -1.7652569 -2.4671195 -200 45 -200 45 -200 45
1426466394.3991 -1.7696524 -2.4642193 -200 45 -200 45 -200 45
1427466511.0852 -1.7733618 -2.4574189 -200 45 -200 45 -200 45
1428466627.7713 -1.7685926 -2.4682381 -200 45 -200 45 -200 45
1429466744.4574 -1.7784516 -2.4605048 -200 45 -200 45 -200 45
1430466861.1435 -1.7813277 -2.4447112 -200 45 -200 45 -200 45
1431466977.8296 -1.7905024 -2.4265847 -200 45 -200 45 -200 45
1432467094.5158 -1.7870959 -2.4284935 -200 45 -200 45 -200 45
1433467211.2019 -1.7838252 -2.4409413 -200 45 -200 45 -200 45
1434467327.888 -1.7800027 -2.4373345 -200 45 -200 45 -200 45
1435467444.5741 -1.7814904 -2.4313822 -200 45 -200 45 -200 45
1436467561.2602 -1.7877811 -2.4308121 -200 45 -200 45 -200 45
1437467677.9463 -1.7901287 -2.4232135 -200 45 -200 45 -200 45
1438467794.6324 -1.7956276 -2.4118834 -200 45 -200 45 -200 45
1439467911.3186 -1.7885095 -2.4007406 -200 45 -200 45 -200 45
1440468028.0047 -1.7847968 -2.3983457 -200 45 -200 45 -200 45
1441468144.6908 -1.7817541 -2.406435 -200 45 -200 45 -200 45
1442468261.3769 -1.7849007 -2.3997576 -200 45 -200 45 -200 45
1443468378.063 -1.7877421 -2.3884535 -200 45 -200 45 -200 45
1444468494.7491 -1.7851335 -2.391722 -200 45 -200 45 -200 45
1445468611.4352 -1.7946774 -2.3915875 -200 45 -200 45 -200 45
1446468728.1214 -1.7975973 -2.3808186 -200 45 -200 45 -200 45
1447468844.8075 -1.8052598 -2.3669217 -200 45 -200 45 -200 45
1448468961.4936 -1.8046248 -2.3669081 -200 45 -200 45 -200 45
1449469078.1797 -1.7997363 -2.3800156 -200 45 -200 45 -200 45
1450469194.8658 -1.7961209 -2.365962 -200 45 -200 45 -200 45
1451469311.5519 -1.7959991 -2.3620155 -200 45 -200 45 -200 45
1452469428.238 -1.8041146 -2.3518934 -200 45 -200 45 -200 45
1453469544.9242 -1.8063006 -2.3443425 -200 45 -200 45 -200 45
1454469661.6103 -1.8136166 -2.3439217 -200 45 -200 45 -200 45
1455469778.2964 -1.8047613 -2.3471105 -200 45 -200 45 -200 45
1456469894.9825 -1.8002663 -2.3420944 -200 45 -200 45 -200 45
1457470011.6686 -1.7977684 -2.3487186 -200 45 -200 45 -200 45
1458470128.3547 -1.7998192 -2.3274231 -200 45 -200 45 -200 45
1459470245.0408 -1.8035177 -2.3279815 -200 45 -200 45 -200 45
1460470361.727 -1.7997597 -2.3378909 -200 45 -200 45 -200 45
1461470478.4131 -1.8066711 -2.3228128 -200 45 -200 45 -200 45
1462470595.0992 -1.8141866 -2.3023632 -200 45 -200 45 -200 45
1463470711.7853 -1.8223203 -2.297462 -200 45 -200 45 -200 45
1464470828.4714 -1.8220707 -2.3053129 -200 45 -200 45 -200 45
1465470945.1575 -1.8153919 -2.3094814 -200 45 -200 45 -200 45
1466471061.8436 -1.8148239 -2.2960329 -200 45 -200 45 -200 45
1467471178.5298 -1.8114897 -2.2921176 -200 45 -200 45 -200 45
1468471295.2159 -1.8185269 -2.284533 -200 45 -200 45 -200 45
1469471411.902 -1.8207115 -2.2808301 -200 45 -200 45 -200 45
1470471528.5881 -1.8280602 -2.2677207 -200 45 -200 45 -200 45
1471471645.2742 -1.8221416 -2.2725725 -200 45 -200 45 -200 45
1472471761.9603 -1.8170979 -2.2697041 -200 45 -200 45 -200 45
1473471878.6464 -1.8136988 -2.2648337 -200 45 -200 45 -200 45
1474471995.3326 -1.8152877 -2.2587595 -200 45 -200 45 -200 45
1475472112.0187 -1.8193626 -2.2562146 -200 45 -200 45 -200 45
1476472228.7048 -1.8153936 -2.2557333 -200 45 -200 45 -200 45
1477472345.3909 -1.8225166 -2.250061 -200 45 -200 45 -200 45
1478472462.077 -1.8299861 -2.2275681 -200 45 -200 45 -200 45
1479472578.7631 -1.8353927 -2.2297034 -200 45 -200 45 -200 45
1480472695.4492 -1.8356894 -2.2252181 -200 45 -200 45 -200 45
1481472812.1354 -1.8304352 -2.2233102 -200 45 -200 45 -200 45
1482472928.8215 -1.8306174 -2.2210293 -200 45 -200 45 -200 45
1483473045.5076 -1.8262494 -2.2191427 -200 45 -200 45 -200 45
1484473162.1937 -1.8325603 -2.2154045 -200 45 -200 45 -200 45
1485473278.8798 -1.836606 -2.2028384 -200 45 -200 45 -200 45
1486473395.5659 -1.8436558 -2.1963243 -200 45 -200 45 -200 45
1487473512.252 -1.8400635 -2.1877396 -200 45 -200 45 -200 45
1488473628.9382 -1.8320081 -2.1919923 -200 45 -200 45 -200 45
1489473745.6243 -1.8304427 -2.1955116 -200 45 -200 45 -200 45
1490473862.3104 -1.8314677 -2.1839848 -200 45 -200 45 -200 45
1491473978.9965 -1.8327814 -2.18559 -200 45 -200 45 -200 45
1492474095.6826 -1.8314114 -2.1796498 -200 45 -200 45 -200 45
1493474212.3687 -1.8373367 -2.1730304 -200 45 -200 45 -200 45
1494474329.0548 -1.844455 -2.1665044 -200 45 -200 45 -200 45
1495474445.741 -1.8483557 -2.1478288 -200 45 -200 45 -200 45
1496474562.4271 -1.8528999 -2.1386466 -200 45 -200 45 -200 45
1497474679.1132 -1.8467815 -2.1481431 -200 45 -200 45 -200 45
1498474795.7993 -1.8461614 -2.1444709 -200 45 -200 45 -200 45
1499474912.4854 -1.8408346 -2.1375329 -200 45 -200 45 -200 45
1500475029.1715 -1.8460892 -2.1344736 -200 45 -200 45 -200 45
1501475145.8576 -1.8520763 -2.1335373 -200 45 -200 45 -200 45
1502475262.5438 -1.8582685 -2.1143088 -200 45 -200 45 -200 45
1503475379.2299 -1.856258 -2.1233447 -200 45 -200 45 -200 45
1504475495.916 -1.8468093 -2.1278386 -200 45 -200 45 -200 45
1505475612.6021 -1.8450084 -2.1210368 -200 45 -200 45 -200 45
1506475729.2882 -1.8447518 -2.1052406 -200 45 -200 45 -200 45
1507475845.9743 -1.848971 -2.1078768 -200 45 -200 45 -200 45
1508475962.6604 -1.8487451 -2.1102853 -200 45 -200 45 -200 45
1509476079.3466 -1.8512028 -2.1019907 -200 45 -200 45 -200 45
1510476196.0327 -1.8586123 -2.0892978 -200 45 -200 45 -200 45
1511476312.7188 -1.8635772 -2.0769944 -200 45 -200 45 -200 45
1512476429.4049 -1.8703489 -2.0701921 -200 45 -200 45 -200 45
1513476546.091 -1.8622018 -2.0784674 -200 45 -200 45 -200 45
1514476662.7771 -1.8623719 -2.0747154 -200 45 -200 45 -200 45
1515476779.4632 -1.8556314 -2.0714593 -200 45 -200 45 -200 45
1516476896.1494 -1.8603048 -2.0689826 -200 45 -200 45 -200 45
1517477012.8355 -1.8671948 -2.0516961 -200 45 -200 45 -200 45
1518477129.5216 -1.8717636 -2.0516727 -200 45 -200 45 -200 45
1519477246.2077 -1.872785 -2.0442743 -200 45 -200 45 -200 45
1520477362.8938 -1.863693 -2.0466325 -200 45 -200 45 -200 45
1521477479.5799 -1.8619181 -2.0374873 -200 45 -200 45 -200 45
1522477596.266 -1.8606628 -2.0413101 -200 45 -200 45 -200 45
1523477712.9522 -1.864415 -2.0366948 -200 45 -200 45 -200 45
1524477829.6383 -1.8646699 -2.0379956 -200 45 -200 45 -200 45
1525477946.3244 -1.8652167 -2.0287185 -200 45 -200 45 -200 45
1526478063.0105 -1.8771056 -2.0093889 -200 45 -200 45 -200 45
1527478179.6966 -1.8764552 -2.0058327 -200 45 -200 45 -200 45
1528478296.3827 -1.8841352 -1.9968851 -200 45 -200 45 -200 45
1529478413.0688 -1.8782971 -2.0016577 -200 45 -200 45 -200 45
1530478529.755 -1.8766099 -1.996158 -200 45 -200 45 -200 45
1531478646.4411 -1.8724543 -2.0020576 -200 45 -200 45 -200 45
1532478763.1272 -1.8745488 -2.0019088 -200 45 -200 45 -200 45
1533478879.8133 -1.8835334 -1.9790102 -200 45 -200 45 -200 45
1534478996.4994 -1.8861586 -1.9821128 -200 45 -200 45 -200 45
1535479113.1855 -1.8882289 -1.9661107 -200 45 -200 45 -200 45
1536479229.8716 -1.8802378 -1.9788682 -200 45 -200 45 -200 45
1537479346.5578 -1.8783911 -1.9741141 -200 45 -200 45 -200 45
1538479463.2439 -1.8751051 -1.975958 -200 45 -200 45 -200 45
1539479579.93 -1.8794169 -1.9734024 -200 45 -200 45 -200 45
1540479696.6161 -1.8806937 -1.9637991 -200 45 -200 45 -200 45
1541479813.3022 -1.8802055 -1.9596498 -200 45 -200 45 -200 45
1542479929.9883 -1.8884553 -1.9463168 -200 45 -200 45 -200 45
1543480046.6744 -1.8931326 -1.9270205 -200 45 -200 45 -200 45
1544480163.3606 -1.898366 -1.9197384 -200 45 -200 45 -200 45
1545480280.0467 -1.8950295 -1.927839 -200 45 -200 45 -200 45
1546480396.7328 -1.8937923 -1.9328051 -200 45 -200 45 -200 45
1547480513.4189 -1.8889735 -1.9328326 -200 45 -200 45 -200 45
1548480630.105 -1.8906274 -1.9231246 -200 45 -200 45 -200 45
1549480746.7911 -1.8973869 -1.9040868 -200 45 -200 45 -200 45
1550480863.4772 -1.8995479 -1.9019138 -200 45 -200 45 -200 45
1551480980.1634 -1.9041601 -1.9004035 -200 45 -200 45 -200 45
1552481096.8495 -1.8966449 -1.8968232 -200 45 -200 45 -200 45
1553481213.5356 -1.8921139 -1.9122927 -200 45 -200 45 -200 45
1554481330.2217 -1.8915849 -1.8962129 -200 45 -200 45 -200 45
1555481446.9078 -1.8932711 -1.8972951 -200 45 -200 45 -200 45
1556481563.5939 -1.895583 -1.8727769 -200 45 -200 45 -200 45
1557481680.28 -1.895245 -1.8817184 -200 45 -200 45 -200 45
1558481796.9662 -1.9032577 -1.870434 -200 45 -200 45 -200 45
1559481913.6523 -1.9070698 -1.8672975 -200 45 -200 45 -200 45
1560482030.3384 -1.9146419 -1.8494947 -200 45 -200 45 -200 45
1561482147.0245 -1.9107631 -1.8541738 -200 45 -200 45 -200 45
1562482263.7106 -1.9080868 -1.8597485 -200 45 -200 45 -200 45
1563482380.3967 -1.9051074 -1.8525451 -200 45 -200 45 -200 45
1564482497.0828 -1.906013 -1.8559011 -200 45 -200 45 -200 45
1565482613.769 -1.9136471 -1.8473743 -200 45 -200 45 -200 45
1566482730.4551 -1.9137465 -1.83349 -200 45 -200 45 -200 45
1567482847.1412 -1.9195064 -1.8275166 -200 45 -200 45 -200 45
1568482963.8273 -1.9119357 -1.8322647 -200 45 -200 45 -200 45
1569483080.5134 -1.909511 -1.8254541 -200 45 -200 45 -200 45
1570483197.1995 -1.9062957 -1.8305025 -200 45 -200 45 -200 45
1571483313.8856 -1.9092855 -1.8177985 -200 45 -200 45 -200 45
1572483430.5718 -1.9103488 -1.8255926 -200 45 -200 45 -200 45
1573483547.2579 -1.9091601 -1.8209562 -200 45 -200 45 -200 45
1574483663.944 -1.917815 -1.8055919 -200 45 -200 45 -200 45
1575483780.6301 -1.9199297 -1.7888494 -200 45 -200 45 -200 45
1576483897.3162 -1.9280277 -1.7794846 -200 45 -200 45 -200 45
1577484014.0023 -1.926439 -1.7750133 -200 45 -200 45 -200 45
1578484130.6884 -1.923942 -1.7870113 -200 45 -200 45 -200 45
1579484247.3746 -1.9201074 -1.7800614 -200 45 -200 45 -200 45
1580484364.0607 -1.9194754 -1.7803367 -200 45 -200 45 -200 45
1581484480.7468 -1.926585 -1.7750496 -200 45 -200 45 -200 45
1582484597.4329 -1.9281404 -1.7609997 -200 45 -200 45 -200 45
1583484714.119 -1.9357265 -1.7544608 -200 45 -200 45 -200 45
1584484830.8051 -1.9291239 -1.7533896 -200 45 -200 45 -200 45
1585484947.4912 -1.9250262 -1.7511401 -200 45 -200 45 -200 45
1586485064.1774 -1.9199648 -1.7603462 -200 45 -200 45 -200 45
1587485180.8635 -1.9231499 -1.7486471 -200 45 -200 45 -200 45
1588485297.5496 -1.9261607 -1.7510043 -200 45 -200 45 -200 45
1589485414.2357 -1.9234914 -1.7399925 -200 45 -200 45 -200 45
1590485530.9218 -1.9323161 -1.7289388 -200 45 -200 45 -200 45
1591485647.6079 -1.9347464 -1.7244557 -200 45 -200 45 -200 45
1592485764.294 -1.9421405 -1.6988463 -200 45 -200 45 -200 45
1593485880.9802 -1.9409783 -1.7119092 -200 45 -200 45 -200 45
1594485997.6663 -1.9374198 -1.709445 -200 45 -200 45 -200 45
1595486114.3524 -1.9342937 -1.7033657 -200 45 -200 45 -200 45
1596486231.0385 -1.9332662 -1.7171581 -200 45 -200 45 -200 45
1597486347.7246 -1.9406712 -1.6971078 -200 45 -200 45 -200 45
1598486464.4107 -1.94303 -1.6915708 -200 45 -200 45 -200 45
1599486581.0968 -1.950074 -1.671743 -200 45 -200 45 -200 45
1600486697.783 -1.9430515 -1.6748708 -200 45 -200 45 -200 45
1601486814.4691 -1.9384564 -1.6736838 -200 45 -200 45 -200 45
1602486931.1552 -1.9348348 -1.6928349 -200 45 -200 45 -200 45
1603487047.8413 -1.9367652 -1.6753455 -200 45 -200 45 -200 45
1604487164.5274 -1.9408338 -1.6646456 -200 45 -200 45 -200 45
1605487281.2135 -1.9366847 -1.6635108 -200 45 -200 45 -200 45
1606487397.8997 -1.9453949 -1.659534 -200 45 -200 45 -200 45
1607487514.5858 -1.9490663 -1.6396234 -200 45 -200 45 -200 45
1608487631.2719 -1.9534769 -1.6353805 -200 45 -200 45 -200 45
1609487747.958 -1.9562678 -1.6273493 -200 45 -200 45 -200 45
1610487864.6441 -1.9512393 -1.63278 -200 45 -200 45 -200 45
1611487981.3302 -1.9513578 -1.6351374 -200 45 -200 45 -200 45
1612488098.0163 -1.946758 -1.6329165 -200 45 -200 45 -200 45
1613488214.7025 -1.9548876 -1.6226172 -200 45 -200 45 -200 45
1614488331.3886 -1.9577575 -1.6132236 -200 45 -200 45 -200 45
1615488448.0747 -1.9632195 -1.5958779 -200 45 -200 45 -200 45
1616488564.7608 -1.9607919 -1.586646 -200 45 -200 45 -200 45
1617488681.4469 -1.9521766 -1.5987537 -200 45 -200 45 -200 45
1618488798.133 -1.9504666 -1.5966663 -200 45 -200 45 -200 45
1619488914.8191 -1.9512893 -1.5988309 -200 45 -200 45 -200 45
1620489031.5053 -1.9542741 -1.5931072 -200 45 -200 45 -200 45
1621489148.1914 -1.9506998 -1.5856049 -200 45 -200 45 -200 45
1622489264.8775 -1.9586405 -1.5816587 -200 45 -200 45 -200 45
1623489381.5636 -1.9636536 -1.5762662 -200 45 -200 45 -200 45
1624489498.2497 -1.9693694 -1.5558894 -200 45 -200 45 -200 45
1625489614.9358 -1.9715613 -1.5574267 -200 45 -200 45 -200 45
1626489731.6219 -1.9661922 -1.5715567 -200 45 -200 45 -200 45
1627489848.3081 -1.9655161 -1.5679841 -200 45 -200 45 -200 45
1628489964.9942 -1.9632167 -1.5535643 -200 45 -200 45 -200 45
1629490081.6803 -1.9656479 -1.5450321 -200 45 -200 45 -200 45
1630490198.3664 -1.9712474 -1.5284575 -200 45 -200 45 -200 45
1631490315.0525 -1.9773889 -1.5182569 -200 45 -200 45 -200 45
1632490431.7386 -1.9754791 -1.5146337 -200 45 -200 45 -200 45
1633490548.4247 -1.9665709 -1.5276496 -200 45 -200 45 -200 45
1634490665.1109 -1.9639916 -1.5200218 -200 45 -200 45 -200 45
1635490781.797 -1.9659647 -1.523895 -200 45 -200 45 -200 45
1636490898.4831 -1.9687319 -1.5096432 -200 45 -200 45 -200 45
1637491015.1692 -1.9665411 -1.5131118 -200 45 -200 45 -200 45
1638491131.8553 -1.9725825 -1.4973953 -200 45 -200 45 -200 45
1639491248.5414 -1.9785477 -1.4991901 -200 45 -200 45 -200 45
1640491365.2275 -1.9832911 -1.4798107 -200 45 -200 45 -200 45
1641491481.9137 -1.98629 -1.4835852 -200 45 -200 45 -200 45
1642491598.5998 -1.9816326 -1.4789572 -200 45 -200 45 -200 45
1643491715.2859 -1.9802692 -1.4830698 -200 45 -200 45 -200 45
1644491831.972 -1.9773113 -1.4870579 -200 45 -200 45 -200 45
1645491948.6581 -1.9799281 -1.4831338 -200 45 -200 45 -200 45
1646492065.3442 -1.9869848 -1.4566389 -200 45 -200 45 -200 45
1647492182.0303 -1.9914452 -1.448254 -200 45 -200 45 -200 45
1648492298.7165 -1.9905097 -1.4377811 -200 45 -200 45 -200 45
1649492415.4026 -1.9823722 -1.4501506 -200 45 -200 45 -200 45
1650492532.0887 -1.9813712 -1.4512066 -200 45 -200 45 -200 45
1651492648.7748 -1.979189 -1.4558468 -200 45 -200 45 -200 45
1652492765.4609 -1.9830983 -1.4471413 -200 45 -200 45 -200 45
1653492882.147 -1.981508 -1.4464104 -200 45 -200 45 -200 45
1654492998.8331 -1.9850358 -1.4397378 -200 45 -200 45 -200 45
1655493115.5193 -1.9927901 -1.4320998 -200 45 -200 45 -200 45
1656493232.2054 -1.9967366 -1.4212846 -200 45 -200 45 -200 45
1657493348.8915 -2.0003259 -1.4114304 -200 45 -200 45 -200 45
1658493465.5776 -1.9970207 -1.42427 -200 45 -200 45 -200 45
1659493582.2637 -1.9960152 -1.4120152 -200 45 -200 45 -200 45
1660493698.9498 -1.9914465 -1.4282423 -200 45 -200 45 -200 45
1661493815.6359 -1.994242 -1.4073957 -200 45 -200 45 -200 45
1662493932.3221 -2.0010598 -1.4002299 -200 45 -200 45 -200 45
1663494049.0082 -2.0061886 -1.3891165 -200 45 -200 45 -200 45
1664494165.6943 -2.0071685 -1.3887827 -200 45 -200 45 -200 45
1665494282.3804 -1.9982586 -1.3933696 -200 45 -200 45 -200 45
1666494399.0665 -1.9963754 -1.3863848 -200 45 -200 45 -200 45
1667494515.7526 -1.9922245 -1.3858341 -200 45 -200 45 -200 45
1668494632.4387 -1.9976727 -1.3765593 -200 45 -200 45 -200 45
1669494749.1249 -1.9987955 -1.3812114 -200 45 -200 45 -200 45
1670494865.811 -1.9983391 -1.3769788 -200 45 -200 45 -200 45
1671494982.4971 -2.0050325 -1.3638726 -200 45 -200 45 -200 45
1672495099.1832 -2.0101285 -1.3602536 -200 45 -200 45 -200 45
1673495215.8693 -2.0170746 -1.3388447 -200 45 -200 45 -200 45
1674495332.5554 -2.0106351 -1.3596159 -200 45 -200 45 -200 45
1675495449.2415 -2.0090446 -1.3559444 -200 45 -200 45 -200 45
1676495565.9277 -2.005034 -1.3558607 -200 45 -200 45 -200 45
1677495682.6138 -2.00758 -1.3499557 -200 45 -200 45 -200 45
1678495799.2999 -2.0150211 -1.3328416 -200 45 -200 45 -200 45
1679495915.986 -2.0186841 -1.3343909 -200 45 -200 45 -200 45
1680496032.6721 -2.0219932 -1.3152685 -200 45 -200 45 -200 45
1681496149.3582 -2.0120966 -1.3243874 -200 45 -200 45 -200 45
1682496266.0443 -2.011189 -1.3204187 -200 45 -200 45 -200 45
1683496382.7305 -2.0069549 -1.3321046 -200 45 -200 45 -200 45
1684496499.4166 -2.0110631 -1.3312638 -200 45 -200 45 -200 45
1685496616.1027 -2.0134573 -1.3273048 -200 45 -200 45 -200 45
1686496732.7888 -2.0123525 -1.3200517 -200 45 -200 45 -200 45
1687496849.4749 -2.021549 -1.3042423 -200 45 -200 45 -200 45
1688496966.161 -2.0232894 -1.2914233 -200 45 -200 45 -200 45
1689497082.8471 -2.031692 -1.283453 -200 45 -200 45 -200 45
1690497199.5333 -2.0270734 -1.2904644 -200 45 -200 45 -200 45
1691497316.2194 -2.0241127 -1.2872322 -200 45 -200 45 -200 45
1692497432.9055 -2.019732 -1.2954298 -200 45 -200 45 -200 45
1693497549.5916 -2.0233364 -1.2955666 -200 45 -200 45 -200 45
1694497666.2777 -2.0298948 -1.2734673 -200 45 -200 45 -200 45
1695497782.9638 -2.033093 -1.2738219 -200 45 -200 45 -200 45
1696497899.6499 -2.0361283 -1.258093 -200 45 -200 45 -200 45
1697498016.3361 -2.0296452 -1.2709625 -200 45 -200 45 -200 45
1698498133.0222 -2.0248129 -1.257602 -200 45 -200 45 -200 45
1699498249.7083 -2.0216827 -1.2744969 -200 45 -200 45 -200 45
1700498366.3944 -2.0256245 -1.2682263 -200 45 -200 45 -200 45
1701498483.0805 -2.0277905 -1.2653522 -200 45 -200 45 -200 45
1702498599.7666 -2.0256295 -1.2553718 -200 45 -200 45 -200 45
1703498716.4527 -2.0353134 -1.2502156 -200 45 -200 45 -200 45
1704498833.1389 -2.0366178 -1.2459639 -200 45 -200 45 -200 45
1705498949.825 -2.0458493 -1.2311325 -200 45 -200 45 -200 45
1706499066.5111 -2.0431211 -1.2369325 -200 45 -200 45 -200 45
1707499183.1972 -2.0390701 -1.2395923 -200 45 -200 45 -200 45
1708499299.8833 -2.0361423 -1.250946 -200 45 -200 45 -200 45
1709499416.5694 -2.0384386 -1.2432976 -200 45 -200 45 -200 45
1710499533.2555 -2.046587 -1.222218 -200 45 -200 45 -200 45
1711499649.9417 -2.0463386 -1.2175908 -200 45 -200 45 -200 45
1712499766.6278 -2.0528359 -1.2164774 -200 45 -200 45 -200 45
1713499883.3139 -2.0449593 -1.2098023 -200 45 -200 45 -200 45
1714500000 -2.0417147 -1.2300378 -200 45 -200 45 -200 45
1715500116.6861 -2.0393224 -1.2230453 -200 45 -200 45 -200 45
1716500233.3722 -2.0416496 -1.2216738 -200 45 -200 45 -200 45
1717500350.0583 -2.0437772 -1.2248237 -200 45 -200 45 -200 45
1718500466.7445 -2.0434809 -1.2213826 -200 45 -200 45 -200 45
1719500583.4306 -2.0526757 -1.2175885 -200 45 -200 45 -200 45
1720500700.1167 -2.0545592 -1.2122271 -200 45 -200 45 -200 45
1721500816.8028 -2.064034 -1.1971922 -200 45 -200 45 -200 45
1722500933.4889 -2.0629575 -1.2191608 -200 45 -200 45 -200 45
1723501050.175 -2.0590322 -1.2290184 -200 45 -200 45 -200 45
1724501166.8611 -2.0602098 -1.2459043 -200 45 -200 45 -200 45
1725501283.5473 -2.0593808 -1.2595912 -200 45 -200 45 -200 45
1726501400.2334 -2.0696986 -1.2631888 -200 45 -200 45 -200 45
1727501516.9195 -2.0754912 -1.2844006 -200 45 -200 45 -200 45
1728501633.6056 -2.0855329 -1.2783602 -200 45 -200 45 -200 45
1729501750.2917 -2.0902667 -1.3099788 -200 45 -200 45 -200 45
1730501866.9778 -2.100179 -1.3267795 -200 45 -200 45 -200 45
1731501983.6639 -2.1176302 -1.2492914 -200 45 -200 45 -200 45
1732502100.3501 -2.1304483 -1.084934 -200 45 -200 45 -200 45
1733502217.0362 -2.1275711 -0.88096011 -200 45 -200 45 -200 45
1734502333.7223 -2.105041 -0.79602873 -200 45 -200 45 -200 45
1735502450.4084 -2.092792 -0.77013838 -200 45 -200 45 -200 45
1736502567.0945 -2.0851409 -0.79252601 -200 45 -200 45 -200 45
1737502683.7806 -2.0872991 -0.81917584 -200 45 -200 45 -200 45
1738502800.4667 -2.0859125 -0.84377587 -200 45 -200 45 -200 45
1739502917.1529 -2.0804772 -0.84741277 -200 45 -200 45 -200 45
1740503033.839 -2.0770953 -0.83876729 -200 45 -200 45 -200 45
1741503150.5251 -2.0694189 -0.83383793 -200 45 -200 45 -200 45
1742503267.2112 -2.0724323 -0.83780247 -200 45 -200 45 -200 45
1743503383.8973 -2.0714502 -0.84571129 -200 45 -200 45 -200 45
1744503500.5834 -2.0764422 -0.84453291 -200 45 -200 45 -200 45
1745503617.2695 -2.0708928 -0.86664963 -200 45 -200 45 -200 45
1746503733.9557 -2.0651796 -0.87902766 -200 45 -200 45 -200 45
1747503850.6418 -2.0625129 -0.90984523 -200 45 -200 45 -200 45
1748503967.3279 -2.0629392 -0.9138031 -200 45 -200 45 -200 45
1749504084.014 -2.0661614 -0.91176343 -200 45 -200 45 -200 45
1750504200.7001 -2.0630987 -0.92495769 -200 45 -200 45 -200 45
1751504317.3862 -2.0700243 -0.9098956 -200 45 -200 45 -200 45
1752504434.0723 -2.0736685 -0.89489371 -200 45 -200 45 -200 45
1753504550.7585 -2.0809357 -0.88127047 -200 45 -200 45 -200 45
1754504667.4446 -2.0819085 -0.8928262 -200 45 -200 45 -200 45
1755504784.1307 -2.0777655 -0.89676929 -200 45 -200 45 -200 45
1756504900.8168 -2.0769448 -0.91530824 -200 45 -200 45 -200 45
1757505017.5029 -2.0745265 -0.89501244 -200 45 -200 45 -200 45
1758505134.189 -2.079488 -0.89672595 -200 45 -200 45 -200 45
1759505250.8751 -2.0840566 -0.89102161 -200 45 -200 45 -200 45
1760505367.5613 -2.0892196 -0.88816518 -200 45 -200 45 -200 45
1761505484.2474 -2.0872777 -0.88372099 -200 45 -200 45 -200 45
1762505600.9335 -2.0797958 -0.88475555 -200 45 -200 45 -200 45
1763505717.6196 -2.0774965 -0.90451056 -200 45 -200 45 -200 45
1764505834.3057 -2.0767479 -0.89404839 -200 45 -200 45 -200 45
1765505950.9918 -2.0801339 -0.8898257 -200 45 -200 45 -200 45
1766506067.6779 -2.0790634 -0.88468361 -200 45 -200 45 -200 45
1767506184.3641 -2.0847058 -0.8905794 -200 45 -200 45 -200 45
1768506301.0502 -2.0908716 -0.86785614 -200 45 -200 45 -200 45
1769506417.7363 -2.0946126 -0.86509603 -200 45 -200 45 -200 45
1770506534.4224 -2.1001821 -0.85670686 -200 45 -200 45 -200 45
1771506651.1085 -2.0914209 -0.85797828 -200 45 -200 45 -200 45
1772506767.7946 -2.0900857 -0.86051512 -200 45 -200 45 -200 45
1773506884.4807 -2.0875895 -0.86321813 -200 45 -200 45 -200 45
1774507001.1669 -2.093292 -0.85704398 -200 45 -200 45 -200 45
1775507117.853 -2.0964608 -0.8566817 -200 45 -200 45 -200 45
1776507234.5391 -2.103066 -0.83472496 -200 45 -200 45 -200 45
1777507351.2252 -2.1023879 -0.82740265 -200 45 -200 45 -200 45
1778507467.9113 -2.0936873 -0.83749247 -200 45 -200 45 -200 45
1779507584.5974 -2.0923226 -0.84309077 -200 45 -200 45 -200 45
1780507701.2835 -2.0921495 -0.84750873 -200 45 -200 45 -200 45
1781507817.9697 -2.0943656 -0.8404941 -200 45 -200 45 -200 45
1782507934.6558 -2.0933881 -0.84943765 -200 45 -200 45 -200 45
1783508051.3419 -2.0964491 -0.8339262 -200 45 -200 45 -200 45
1784508168.028 -2.1051209 -0.81988579 -200 45 -200 45 -200 45
1785508284.7141 -2.108655 -0.80392927 -200 45 -200 45 -200 45
1786508401.4002 -2.1110382 -0.80960685 -200 45 -200 45 -200 45
1787508518.0863 -2.1078706 -0.80703694 -200 45 -200 45 -200 45
1788508634.7725 -2.1068945 -0.8110773 -200 45 -200 45 -200 45
1789508751.4586 -2.1021595 -0.81694585 -200 45 -200 45 -200 45
1790508868.1447 -2.1074564 -0.80299234 -200 45 -200 45 -200 45
1791508984.8308 -2.112339 -0.7867353 -200 45 -200 45 -200 45
1792509101.5169 -2.1160021 -0.78187078 -200 45 -200 45 -200 45
1793509218.203 -2.115834 -0.77278501 -200 45 -200 45 -200 45
1794509334.8891 -2.1095836 -0.79788762 -200 45 -200 45 -200 45
1795509451.5753 -2.1077962 -0.78085548 -200 45 -200 45 -200 45
1796509568.2614 -2.1047089 -0.7981441 -200 45 -200 45 -200 45
1797509684.9475 -2.1082373 -0.78552115 -200 45 -200 45 -200 45
1798509801.6336 -2.109165 -0.78642279 -200 45 -200 45 -200 45
1799509918.3197 -2.1108027 -0.77879643 -200 45 -200 45 -200 45
1800510035.0058 -2.1188605 -0.76260209 -200 45 -200 45 -200 45
1801510151.6919 -2.1195562 -0.74318576 -200 45 -200 45 -200 45
1802510268.3781 -2.1267791 -0.73830563 -200 45 -200 45 -200 45
1803510385.0642 -2.1224501 -0.75643176 -200 45 -200 45 -200 45
1804510501.7503 -2.1204832 -0.75209033 -200 45 -200 45 -200 45
1805510618.4364 -2.1169376 -0.7556119 -200 45 -200 45 -200 45
1806510735.1225 -2.1207151 -0.73885202 -200 45 -200 45 -200 45
1807510851.8086 -2.1269362 -0.74959302 -200 45 -200 45 -200 45
1808510968.4947 -2.1317589 -0.72828704 -200 45 -200 45 -200 45
1809511085.1809 -2.132153 -0.72174323 -200 45 -200 45 -200 45
1810511201.867 -2.1231456 -0.7350204 -200 45 -200 45 -200 45
1811511318.5531 -2.12163 -0.73636812 -200 45 -200 45 -200 45
1812511435.2392 -2.118562 -0.73371071 -200 45 -200 45 -200 45
1813511551.9253 -2.1235766 -0.72416013 -200 45 -200 45 -200 45
1814511668.6114 -2.1240797 -0.72478443 -200 45 -200 45 -200 45
1815511785.2975 -2.1231525 -0.71561635 -200 45 -200 45 -200 45
1816511901.9837 -2.1335328 -0.70721996 -200 45 -200 45 -200 45
1817512018.6698 -2.1357474 -0.6976915 -200 45 -200 45 -200 45
1818512135.3559 -2.1398931 -0.68178988 -200 45 -200 45 -200 45
1819512252.042 -2.1362634 -0.69597065 -200 45 -200 45 -200 45
1820512368.7281 -2.1361852 -0.69269514 -200 45 -200 45 -200 45
1821512485.4142 -2.1311326 -0.70367104 -200 45 -200 45 -200 45
1822512602.1004 -2.1328957 -0.69924766 -200 45 -200 45 -200 45
1823512718.7865 -2.1408706 -0.6896823 -200 45 -200 45 -200 45
1824512835.4726 -2.1414924 -0.67159855 -200 45 -200 45 -200 45
1825512952.1587 -2.1453302 -0.66764188 -200 45 -200 45 -200 45
1826513068.8448 -2.1383722 -0.66389972 -200 45 -200 45 -200 45
1827513185.5309 -2.1373503 -0.6711176 -200 45 -200 45 -200 45
1828513302.217 -2.1324494 -0.67535794 -200 45 -200 45 -200 45
1829513418.9032 -2.1355128 -0.66348141 -200 45 -200 45 -200 45
1830513535.5893 -2.1384997 -0.65574318 -200 45 -200 45 -200 45
1831513652.2754 -2.136379 -0.66337836 -200 45 -200 45 -200 45
1832513768.9615 -2.1456926 -0.63887364 -200 45 -200 45 -200 45
1833513885.6476 -2.1458733 -0.63560319 -200 45 -200 45 -200 45
1834514002.3337 -2.1542315 -0.61537147 -200 45 -200 45 -200 45
1835514119.0198 -2.1511631 -0.63092846 -200 45 -200 45 -200 45
1836514235.706 -2.1495249 -0.64265722 -200 45 -200 45 -200 45
1837514352.3921 -2.1456857 -0.63913983 -200 45 -200 45 -200 45
1838514469.0782 -2.1468186 -0.62843305 -200 45 -200 45 -200 45
1839514585.7643 -2.1548867 -0.62494427 -200 45 -200 45 -200 45
1840514702.4504 -2.1552331 -0.61419713 -200 45 -200 45 -200 45
1841514819.1365 -2.1608047 -0.60360414 -200 45 -200 45 -200 45
1842514935.8226 -2.1538243 -0.61279333 -200 45 -200 45 -200 45
1843515052.5088 -2.1518934 -0.61762321 -200 45 -200 45 -200 45
1844515169.1949 -2.1472266 -0.62299836 -200 45 -200 45 -200 45
1845515285.881 -2.1496789 -0.61479086 -200 45 -200 45 -200 45
1846515402.5671 -2.1532128 -0.60041827 -200 45 -200 45 -200 45
1847515519.2532 -2.1533666 -0.61560446 -200 45 -200 45 -200 45
1848515635.9393 -2.1579366 -0.60329324 -200 45 -200 45 -200 45
1849515752.6254 -2.1628697 -0.58778453 -200 45 -200 45 -200 45
1850515869.3116 -2.1694422 -0.56358886 -200 45 -200 45 -200 45
1851515985.9977 -2.1665108 -0.57956511 -200 45 -200 45 -200 45
1852516102.6838 -2.1641464 -0.58408248 -200 45 -200 45 -200 45
1853516219.3699 -2.1605821 -0.58621603 -200 45 -200 45 -200 45
1854516336.056 -2.1610172 -0.58990836 -200 45 -200 45 -200 45
1855516452.7421 -2.1688719 -0.56979573 -200 45 -200 45 -200 45
1856516569.4282 -2.1695757 -0.57381845 -200 45 -200 45 -200 45
1857516686.1144 -2.1759539 -0.55862033 -200 45 -200 45 -200 45
1858516802.8005 -2.1695476 -0.55321252 -200 45 -200 45 -200 45
1859516919.4866 -2.1641626 -0.56464738 -200 45 -200 45 -200 45
1860517036.1727 -2.1610725 -0.57634377 -200 45 -200 45 -200 45
1861517152.8588 -2.164731 -0.56077242 -200 45 -200 45 -200 45
1862517269.5449 -2.1668241 -0.56204051 -200 45 -200 45 -200 45
1863517386.231 -2.165853 -0.54560488 -200 45 -200 45 -200 45
1864517502.9172 -2.1731427 -0.55804586 -200 45 -200 45 -200 45
1865517619.6033 -2.176507 -0.5321393 -200 45 -200 45 -200 45
1866517736.2894 -2.1849508 -0.52784973 -200 45 -200 45 -200 45
1867517852.9755 -2.1822357 -0.52972203 -200 45 -200 45 -200 45
1868517969.6616 -2.1789727 -0.53387481 -200 45 -200 45 -200 45
1869518086.3477 -2.1768651 -0.53990161 -200 45 -200 45 -200 45
1870518203.0338 -2.1760101 -0.53199911 -200 45 -200 45 -200 45
1871518319.72 -2.1826468 -0.53068459 -200 45 -200 45 -200 45
1872518436.4061 -2.1864827 -0.52483934 -200 45 -200 45 -200 45
1873518553.0922 -2.1916623 -0.51810867 -200 45 -200 45 -200 45
1874518669.7783 -2.1873746 -0.51189345 -200 45 -200 45 -200 45
1875518786.4644 -2.1816058 -0.52031898 -200 45 -200 45 -200 45
1876518903.1505 -2.1819811 -0.53972036 -200 45 -200 45 -200 45
1877519019.8366 -2.1819785 -0.54390651 -200 45 -200 45 -200 45
1878519136.5228 -2.1869054 -0.51978099 -200 45 -200 45 -200 45
1879519253.2089 -2.1878407 -0.52837193 -200 45 -200 45 -200 45
1880519369.895 -2.1961741 -0.51637137 -200 45 -200 45 -200 45
1881519486.5811 -2.2010636 -0.48042569 -200 45 -200 45 -200 45
1882519603.2672 -2.2061946 -0.43454418 -200 45 -200 45 -200 45
1883519719.9533 -2.2057898 -0.43170339 -200 45 -200 45 -200 45
1884519836.6394 -2.1973314 -0.44734457 -200 45 -200 45 -200 45
1885519953.3256 -2.1968536 -0.44748434 -200 45 -200 45 -200 45
1886520070.0117 -2.1916697 -0.44530866 -200 45 -200 45 -200 45
1887520186.6978 -2.1979403 -0.44747436 -200 45 -200 45 -200 45
1888520303.3839 -2.2007637 -0.43589491 -200 45 -200 45 -200 45
1889520420.07 -2.208051 -0.42510071 -200 45 -200 45 -200 45
1890520536.7561 -2.2036717 -0.43675941 -200 45 -200 45 -200 45
1891520653.4422 -2.1976526 -0.44426626 -200 45 -200 45 -200 45
1892520770.1284 -2.1941419 -0.43936473 -200 45 -200 45 -200 45
1893520886.8145 -2.1949253 -0.44309348 -200 45 -200 45 -200 45
1894521003.5006 -2.196645 -0.4417277 -200 45 -200 45 -200 45
1895521120.1867 -2.1941469 -0.44476849 -200 45 -200 45 -200 45
1896521236.8728 -2.200407 -0.42487857 -200 45 -200 45 -200 45
1897521353.5589 -2.205976 -0.42881626 -200 45 -200 45 -200 45
1898521470.245 -2.211585 -0.41900471 -200 45 -200 45 -200 45
1899521586.9312 -2.2140441 -0.41744879 -200 45 -200 45 -200 45
1900521703.6173 -2.2082846 -0.4271577 -200 45 -200 45 -200 45
1901521820.3034 -2.2080119 -0.42715973 -200 45 -200 45 -200 45
1902521936.9895 -2.2039874 -0.43532935 -200 45 -200 45 -200 45
1903522053.6756 -2.2092571 -0.41910383 -200 45 -200 45 -200 45
1904522170.3617 -2.2148156 -0.42191833 -200 45 -200 45 -200 45
1905522287.0478 -2.2195466 -0.40451786 -200 45 -200 45 -200 45
1906522403.734 -2.2175939 -0.40162751 -200 45 -200 45 -200 45
1907522520.4201 -2.2099769 -0.41478676 -200 45 -200 45 -200 45
1908522637.1062 -2.2081439 -0.41533941 -200 45 -200 45 -200 45
1909522753.7923 -2.2085736 -0.42893788 -200 45 -200 45 -200 45
1910522870.4784 -2.2127163 -0.42323112 -200 45 -200 45 -200 45
1911522987.1645 -2.2127013 -0.42566723 -200 45 -200 45 -200 45
1912523103.8506 -2.2131689 -0.42126828 -200 45 -200 45 -200 45
1913523220.5368 -2.2194064 -0.40495998 -200 45 -200 45 -200 45
1914523337.2229 -2.2239368 -0.39934883 -200 45 -200 45 -200 45
1915523453.909 -2.2280116 -0.38816848 -200 45 -200 45 -200 45
1916523570.5951 -2.2247791 -0.39420217 -200 45 -200 45 -200 45
1917523687.2812 -2.2243047 -0.40535054 -200 45 -200 45 -200 45
1918523803.9673 -2.2186294 -0.42173654 -200 45 -200 45 -200 45
1919523920.6534 -2.2247005 -0.40387991 -200 45 -200 45 -200 45
1920524037.3396 -2.2295635 -0.39791682 -200 45 -200 45 -200 45
1921524154.0257 -2.2330799 -0.38755596 -200 45 -200 45 -200 45
1922524270.7118 -2.2355728 -0.38741758 -200 45 -200 45 -200 45
1923524387.3979 -2.2257366 -0.40642348 -200 45 -200 45 -200 45
1924524504.084 -2.2248483 -0.40819091 -200 45 -200 45 -200 45
1925524620.7701 -2.2233756 -0.40267137 -200 45 -200 45 -200 45
1926524737.4562 -2.2277792 -0.4042438 -200 45 -200 45 -200 45
1927524854.1424 -2.2271893 -0.39531451 -200 45 -200 45 -200 45
1928524970.8285 -2.2300279 -0.39803305 -200 45 -200 45 -200 45
1929525087.5146 -2.2369153 -0.37558776 -200 45 -200 45 -200 45
1930525204.2007 -2.2382274 -0.37570634 -200 45 -200 45 -200 45
1931525320.8868 -2.2452359 -0.35880366 -200 45 -200 45 -200 45
1932525437.5729 -2.2402563 -0.38340098 -200 45 -200 45 -200 45
1933525554.259 -2.239645 -0.38138402 -200 45 -200 45 -200 45
1934525670.9452 -2.2368262 -0.38707364 -200 45 -200 45 -200 45
1935525787.6313 -2.238977 -0.38601935 -200 45 -200 45 -200 45
1936525904.3174 -2.2465818 -0.37513679 -200 45 -200 45 -200 45
1937526021.0035 -2.2496977 -0.38655528 -200 45 -200 45 -200 45
1938526137.6896 -2.2511516 -0.36460775 -200 45 -200 45 -200 45
1939526254.3757 -2.2437425 -0.38885361 -200 45 -200 45 -200 45
1940526371.0618 -2.2434964 -0.3906936 -200 45 -200 45 -200 45
1941526487.748 -2.2387073 -0.40419203 -200 45 -200 45 -200 45
1942526604.4341 -2.2432499 -0.38901314 -200 45 -200 45 -200 45
1943526721.1202 -2.2450628 -0.39375177 -200 45 -200 45 -200 45
1944526837.8063 -2.2465389 -0.39937204 -200 45 -200 45 -200 45
1945526954.4924 -2.2532125 -0.3927823 -200 45 -200 45 -200 45
1946527071.1785 -2.2542312 -0.38765085 -200 45 -200 45 -200 45
1947527187.8646 -2.2636862 -0.38211426 -200 45 -200 45 -200 45
1948527304.5508 -2.2584105 -0.37694362 -200 45 -200 45 -200 45
1949527421.2369 -2.2575223 -0.39164639 -200 45 -200 45 -200 45
1950527537.923 -2.2541723 -0.41498795 -200 45 -200 45 -200 45
1951527654.6091 -2.2582476 -0.39387599 -200 45 -200 45 -200 45
1952527771.2952 -2.2639861 -0.39313242 -200 45 -200 45 -200 45
1953527887.9813 -2.2661049 -0.3984817 -200 45 -200 45 -200 45
1954528004.6674 -2.2707577 -0.37408438 -200 45 -200 45 -200 45
1955528121.3536 -2.2633407 -0.40089875 -200 45 -200 45 -200 45
1956528238.0397 -2.2629659 -0.41210893 -200 45 -200 45 -200 45
1957528354.7258 -2.2594626 -0.42376819 -200 45 -200 45 -200 45
1958528471.4119 -2.2610543 -0.42515513 -200 45 -200 45 -200 45
1959528588.098 -2.2639167 -0.41548926 -200 45 -200 45 -200 45
1960528704.7841 -2.2648444 -0.4264001 -200 45 -200 45 -200 45
1961528821.4702 -2.2737436 -0.40613136 -200 45 -200 45 -200 45
1962528938.1564 -2.2740107 -0.4129861 -200 45 -200 45 -200 45
1963529054.8425 -2.2818944 -0.40618178 -200 45 -200 45 -200 45
1964529171.5286 -2.2778971 -0.4257617 -200 45 -200 45 -200 45
1965529288.2147 -2.2770667 -0.42783445 -200 45 -200 45 -200 45
1966529404.9008 -2.2740333 -0.44340745 -200 45 -200 45 -200 45
1967529521.5869 -2.2773125 -0.43321326 -200 45 -200 45 -200 45
1968529638.273 -2.2828777 -0.43804264 -200 45 -200 45 -200 45
1969529754.9592 -2.2866693 -0.45113048 -200 45 -200 45 -200 45
1970529871.6453 -2.2920074 -0.4362351 -200 45 -200 45 -200 45
1971529988.3314 -2.2847216 -0.45861563 -200 45 -200 45 -200 45
1972530105.0175 -2.2812943 -0.47439846 -200 45 -200 45 -200 45
1973530221.7036 -2.2790713 -0.49508014 -200 45 -200 45 -200 45
1974530338.3897 -2.2843115 -0.49773797 -200 45 -200 45 -200 45
1975530455.0758 -2.2854538 -0.49643716 -200 45 -200 45 -200 45
1976530571.762 -2.2851312 -0.50724185 -200 45 -200 45 -200 45
1977530688.4481 -2.2940612 -0.50408995 -200 45 -200 45 -200 45
1978530805.1342 -2.2974577 -0.51095438 -200 45 -200 45 -200 45
1979530921.8203 -2.3056228 -0.50020766 -200 45 -200 45 -200 45
1980531038.5064 -2.3036239 -0.52831012 -200 45 -200 45 -200 45
1981531155.1925 -2.3025858 -0.54640877 -200 45 -200 45 -200 45
1982531271.8786 -2.3013723 -0.57481658 -200 45 -200 45 -200 45
1983531388.5648 -2.3015285 -0.58206946 -200 45 -200 45 -200 45
1984531505.2509 -2.3086739 -0.57752764 -200 45 -200 45 -200 45
1985531621.937 -2.3143511 -0.59850806 -200 45 -200 45 -200 45
1986531738.6231 -2.3190227 -0.59049344 -200 45 -200 45 -200 45
1987531855.3092 -2.3125579 -0.63066971 -200 45 -200 45 -200 45
1988531971.9953 -2.3095262 -0.63970166 -200 45 -200 45 -200 45
1989532088.6814 -2.3089645 -0.66944635 -200 45 -200 45 -200 45
1990532205.3676 -2.3147128 -0.68873924 -200 45 -200 45 -200 45
1991532322.0537 -2.3197358 -0.70721322 -200 45 -200 45 -200 45
1992532438.7398 -2.3178828 -0.73231351 -200 45 -200 45 -200 45
1993532555.4259 -2.3286929 -0.75737745 -200 45 -200 45 -200 45
1994532672.112 -2.3351896 -0.75515223 -200 45 -200 45 -200 45
1995532788.7981 -2.3414783 -0.7630567 -200 45 -200 45 -200 45
1996532905.4842 -2.3427012 -0.79689801 -200 45 -200 45 -200 45
1997533022.1704 -2.3432357 -0.84093976 -200 45 -200 45 -200 45
1998533138.8565 -2.3452973 -0.87506443 -200 45 -200 45 -200 45
1999533255.5426 -2.3464983 -0.91584128 -200 45 -200 45 -200 45
2000533372.2287 -2.3548172 -0.93617487 -200 45 -200 45 -200 45
2001533488.9148 -2.362309 -0.97852665 -200 45 -200 45 -200 45
2002533605.6009 -2.3708196 -0.99760103 -200 45 -200 45 -200 45
2003533722.287 -2.3697653 -1.0583625 -200 45 -200 45 -200 45
2004533838.9732 -2.3705626 -1.1217836 -200 45 -200 45 -200 45
2005533955.6593 -2.373136 -1.1926514 -200 45 -200 45 -200 45
2006534072.3454 -2.3804064 -1.2483305 -200 45 -200 45 -200 45
2007534189.0315 -2.3908253 -1.3135772 -200 45 -200 45 -200 45
2008534305.7176 -2.3962109 -1.4030266 -200 45 -200 45 -200 45
2009534422.4037 -2.4138138 -1.4758167 -200 45 -200 45 -200 45
2010534539.0898 -2.4276817 -1.5629724 -200 45 -200 45 -200 45
2011534655.776 -2.448168 -1.6439954 -200 45 -200 45 -200 45
2012534772.4621 -2.4622123 -1.7789141 -200 45 -200 45 -200 45
2013534889.1482 -2.4773521 -1.9364133 -200 45 -200 45 -200 45
2014535005.8343 -2.4996231 -2.0935769 -200 45 -200 45 -200 45
2015535122.5204 -2.5301447 -2.2777207 -200 45 -200 45 -200 45
2016535239.2065 -2.5737765 -2.4780319 -200 45 -200 45 -200 45
2017535355.8926 -2.6300955 -2.7024844 -200 45 -200 45 -200 45
2018535472.5788 -2.7040882 -2.9514623 -200 45 -200 45 -200 45
2019535589.2649 -2.7998073 -3.2171249 -200 45 -200 45 -200 45
2020535705.951 -2.9430437 -3.3984251 -200 45 -200 45 -200 45
2021535822.6371 -3.1524453 -3.2496622 -200 45 -200 45 -200 45
2022535939.3232 -3.4071791 -2.2611086 -200 45 -200 45 -200 45
2023536056.0093 -3.58248 -0.074982613 -200 45 -200 45 -200 45
2024536172.6954 -3.524518 2.4761138 -200 45 -200 45 -200 45
2025536289.3816 -3.2993462 4.2289448 -200 45 -200 45 -200 45
2026536406.0677 -3.0363021 4.8480043 -200 45 -200 45 -200 45
2027536522.7538 -2.8295362 4.7373385 -200 45 -200 45 -200 45
2028536639.4399 -2.6949236 4.2902055 -200 45 -200 45 -200 45
2029536756.126 -2.618932 3.7804546 -200 45 -200 45 -200 45
2030536872.8121 -2.5886869 3.4996016 -200 45 -200 45 -200 45
2031536989.4982 -2.5541472 3.3211129 -200 45 -200 45 -200 45
2032537106.1844 -2.5459869 3.1388042 -200 45 -200 45 -200 45
2033537222.8705 -2.556303 3.1828196 -200 45 -200 45 -200 45
2034537339.5566 -2.5340197 3.5129368 -200 45 -200 45 -200 45
2035537456.2427 -2.4490483 3.6278028 -200 45 -200 45 -200 45
2036537572.9288 -2.3668334 3.4038992 -200 45 -200 45 -200 45
2037537689.6149 -2.3198736 3.0823781 -200 45 -200 45 -200 45
2038537806.3011 -2.2951314 2.7847331 -200 45 -200 45 -200 45
2039537922.9872 -2.2881281 2.5372963 -200 45 -200 45 -200 45
2040538039.6733 -2.2796974 2.3139493 -200 45 -200 45 -200 45
2041538156.3594 -2.2798479 2.152559 -200 45 -200 45 -200 45
2042538273.0455 -2.2837117 2.0110939 -200 45 -200 45 -200 45
2043538389.7316 -2.2894034 1.8923323 -200 45 -200 45 -200 45
2044538506.4177 -2.2908821 1.7879381 -200 45 -200 45 -200 45
2045538623.1039 -2.2867758 1.6813784 -200 45 -200 45 -200 45
2046538739.79 -2.2872758 1.5902576 -200 45 -200 45 -200 45
2047538856.4761 -2.2837014 1.5092385 -200 45 -200 45 -200 45
2048538973.1622 -2.2862132 1.4429544 -200 45 -200 45 -200 45
2049539089.8483 -2.2948897 1.3935872 -200 45 -200 45 -200 45
2050539206.5344 -2.3003047 1.3461937 -200 45 -200 45 -200 45
2051539323.2205 -2.3001416 1.2822796 -200 45 -200 45 -200 45
2052539439.9067 -2.2939839 1.2166909 -200 45 -200 45 -200 45
2053539556.5928 -2.2932262 1.183892 -200 45 -200 45 -200 45
2054539673.2789 -2.2929878 1.1255994 -200 45 -200 45 -200 45
2055539789.965 -2.296865 1.08825 -200 45 -200 45 -200 45
2056539906.6511 -2.2987223 1.0461638 -200 45 -200 45 -200 45
2057540023.3372 -2.3026512 1.0139284 -200 45 -200 45 -200 45
2058540140.0233 -2.3098061 1.0050106 -200 45 -200 45 -200 45
2059540256.7095 -2.3136833 0.97281373 -200 45 -200 45 -200 45
2060540373.3956 -2.3184521 0.96361399 -200 45 -200 45 -200 45
2061540490.0817 -2.3155985 0.91556787 -200 45 -200 45 -200 45
2062540606.7678 -2.3165996 0.88129073 -200 45 -200 45 -200 45
2063540723.4539 -2.3145971 0.84015477 -200 45 -200 45 -200 45
2064540840.14 -2.3180006 0.83026135 -200 45 -200 45 -200 45
2065540956.8261 -2.3239994 0.80485022 -200 45 -200 45 -200 45
2066541073.5123 -2.3282504 0.79749238 -200 45 -200 45 -200 45
2067541190.1984 -2.3298795 0.76876581 -200 45 -200 45 -200 45
2068541306.8845 -2.3246846 0.73223668 -200 45 -200 45 -200 45
2069541423.5706 -2.3248911 0.7124359 -200 45 -200 45 -200 45
2070541540.2567 -2.3227592 0.68062901 -200 45 -200 45 -200 45
2071541656.9428 -2.3278255 0.65960294 -200 45 -200 45 -200 45
2072541773.6289 -2.3299294 0.64165503 -200 45 -200 45 -200 45
2073541890.3151 -2.3332381 0.61970139 -200 45 -200 45 -200 45
2074542007.0012 -2.3407559 0.60772413 -200 45 -200 45 -200 45
2075542123.6873 -2.3424096 0.597902 -200 45 -200 45 -200 45
2076542240.3734 -2.3505156 0.59867293 -200 45 -200 45 -200 45
2077542357.0595 -2.3478105 0.55702686 -200 45 -200 45 -200 45
2078542473.7456 -2.3478494 0.53040737 -200 45 -200 45 -200 45
2079542590.4317 -2.3446741 0.50951093 -200 45 -200 45 -200 45
2080542707.1179 -2.3492954 0.48571387 -200 45 -200 45 -200 45
2081542823.804 -2.3571827 0.4778372 -200 45 -200 45 -200 45
2082542940.4901 -2.3604627 0.46449658 -200 45 -200 45 -200 45
2083543057.1762 -2.3645587 0.44976157 -200 45 -200 45 -200 45
2084543173.8623 -2.3576076 0.42081767 -200 45 -200 45 -200 45
2085543290.5484 -2.3563168 0.40334806 -200 45 -200 45 -200 45
2086543407.2345 -2.3539584 0.3710683 -200 45 -200 45 -200 45
2087543523.9207 -2.3619125 0.35650331 -200 45 -200 45 -200 45
2088543640.6068 -2.3631694 0.33885711 -200 45 -200 45 -200 45
2089543757.2929 -2.3645711 0.31170908 -200 45 -200 45 -200 45
2090543873.979 -2.3715105 0.28765056 -200 45 -200 45 -200 45
2091543990.6651 -2.3746297 0.28150085 -200 45 -200 45 -200 45
2092544107.3512 -2.3833182 0.27416629 -200 45 -200 45 -200 45
2093544224.0373 -2.3813236 0.2364103 -200 45 -200 45 -200 45
2094544340.7235 -2.3827498 0.20530088 -200 45 -200 45 -200 45
2095544457.4096 -2.3800678 0.18111719 -200 45 -200 45 -200 45
2096544574.0957 -2.3836968 0.15075359 -200 45 -200 45 -200 45
2097544690.7818 -2.3903031 0.13390125 -200 45 -200 45 -200 45
2098544807.4679 -2.393909 0.11445895 -200 45 -200 45 -200 45
2099544924.154 -2.4007509 0.098441914 -200 45 -200 45 -200 45
2100545040.8401 -2.3965125 0.046938967 -200 45 -200 45 -200 45
2101545157.5263 -2.3954456 0.012673155 -200 45 -200 45 -200 45
2102545274.2124 -2.3932998 -0.017791569 -200 45 -200 45 -200 45
2103545390.8985 -2.3987019 -0.049404014 -200 45 -200 45 -200 45
2104545507.5846 -2.4018569 -0.081381552 -200 45 -200 45 -200 45
2105545624.2707 -2.4049687 -0.10318122 -200 45 -200 45 -200 45
2106545740.9568 -2.4147327 -0.14009807 -200 45 -200 45 -200 45
2107545857.6429 -2.4195426 -0.15403239 -200 45 -200 45 -200 45
2108545974.3291 -2.4286013 -0.19273591 -200 45 -200 45 -200 45
2109546091.0152 -2.4303401 -0.24529456 -200 45 -200 45 -200 45
2110546207.7013 -2.4311187 -0.30731562 -200 45 -200 45 -200 45
2111546324.3874 -2.4311061 -0.34467459 -200 45 -200 45 -200 45
2112546441.0735 -2.43663 -0.3932561 -200 45 -200 45 -200 45
2113546557.7596 -2.4453135 -0.42567366 -200 45 -200 45 -200 45
2114546674.4457 -2.4506664 -0.47822669 -200 45 -200 45 -200 45
2115546791.1319 -2.4601417 -0.5185408 -200 45 -200 45 -200 45
2116546907.818 -2.4588013 -0.58533037 -200 45 -200 45 -200 45
2117547024.5041 -2.4577599 -0.6590479 -200 45 -200 45 -200 45
2118547141.1902 -2.4616411 -0.72827393 -200 45 -200 45 -200 45
2119547257.8763 -2.4683774 -0.78869909 -200 45 -200 45 -200 45
2120547374.5624 -2.477658 -0.8463735 -200 45 -200 45 -200 45
2121547491.2485 -2.4815874 -0.93481153 -200 45 -200 45 -200 45
2122547607.9347 -2.4954705 -1.0147333 -200 45 -200 45 -200 45
2123547724.6208 -2.5075009 -1.0982668 -200 45 -200 45 -200 45
2124547841.3069 -2.5190356 -1.1722436 -200 45 -200 45 -200 45
2125547957.993 -2.5265551 -1.2925836 -200 45 -200 45 -200 45
2126548074.6791 -2.534107 -1.4123964 -200 45 -200 45 -200 45
2127548191.3652 -2.5418172 -1.5375918 -200 45 -200 45 -200 45
2128548308.0513 -2.5538378 -1.6682676 -200 45 -200 45 -200 45
2129548424.7375 -2.5747378 -1.794293 -200 45 -200 45 -200 45
2130548541.4236 -2.5921795 -1.9500368 -200 45 -200 45 -200 45
2131548658.1097 -2.6162939 -2.1080542 -200 45 -200 45 -200 45
2132548774.7958 -2.6280181 -2.2909062 -200 45 -200 45 -200 45
2133548891.4819 -2.6431835 -2.5305099 -200 45 -200 45 -200 45
2134549008.168 -2.6671479 -2.7557847 -200 45 -200 45 -200 45
2135549124.8541 -2.6988502 -3.0172038 -200 45 -200 45 -200 45
2136549241.5403 -2.7373195 -3.3143716 -200 45 -200 45 -200 45
2137549358.2264 -2.7739813 -3.6440792 -200 45 -200 45 -200 45
2138549474.9125 -2.834022 -4.0305843 -200 45 -200 45 -200 45
2139549591.5986 -2.8984711 -4.4716859 -200 45 -200 45 -200 45
2140549708.2847 -2.9862404 -4.9832344 -200 45 -200 45 -200 45
2141549824.9708 -3.0891516 -5.6123242 -200 45 -200 45 -200 45
2142549941.6569 -3.2299404 -6.3588996 -200 45 -200 45 -200 45
2143550058.3431 -3.4317615 -7.1891456 -200 45 -200 45 -200 45
2144550175.0292 -3.7282269 -8.0730076 -200 45 -200 45 -200 45
2145550291.7153 -4.1950283 -8.7704868 -200 45 -200 45 -200 45
2146550408.4014 -4.9142022 -8.4531202 -200 45 -200 45 -200 45
2147550525.0875 -5.8647442 -4.6571994 -200 45 -200 45 -200 45
2148550641.7736 -6.3140235 4.7983217 -200 45 -200 45 -200 45
2149550758.4597 -5.5717721 13.260674 -200 45 -200 45 -200 45
2150550875.1459 -4.533742 15.985783 -200 45 -200 45 -200 45
2151550991.832 -3.7465656 15.270954 -200 45 -200 45 -200 45
2152551108.5181 -3.3001046 13.429074 -200 45 -200 45 -200 45
2153551225.2042 -3.0693977 11.846556 -200 45 -200 45 -200 45
2154551341.8903 -2.9199426 10.507039 -200 45 -200 45 -200 45
2155551458.5764 -2.8730447 9.2536345 -200 45 -200 45 -200 45
2156551575.2625 -2.8861728 8.4256639 -200 45 -200 45 -200 45
2157551691.9487 -2.9562876 7.9601321 -200 45 -200 45 -200 45
2158551808.6348 -3.003247 8.4470816 -200 45 -200 45 -200 45
2159551925.3209 -2.91241 8.7834387 -200 45 -200 45 -200 45
2160552042.007 -2.9013278 8.7407894 -200 45 -200 45 -200 45
2161552158.6931 -2.8741343 9.7113361 -200 45 -200 45 -200 45
2162552275.3792 -2.6420603 10.257096 -200 45 -200 45 -200 45
2163552392.0653 -2.4456117 9.6520329 -200 45 -200 45 -200 45
2164552508.7515 -2.3381488 8.8063021 -200 45 -200 45 -200 45
2165552625.4376 -2.2815485 8.0565777 -200 45 -200 45 -200 45
2166552742.1237 -2.2545586 7.4479527 -200 45 -200 45 -200 45
2167552858.8098 -2.2438548 6.9726934 -200 45 -200 45 -200 45
2168552975.4959 -2.2412245 6.5742002 -200 45 -200 45 -200 45
2169553092.182 -2.2358141 6.2315607 -200 45 -200 45 -200 45
2170553208.8681 -2.2399936 5.9538298 -200 45 -200 45 -200 45
2171553325.5543 -2.2473063 5.718049 -200 45 -200 45 -200 45
2172553442.2404 -2.2527397 5.4977942 -200 45 -200 45 -200 45
2173553558.9265 -2.2571714 5.3091002 -200 45 -200 45 -200 45
2174553675.6126 -2.2547989 5.1206341 -200 45 -200 45 -200 45
2175553792.2987 -2.2569921 4.971385 -200 45 -200 45 -200 45
2176553908.9848 -2.2563639 4.8192978 -200 45 -200 45 -200 45
2177554025.6709 -2.2627869 4.6886015 -200 45 -200 45 -200 45
2178554142.3571 -2.2683859 4.5958385 -200 45 -200 45 -200 45
2179554259.0432 -2.2761087 4.4964275 -200 45 -200 45 -200 45
2180554375.7293 -2.2763386 4.3839793 -200 45 -200 45 -200 45
2181554492.4154 -2.2708364 4.2820621 -200 45 -200 45 -200 45
2182554609.1015 -2.2718925 4.1997995 -200 45 -200 45 -200 45
2183554725.7876 -2.2729747 4.0987787 -200 45 -200 45 -200 45
2184554842.4737 -2.2778771 4.0488653 -200 45 -200 45 -200 45
2185554959.1599 -2.2772639 3.9608293 -200 45 -200 45 -200 45
2186555075.846 -2.2836254 3.9083304 -200 45 -200 45 -200 45
2187555192.5321 -2.2925377 3.8643637 -200 45 -200 45 -200 45
2188555309.2182 -2.2951057 3.8085759 -200 45 -200 45 -200 45
2189555425.9043 -2.3025637 3.7591872 -200 45 -200 45 -200 45
2190555542.5904 -2.299114 3.6998756 -200 45 -200 45 -200 45
2191555659.2765 -2.3007166 3.6404657 -200 45 -200 45 -200 45
2192555775.9627 -2.2979262 3.5839272 -200 45 -200 45 -200 45
2193555892.6488 -2.3043561 3.547925 -200 45 -200 45 -200 45
2194556009.3349 -2.309458 3.5213611 -200 45 -200 45 -200 45
2195556126.021 -2.3151789 3.4926066 -200 45 -200 45 -200 45
2196556242.7071 -2.3164434 3.4627504 -200 45 -200 45 -200 45
2197556359.3932 -2.3112965 3.4060154 -200 45 -200 45 -200 45
2198556476.0793 -2.3096778 3.3760395 -200 45 -200 45 -200 45
2199556592.7655 -2.3081229 3.3252046 -200 45 -200 45 -200 45
2200556709.4516 -2.3136842 3.3031719 -200 45 -200 45 -200 45
2201556826.1377 -2.3157599 3.2789757 -200 45 -200 45 -200 45
2202556942.8238 -2.3176434 3.2444329 -200 45 -200 45 -200 45
2203557059.5099 -2.3263471 3.2373128 -200 45 -200 45 -200 45
2204557176.196 -2.3279123 3.2239604 -200 45 -200 45 -200 45
2205557292.8821 -2.3350406 3.2030308 -200 45 -200 45 -200 45
2206557409.5683 -2.332006 3.1719053 -200 45 -200 45 -200 45
2207557526.2544 -2.3316429 3.1336117 -200 45 -200 45 -200 45
2208557642.9405 -2.3298264 3.1123068 -200 45 -200 45 -200 45
2209557759.6266 -2.3320587 3.0887697 -200 45 -200 45 -200 45
2210557876.3127 -2.338928 3.0854609 -200 45 -200 45 -200 45
2211557992.9988 -2.3423018 3.0865083 -200 45 -200 45 -200 45
2212558109.6849 -2.3444147 3.0726359 -200 45 -200 45 -200 45
2213558226.3711 -2.3400252 3.0422993 -200 45 -200 45 -200 45
2214558343.0572 -2.3376219 3.0102165 -200 45 -200 45 -200 45
2215558459.7433 -2.3337183 2.9871757 -200 45 -200 45 -200 45
2216558576.4294 -2.3376999 2.9642072 -200 45 -200 45 -200 45
2217558693.1155 -2.3399372 2.9714808 -200 45 -200 45 -200 45
2218558809.8016 -2.3415222 2.9462073 -200 45 -200 45 -200 45
2219558926.4877 -2.3484294 2.939007 -200 45 -200 45 -200 45
2220559043.1739 -2.3523843 2.943476 -200 45 -200 45 -200 45
2221559159.86 -2.3587589 2.9347725 -200 45 -200 45 -200 45
2222559276.5461 -2.3532472 2.9211924 -200 45 -200 45 -200 45
2223559393.2322 -2.3553371 2.9077842 -200 45 -200 45 -200 45
2224559509.9183 -2.3517096 2.8781116 -200 45 -200 45 -200 45
2225559626.6044 -2.3542719 2.8669131 -200 45 -200 45 -200 45
2226559743.2905 -2.3615112 2.876147 -200 45 -200 45 -200 45
2227559859.9767 -2.3631301 2.8771861 -200 45 -200 45 -200 45
2228559976.6628 -2.3669262 2.8608823 -200 45 -200 45 -200 45
2229560093.3489 -2.3597367 2.8424172 -200 45 -200 45 -200 45
2230560210.035 -2.3584015 2.8402302 -200 45 -200 45 -200 45
2231560326.7211 -2.3556213 2.8257639 -200 45 -200 45 -200 45
2232560443.4072 -2.3579502 2.8145311 -200 45 -200 45 -200 45
2233560560.0933 -2.3604441 2.7955 -200 45 -200 45 -200 45
2234560676.7795 -2.3590517 2.7902377 -200 45 -200 45 -200 45
2235560793.4656 -2.3672454 2.8041284 -200 45 -200 45 -200 45
2236560910.1517 -2.3682342 2.7883549 -200 45 -200 45 -200 45
2237561026.8378 -2.3758354 2.7879574 -200 45 -200 45 -200 45
2238561143.5239 -2.3747275 2.7720404 -200 45 -200 45 -200 45
2239561260.21 -2.3717456 2.7556605 -200 45 -200 45 -200 45
2240561376.8961 -2.3688545 2.7445033 -200 45 -200 45 -200 45
2241561493.5823 -2.3695855 2.7399018 -200 45 -200 45 -200 45
2242561610.2684 -2.3763344 2.7276967 -200 45 -200 45 -200 45
2243561726.9545 -2.378926 2.7406242 -200 45 -200 45 -200 45
2244561843.6406 -2.3817863 2.7390132 -200 45 -200 45 -200 45
2245561960.3267 -2.377249 2.7164967 -200 45 -200 45 -200 45
2246562077.0128 -2.3736856 2.7137616 -200 45 -200 45 -200 45
2247562193.6989 -2.3719037 2.6936369 -200 45 -200 45 -200 45
2248562310.3851 -2.3745675 2.6854286 -200 45 -200 45 -200 45
2249562427.0712 -2.3779833 2.6813633 -200 45 -200 45 -200 45
2250562543.7573 -2.3766284 2.6756296 -200 45 -200 45 -200 45
2251562660.4434 -2.3822701 2.6692071 -200 45 -200 45 -200 45
2252562777.1295 -2.3855162 2.6899772 -200 45 -200 45 -200 45
2253562893.8156 -2.3937354 2.7064459 -200 45 -200 45 -200 45
2254563010.5018 -2.3912311 2.6798074 -200 45 -200 45 -200 45
2255563127.1879 -2.3887699 2.6588857 -200 45 -200 45 -200 45
2256563243.874 -2.3863266 2.6472716 -200 45 -200 45 -200 45
2257563360.5601 -2.3876505 2.655313 -200 45 -200 45 -200 45
2258563477.2462 -2.3939059 2.6585584 -200 45 -200 45 -200 45
2259563593.9323 -2.3951497 2.6570883 -200 45 -200 45 -200 45
2260563710.6184 -2.4014497 2.6707587 -200 45 -200 45 -200 45
2261563827.3046 -2.3960912 2.6573043 -200 45 -200 45 -200 45
2262563943.9907 -2.3931937 2.6427209 -200 45 -200 45 -200 45
2263564060.6768 -2.3871944 2.6329408 -200 45 -200 45 -200 45
2264564177.3629 -2.3913918 2.6255655 -200 45 -200 45 -200 45
2265564294.049 -2.3938029 2.6278689 -200 45 -200 45 -200 45
2266564410.7351 -2.393259 2.6210554 -200 45 -200 45 -200 45
2267564527.4212 -2.3990576 2.6287959 -200 45 -200 45 -200 45
2268564644.1074 -2.4016118 2.6373518 -200 45 -200 45 -200 45
2269564760.7935 -2.4073644 2.6389763 -200 45 -200 45 -200 45
2270564877.4796 -2.408469 2.63534 -200 45 -200 45 -200 45
2271564994.1657 -2.4057317 2.6192729 -200 45 -200 45 -200 45
2272565110.8518 -2.4064889 2.6168251 -200 45 -200 45 -200 45
2273565227.5379 -2.4039524 2.6093898 -200 45 -200 45 -200 45
2274565344.224 -2.4104393 2.6079969 -200 45 -200 45 -200 45
2275565460.9102 -2.4103489 2.611424 -200 45 -200 45 -200 45
2276565577.5963 -2.4166768 2.6377068 -200 45 -200 45 -200 45
2277565694.2824 -2.4125192 2.624038 -200 45 -200 45 -200 45
2278565810.9685 -2.4076884 2.6214707 -200 45 -200 45 -200 45
2279565927.6546 -2.4057722 2.6010845 -200 45 -200 45 -200 45
2280566044.3407 -2.4068317 2.602154 -200 45 -200 45 -200 45
2281566161.0268 -2.4096613 2.6053758 -200 45 -200 45 -200 45
2282566277.713 -2.4102426 2.5934293 -200 45 -200 45 -200 45
2283566394.3991 -2.4168797 2.6097732 -200 45 -200 45 -200 45
2284566511.0852 -2.4170721 2.6058309 -200 45 -200 45 -200 45
2285566627.7713 -2.4237738 2.6220758 -200 45 -200 45 -200 45
2286566744.4574 -2.4248717 2.6227434 -200 45 -200 45 -200 45
2287566861.1435 -2.4219267 2.6018796 -200 45 -200 45 -200 45
2288566977.8296 -2.4199646 2.6057 -200 45 -200 45 -200 45
2289567094.5158 -2.4195056 2.5985305 -200 45 -200 45 -200 45
2290567211.2019 -2.4235249 2.615061 -200 45 -200 45 -200 45
2291567327.888 -2.4265423 2.6077883 -200 45 -200 45 -200 45
2292567444.5741 -2.4337783 2.6238616 -200 45 -200 45 -200 45
2293567561.2602 -2.4305797 2.607518 -200 45 -200 45 -200 45
2294567677.9463 -2.4237108 2.5974369 -200 45 -200 45 -200 45
2295567794.6324 -2.4209692 2.5771983 -200 45 -200 45 -200 45
2296567911.3186 -2.4226084 2.5848668 -200 45 -200 45 -200 45
2297568028.0047 -2.4278111 2.5973687 -200 45 -200 45 -200 45
2298568144.6908 -2.4252355 2.5855136 -200 45 -200 45 -200 45
2299568261.3769 -2.429493 2.5936396 -200 45 -200 45 -200 45
2300568378.063 -2.4348819 2.5967729 -200 45 -200 45 -200 45
2301568494.7491 -2.4372015 2.60166 -200 45 -200 45 -200 45
2302568611.4352 -2.4426982 2.6230562 -200 45 -200 45 -200 45
2303568728.1214 -2.4380064 2.586143 -200 45 -200 45 -200 45
2304568844.8075 -2.4381654 2.5944014 -200 45 -200 45 -200 45
2305568961.4936 -2.4347396 2.5868044 -200 45 -200 45 -200 45
2306569078.1797 -2.43785 2.5981874 -200 45 -200 45 -200 45
2307569194.8658 -2.4447157 2.5920997 -200 45 -200 45 -200 45
2308569311.5519 -2.4467874 2.6113441 -200 45 -200 45 -200 45
2309569428.238 -2.4468932 2.5966239 -200 45 -200 45 -200 45
2310569544.9242 -2.4403951 2.5835934 -200 45 -200 45 -200 45
2311569661.6103 -2.439621 2.5842144 -200 45 -200 45 -200 45
2312569778.2964 -2.4368768 2.5842254 -200 45 -200 45 -200 45
2313569894.9825 -2.4422698 2.5779114 -200 45 -200 45 -200 45
2314570011.6686 -2.43976 2.5681522 -200 45 -200 45 -200 45
2315570128.3547 -2.4452569 2.5751917 -200 45 -200 45 -200 45
2316570245.0408 -2.4516523 2.5903118 -200 45 -200 45 -200 45
2317570361.727 -2.4532814 2.5871625 -200 45 -200 45 -200 45
2318570478.4131 -2.4584119 2.5916786 -200 45 -200 45 -200 45
2319570595.0992 -2.456002 2.58162 -200 45 -200 45 -200 45
2320570711.7853 -2.4564366 2.5792184 -200 45 -200 45 -200 45
2321570828.4714 -2.4510705 2.5744491 -200 45 -200 45 -200 45
2322570945.1575 -2.4540863 2.5626872 -200 45 -200 45 -200 45
2323571061.8436 -2.4609878 2.5789645 -200 45 -200 45 -200 45
2324571178.5298 -2.4649947 2.5953181 -200 45 -200 45 -200 45
2325571295.2159 -2.4662347 2.5833144 -200 45 -200 45 -200 45
2326571411.902 -2.4595673 2.5550041 -200 45 -200 45 -200 45
2327571528.5881 -2.4597192 2.5596728 -200 45 -200 45 -200 45
2328571645.2742 -2.4567449 2.5300059 -200 45 -200 45 -200 45
2329571761.9603 -2.4626679 2.5325344 -200 45 -200 45 -200 45
2330571878.6464 -2.4617465 2.5337019 -200 45 -200 45 -200 45
2331571995.3326 -2.4688623 2.5336654 -200 45 -200 45 -200 45
2332572112.0187 -2.4763572 2.5418365 -200 45 -200 45 -200 45
2333572228.7048 -2.4803724 2.5588317 -200 45 -200 45 -200 45
2334572345.3909 -2.4885721 2.5462241 -200 45 -200 45 -200 45
2335572462.077 -2.4907169 2.534399 -200 45 -200 45 -200 45
2336572578.7631 -2.494658 2.5506377 -200 45 -200 45 -200 45
2337572695.4492 -2.4958434 2.5771806 -200 45 -200 45 -200 45
2338572812.1354 -2.5029273 2.6224811 -200 45 -200 45 -200 45
2339572928.8215 -2.5076203 2.674475 -200 45 -200 45 -200 45
2340573045.5076 -2.5093555 2.7210784 -200 45 -200 45 -200 45
2341573162.1937 -2.507009 2.7575912 -200 45 -200 45 -200 45
2342573278.8798 -2.4958048 2.7633204 -200 45 -200 45 -200 45
2343573395.5659 -2.4906938 2.781451 -200 45 -200 45 -200 45
2344573512.252 -2.483335 2.7734716 -200 45 -200 45 -200 45
2345573628.9382 -2.4807491 2.7695894 -200 45 -200 45 -200 45
2346573745.6243 -2.4804201 2.7679968 -200 45 -200 45 -200 45
2347573862.3104 -2.4791448 2.755183 -200 45 -200 45 -200 45
2348573978.9965 -2.4843352 2.7657971 -200 45 -200 45 -200 45
2349574095.6826 -2.4839656 2.7619112 -200 45 -200 45 -200 45
2350574212.3687 -2.4898262 2.7759817 -200 45 -200 45 -200 45
2351574329.0548 -2.4858272 2.744899 -200 45 -200 45 -200 45
2352574445.741 -2.4848111 2.7335906 -200 45 -200 45 -200 45
2353574562.4271 -2.4820352 2.7333307 -200 45 -200 45 -200 45
2354574679.1132 -2.483789 2.7243767 -200 45 -200 45 -200 45
2355574795.7993 -2.4886167 2.735682 -200 45 -200 45 -200 45
2356574912.4854 -2.4927936 2.7495723 -200 45 -200 45 -200 45
2357575029.1715 -2.4947309 2.7686288 -200 45 -200 45 -200 45
2358575145.8576 -2.4877648 2.7466862 -200 45 -200 45 -200 45
2359575262.5438 -2.4835832 2.7434566 -200 45 -200 45 -200 45
2360575379.2299 -2.4799633 2.7277021 -200 45 -200 45 -200 45
2361575495.916 -2.4831955 2.733521 -200 45 -200 45 -200 45
2362575612.6021 -2.4839146 2.7344255 -200 45 -200 45 -200 45
2363575729.2882 -2.4824083 2.721055 -200 45 -200 45 -200 45
2364575845.9743 -2.4906943 2.7281356 -200 45 -200 45 -200 45
2365575962.6604 -2.4899118 2.7442267 -200 45 -200 45 -200 45
2366576079.3466 -2.4971776 2.7449257 -200 45 -200 45 -200 45
2367576196.0327 -2.4957418 2.7335184 -200 45 -200 45 -200 45
2368576312.7188 -2.4930685 2.7109928 -200 45 -200 45 -200 45
2369576429.4049 -2.4894874 2.7164252 -200 45 -200 45 -200 45
2370576546.091 -2.4918299 2.7068441 -200 45 -200 45 -200 45
2371576662.7771 -2.4985008 2.725575 -200 45 -200 45 -200 45
2372576779.4632 -2.4995766 2.7269535 -200 45 -200 45 -200 45
2373576896.1494 -2.5044236 2.7346008 -200 45 -200 45 -200 45
2374577012.8355 -2.4971712 2.7187777 -200 45 -200 45 -200 45
2375577129.5216 -2.4943118 2.7134182 -200 45 -200 45 -200 45
2376577246.2077 -2.4929616 2.6889682 -200 45 -200 45 -200 45
2377577362.8938 -2.4935689 2.6993294 -200 45 -200 45 -200 45
2378577479.5799 -2.4981015 2.701535 -200 45 -200 45 -200 45
2379577596.266 -2.4962361 2.6999607 -200 45 -200 45 -200 45
2380577712.9522 -2.5015054 2.71381 -200 45 -200 45 -200 45
2381577829.6383 -2.5043421 2.7173381 -200 45 -200 45 -200 45
2382577946.3244 -2.5115981 2.7364728 -200 45 -200 45 -200 45
2383578063.0105 -2.5110626 2.7268248 -200 45 -200 45 -200 45
2384578179.6966 -2.507129 2.7166023 -200 45 -200 45 -200 45
2385578296.3827 -2.5060658 2.7085114 -200 45 -200 45 -200 45
2386578413.0688 -2.5051537 2.7215953 -200 45 -200 45 -200 45
2387578529.755 -2.5114195 2.7275052 -200 45 -200 45 -200 45
2388578646.4411 -2.513356 2.7238352 -200 45 -200 45 -200 45
2389578763.1272 -2.5192611 2.7369227 -200 45 -200 45 -200 45
2390578879.8133 -2.5130882 2.7134125 -200 45 -200 45 -200 45
2391578996.4994 -2.5092037 2.7127779 -200 45 -200 45 -200 45
2392579113.1855 -2.5078154 2.704972 -200 45 -200 45 -200 45
2393579229.8716 -2.5076919 2.6996531 -200 45 -200 45 -200 45
2394579346.5578 -2.51211 2.7087383 -200 45 -200 45 -200 45
2395579463.2439 -2.5116134 2.6962044 -200 45 -200 45 -200 45
2396579579.93 -2.5163789 2.7151983 -200 45 -200 45 -200 45
2397579696.6161 -2.5201776 2.7254829 -200 45 -200 45 -200 45
2398579813.3022 -2.5263054 2.7423582 -200 45 -200 45 -200 45
2399579929.9883 -2.5238845 2.7318327 -200 45 -200 45 -200 45
2400580046.6744 -2.5219164 2.7262855 -200 45 -200 45 -200 45
2401580163.3606 -2.5214348 2.712074 -200 45 -200 45 -200 45
2402580280.0467 -2.5195932 2.7179039 -200 45 -200 45 -200 45
2403580396.7328 -2.5259221 2.7158408 -200 45 -200 45 -200 45
2404580513.4189 -2.5284472 2.7278047 -200 45 -200 45 -200 45
2405580630.105 -2.5347147 2.7474172 -200 45 -200 45 -200 45
2406580746.7911 -2.5301659 2.730104 -200 45 -200 45 -200 45
2407580863.4772 -2.5232959 2.7139254 -200 45 -200 45 -200 45
2408580980.1634 -2.5232384 2.7034571 -200 45 -200 45 -200 45
2409581096.8495 -2.5228362 2.6915751 -200 45 -200 45 -200 45
2410581213.5356 -2.5278397 2.7028008 -200 45 -200 45 -200 45
2411581330.2217 -2.5265903 2.6983414 -200 45 -200 45 -200 45
2412581446.9078 -2.5318503 2.7017939 -200 45 -200 45 -200 45
2413581563.5939 -2.5363684 2.7298672 -200 45 -200 45 -200 45
2414581680.28 -2.5405648 2.7326782 -200 45 -200 45 -200 45
2415581796.9662 -2.5429835 2.7445765 -200 45 -200 45 -200 45
2416581913.6523 -2.5401607 2.7073524 -200 45 -200 45 -200 45
2417582030.3384 -2.5394976 2.7221518 -200 45 -200 45 -200 45
2418582147.0245 -2.5364223 2.6952488 -200 45 -200 45 -200 45
2419582263.7106 -2.5422778 2.7049179 -200 45 -200 45 -200 45
2420582380.3967 -2.5445616 2.7100406 -200 45 -200 45 -200 45
2421582497.0828 -2.551018 2.7230122 -200 45 -200 45 -200 45
2422582613.769 -2.5487437 2.7297888 -200 45 -200 45 -200 45
2423582730.4551 -2.5412409 2.6898389 -200 45 -200 45 -200 45
2424582847.1412 -2.5417852 2.6822369 -200 45 -200 45 -200 45
2425582963.8273 -2.5413353 2.6862161 -200 45 -200 45 -200 45
2426583080.5134 -2.5446887 2.6936736 -200 45 -200 45 -200 45
2427583197.1995 -2.5446453 2.6690714 -200 45 -200 45 -200 45
2428583313.8856 -2.5506332 2.6923246 -200 45 -200 45 -200 45
2429583430.5718 -2.5527892 2.6982651 -200 45 -200 45 -200 45
2430583547.2579 -2.5598569 2.7045293 -200 45 -200 45 -200 45
2431583663.944 -2.5624213 2.7213998 -200 45 -200 45 -200 45
2432583780.6301 -2.5588541 2.6763387 -200 45 -200 45 -200 45
2433583897.3162 -2.5575104 2.672883 -200 45 -200 45 -200 45
2434584014.0023 -2.5551176 2.6750689 -200 45 -200 45 -200 45
2435584130.6884 -2.560544 2.6683633 -200 45 -200 45 -200 45
2436584247.3746 -2.5670984 2.6666231 -200 45 -200 45 -200 45
2437584364.0607 -2.5713046 2.679621 -200 45 -200 45 -200 45
2438584480.7468 -2.5702574 2.6803136 -200 45 -200 45 -200 45
2439584597.4329 -2.5620043 2.660841 -200 45 -200 45 -200 45
2440584714.119 -2.5638843 2.6393037 -200 45 -200 45 -200 45
2441584830.8051 -2.5601323 2.6273823 -200 45 -200 45 -200 45
2442584947.4912 -2.5656624 2.6386478 -200 45 -200 45 -200 45
2443585064.1774 -2.5683656 2.61729 -200 45 -200 45 -200 45
2444585180.8635 -2.5714805 2.6098986 -200 45 -200 45 -200 45
2445585297.5496 -2.5762038 2.6324723 -200 45 -200 45 -200 45
2446585414.2357 -2.5824208 2.6435401 -200 45 -200 45 -200 45
2447585530.9218 -2.5838623 2.6194391 -200 45 -200 45 -200 45
2448585647.6079 -2.5820975 2.604398 -200 45 -200 45 -200 45
2449585764.294 -2.5823851 2.5947025 -200 45 -200 45 -200 45
2450585880.9802 -2.5809221 2.5925248 -200 45 -200 45 -200 45
2451585997.6663 -2.5853455 2.5825043 -200 45 -200 45 -200 45
2452586114.3524 -2.5907731 2.5874186 -200 45 -200 45 -200 45
2453586231.0385 -2.5952544 2.5881298 -200 45 -200 45 -200 45
2454586347.7246 -2.5968866 2.5742292 -200 45 -200 45 -200 45
2455586464.4107 -2.5904486 2.5453098 -200 45 -200 45 -200 45
2456586581.0968 -2.5901225 2.5381696 -200 45 -200 45 -200 45
2457586697.783 -2.5889895 2.502378 -200 45 -200 45 -200 45
2458586814.4691 -2.5933192 2.5042698 -200 45 -200 45 -200 45
2459586931.1552 -2.5954242 2.4919577 -200 45 -200 45 -200 45
2460587047.8413 -2.601289 2.4851248 -200 45 -200 45 -200 45
2461587164.5274 -2.6076703 2.5020018 -200 45 -200 45 -200 45
2462587281.2135 -2.6089878 2.4781017 -200 45 -200 45 -200 45
2463587397.8997 -2.6132755 2.4787161 -200 45 -200 45 -200 45
2464587514.5858 -2.613559 2.4296911 -200 45 -200 45 -200 45
2465587631.2719 -2.6159914 2.4127443 -200 45 -200 45 -200 45
2466587747.958 -2.6132886 2.3931499 -200 45 -200 45 -200 45
2467587864.6441 -2.6201141 2.3856294 -200 45 -200 45 -200 45
2468587981.3302 -2.6269169 2.3724012 -200 45 -200 45 -200 45
2469588098.0163 -2.6320531 2.3678074 -200 45 -200 45 -200 45
2470588214.7025 -2.6354027 2.3595269 -200 45 -200 45 -200 45
2471588331.3886 -2.6304381 2.3111296 -200 45 -200 45 -200 45
2472588448.0747 -2.6297925 2.2917721 -200 45 -200 45 -200 45
2473588564.7608 -2.6310301 2.2417834 -200 45 -200 45 -200 45
2474588681.4469 -2.636039 2.2258902 -200 45 -200 45 -200 45
2475588798.133 -2.6387572 2.190201 -200 45 -200 45 -200 45
2476588914.8191 -2.6436391 2.160466 -200 45 -200 45 -200 45
2477589031.5053 -2.6562586 2.1446261 -200 45 -200 45 -200 45
2478589148.1914 -2.6618979 2.1115267 -200 45 -200 45 -200 45
2479589264.8775 -2.6694999 2.0742545 -200 45 -200 45 -200 45
2480589381.5636 -2.6731794 2.0201058 -200 45 -200 45 -200 45
2481589498.2497 -2.679873 1.9728906 -200 45 -200 45 -200 45
2482589614.9358 -2.6828339 1.9133005 -200 45 -200 45 -200 45
2483589731.6219 -2.6918068 1.8695018 -200 45 -200 45 -200 45
2484589848.3081 -2.706645 1.8194401 -200 45 -200 45 -200 45
2485589964.9942 -2.7167447 1.7656974 -200 45 -200 45 -200 45
2486590081.6803 -2.7311645 1.7141451 -200 45 -200 45 -200 45
2487590198.3664 -2.7345049 1.6226507 -200 45 -200 45 -200 45
2488590315.0525 -2.7452762 1.5450358 -200 45 -200 45 -200 45
2489590431.7386 -2.7557223 1.4538963 -200 45 -200 45 -200 45
2490590548.4247 -2.7780583 1.3663776 -200 45 -200 45 -200 45
2491590665.1109 -2.7984807 1.2677928 -200 45 -200 45 -200 45
2492590781.797 -2.8203607 1.1454946 -200 45 -200 45 -200 45
2493590898.4831 -2.8562887 1.0349191 -200 45 -200 45 -200 45
2494591015.1692 -2.896121 0.91217297 -200 45 -200 45 -200 45
2495591131.8553 -2.9457681 0.77506691 -200 45 -200 45 -200 45
2496591248.5414 -3.0031128 0.64302307 -200 45 -200 45 -200 45
2497591365.2275 -3.0733931 0.50756961 -200 45 -200 45 -200 45
2498591481.9137 -3.1622458 0.44099164 -200 45 -200 45 -200 45
2499591598.5998 -3.2828016 0.53163022 -200 45 -200 45 -200 45
2500591715.2859 -3.4355109 0.85480136 -200 45 -200 45 -200 45
2501591831.972 -3.5943265 1.6401794 -200 45 -200 45 -200 45
2502591948.6581 -3.7135701 2.995652 -200 45 -200 45 -200 45
2503592065.3442 -3.7262046 4.7318435 -200 45 -200 45 -200 45
2504592182.0303 -3.6180711 6.2754006 -200 45 -200 45 -200 45
2505592298.7165 -3.4453321 7.2706957 -200 45 -200 45 -200 45
2506592415.4026 -3.2684319 7.7172718 -200 45 -200 45 -200 45
2507592532.0887 -3.1104655 7.7745199 -200 45 -200 45 -200 45
2508592648.7748 -2.9891431 7.6015301 -200 45 -200 45 -200 45
2509592765.4609 -2.9024386 7.3031211 -200 45 -200 45 -200 45
2510592882.147 -2.8421242 6.9765801 -200 45 -200 45 -200 45
2511592998.8331 -2.8030488 6.6592069 -200 45 -200 45 -200 45
2512593115.5193 -2.7758224 6.3508129 -200 45 -200 45 -200 45
2513593232.2054 -2.760283 6.150651 -200 45 -200 45 -200 45
2514593348.8915 -2.7501078 5.9832115 -200 45 -200 45 -200 45
2515593465.5776 -2.7456303 5.8592734 -200 45 -200 45 -200 45
2516593582.2637 -2.7438412 5.755074 -200 45 -200 45 -200 45
2517593698.9498 -2.7464888 5.6591964 -200 45 -200 45 -200 45
2518593815.6359 -2.748764 5.5965209 -200 45 -200 45 -200 45
2519593932.3221 -2.7514265 5.5609317 -200 45 -200 45 -200 45
2520594049.0082 -2.7532408 5.6078377 -200 45 -200 45 -200 45
2521594165.6943 -2.7493613 5.7107782 -200 45 -200 45 -200 45
2522594282.3804 -2.7397974 5.8516645 -200 45 -200 45 -200 45
2523594399.0665 -2.7129424 5.9310975 -200 45 -200 45 -200 45
2524594515.7526 -2.6887553 5.9785728 -200 45 -200 45 -200 45
2525594632.4387 -2.6649928 5.9611259 -200 45 -200 45 -200 45
2526594749.1249 -2.6415665 5.9131866 -200 45 -200 45 -200 45
2527594865.811 -2.6241531 5.8182888 -200 45 -200 45 -200 45
2528594982.4971 -2.6004584 5.6887465 -200 45 -200 45 -200 45
2529595099.1832 -2.5860567 5.5976582 -200 45 -200 45 -200 45
2530595215.8693 -2.572196 5.4670424 -200 45 -200 45 -200 45
2531595332.5554 -2.5720253 5.368268 -200 45 -200 45 -200 45
2532595449.2415 -2.5692441 5.2781014 -200 45 -200 45 -200 45
2533595565.9277 -2.5699646 5.1921005 -200 45 -200 45 -200 45
2534595682.6138 -2.5646863 5.10674 -200 45 -200 45 -200 45
2535595799.2999 -2.5612381 4.9988179 -200 45 -200 45 -200 45
2536595915.986 -2.5577717 4.9434853 -200 45 -200 45 -200 45
2537596032.6721 -2.5567393 4.8874378 -200 45 -200 45 -200 45
2538596149.3582 -2.5631728 4.8389835 -200 45 -200 45 -200 45
2539596266.0443 -2.5624964 4.77984 -200 45 -200 45 -200 45
2540596382.7305 -2.5683422 4.7577901 -200 45 -200 45 -200 45
2541596499.4166 -2.5709064 4.7283058 -200 45 -200 45 -200 45
2542596616.1027 -2.5743103 4.7102251 -200 45 -200 45 -200 45
2543596732.7888 -2.577059 4.6715307 -200 45 -200 45 -200 45
2544596849.4749 -2.5738363 4.6236706 -200 45 -200 45 -200 45
2545596966.161 -2.5744128 4.6049786 -200 45 -200 45 -200 45
2546597082.8471 -2.5757065 4.5641456 -200 45 -200 45 -200 45
2547597199.5333 -2.5771813 4.5550122 -200 45 -200 45 -200 45
2548597316.2194 -2.5827477 4.5293236 -200 45 -200 45 -200 45
2549597432.9055 -2.5872402 4.5195909 -200 45 -200 45 -200 45
2550597549.5916 -2.584717 4.5049067 -200 45 -200 45 -200 45
2551597666.2777 -2.5801446 4.4546475 -200 45 -200 45 -200 45
2552597782.9638 -2.5784724 4.4348993 -200 45 -200 45 -200 45
2553597899.6499 -2.5783186 4.4183249 -200 45 -200 45 -200 45
2554598016.3361 -2.5823927 4.4091043 -200 45 -200 45 -200 45
2555598133.0222 -2.5825727 4.3859444 -200 45 -200 45 -200 45
2556598249.7083 -2.5867908 4.3854189 -200 45 -200 45 -200 45
2557598366.3944 -2.5915585 4.3898048 -200 45 -200 45 -200 45
2558598483.0805 -2.597605 4.3751049 -200 45 -200 45 -200 45
2559598599.7666 -2.5975471 4.3572698 -200 45 -200 45 -200 45
2560598716.4527 -2.596839 4.3285012 -200 45 -200 45 -200 45
2561598833.1389 -2.5950365 4.3203015 -200 45 -200 45 -200 45
2562598949.825 -2.5943844 4.3141084 -200 45 -200 45 -200 45
2563599066.5111 -2.5993471 4.3018918 -200 45 -200 45 -200 45
2564599183.1972 -2.601752 4.2972546 -200 45 -200 45 -200 45
2565599299.8833 -2.608727 4.3035693 -200 45 -200 45 -200 45
2566599416.5694 -2.6045842 4.2902784 -200 45 -200 45 -200 45
2567599533.2555 -2.6007466 4.2693424 -200 45 -200 45 -200 45
2568599649.9417 -2.5973728 4.2509589 -200 45 -200 45 -200 45
2569599766.6278 -2.5984287 4.2405028 -200 45 -200 45 -200 45
2570599883.3139 -2.6016688 4.2306581 -200 45 -200 45 -200 45
2571600000 -2.6026156 4.2169695 -200 45 -200 45 -200 45
2572600116.6861 -2.6087959 4.2295303 -200 45 -200 45 -200 45
2573600233.3722 -2.6094289 4.2258606 -200 45 -200 45 -200 45
2574600350.0583 -2.6167667 4.2286825 -200 45 -200 45 -200 45
2575600466.7445 -2.6170287 4.2313313 -200 45 -200 45 -200 45
2576600583.4306 -2.6166949 4.2106271 -200 45 -200 45 -200 45
2577600700.1167 -2.6157932 4.1992145 -200 45 -200 45 -200 45
2578600816.8028 -2.6146021 4.1951303 -200 45 -200 45 -200 45
2579600933.4889 -2.6191635 4.1955695 -200 45 -200 45 -200 45
2580601050.175 -2.6233535 4.2085032 -200 45 -200 45 -200 45
2581601166.8611 -2.6305766 4.201407 -200 45 -200 45 -200 45
2582601283.5473 -2.6257942 4.1928148 -200 45 -200 45 -200 45
2583601400.2334 -2.6201868 4.193285 -200 45 -200 45 -200 45
2584601516.9195 -2.6178937 4.17698 -200 45 -200 45 -200 45
2585601633.6056 -2.6193616 4.1803074 -200 45 -200 45 -200 45
2586601750.2917 -2.6223512 4.1796303 -200 45 -200 45 -200 45
2587601866.9778 -2.6216736 4.1645436 -200 45 -200 45 -200 45
2588601983.6639 -2.6269639 4.1764817 -200 45 -200 45 -200 45
2589602100.3501 -2.6292439 4.1853909 -200 45 -200 45 -200 45
2590602217.0362 -2.6319699 4.2107692 -200 45 -200 45 -200 45
2591602333.7223 -2.636296 4.1803155 -200 45 -200 45 -200 45
2592602450.4084 -2.6319132 4.1646576 -200 45 -200 45 -200 45
2593602567.0945 -2.6310613 4.1645026 -200 45 -200 45 -200 45
2594602683.7806 -2.6305637 4.1526628 -200 45 -200 45 -200 45
2595602800.4667 -2.6357038 4.1511464 -200 45 -200 45 -200 45
2596602917.1529 -2.6373787 4.1609097 -200 45 -200 45 -200 45
2597603033.839 -2.6440759 4.1707754 -200 45 -200 45 -200 45
2598603150.5251 -2.6414359 4.1527109 -200 45 -200 45 -200 45
2599603267.2112 -2.6356564 4.1432333 -200 45 -200 45 -200 45
2600603383.8973 -2.6317029 4.1278381 -200 45 -200 45 -200 45
2601603500.5834 -2.6340332 4.1357627 -200 45 -200 45 -200 45
2602603617.2695 -2.6383414 4.1352363 -200 45 -200 45 -200 45
2603603733.9557 -2.6371934 4.1251855 -200 45 -200 45 -200 45
2604603850.6418 -2.6429451 4.1429901 -200 45 -200 45 -200 45
2605603967.3279 -2.6467083 4.1415424 -200 45 -200 45 -200 45
2606604084.014 -2.6525822 4.1684899 -200 45 -200 45 -200 45
2607604200.7001 -2.6519814 4.1511526 -200 45 -200 45 -200 45
2608604317.3862 -2.6492758 4.1386604 -200 45 -200 45 -200 45
2609604434.0723 -2.6468506 4.1332679 -200 45 -200 45 -200 45
2610604550.7585 -2.6489134 4.131464 -200 45 -200 45 -200 45
2611604667.4446 -2.6531737 4.1389666 -200 45 -200 45 -200 45
2612604784.1307 -2.6544428 4.1456704 -200 45 -200 45 -200 45
2613604900.8168 -2.6607442 4.1472797 -200 45 -200 45 -200 45
2614605017.5029 -2.6559331 4.1446843 -200 45 -200 45 -200 45
2615605134.189 -2.6525841 4.1247349 -200 45 -200 45 -200 45
2616605250.8751 -2.6506219 4.1252398 -200 45 -200 45 -200 45
2617605367.5613 -2.6522269 4.1287637 -200 45 -200 45 -200 45
2618605484.2474 -2.6545105 4.1332631 -200 45 -200 45 -200 45
2619605600.9335 -2.6536207 4.1236739 -200 45 -200 45 -200 45
2620605717.6196 -2.6609793 4.1273627 -200 45 -200 45 -200 45
2621605834.3057 -2.6636212 4.147018 -200 45 -200 45 -200 45
2622605950.9918 -2.6688054 4.1544523 -200 45 -200 45 -200 45
2623606067.6779 -2.6695228 4.1477628 -200 45 -200 45 -200 45
2624606184.3641 -2.6664648 4.1343846 -200 45 -200 45 -200 45
2625606301.0502 -2.6641695 4.1278534 -200 45 -200 45 -200 45
2626606417.7363 -2.6662612 4.1186461 -200 45 -200 45 -200 45
2627606534.4224 -2.6702428 4.134397 -200 45 -200 45 -200 45
2628606651.1085 -2.6740336 4.1329098 -200 45 -200 45 -200 45
2629606767.7946 -2.6783273 4.1421356 -200 45 -200 45 -200 45
2630606884.4807 -2.675432 4.1154513 -200 45 -200 45 -200 45
2631607001.1669 -2.6713953 4.1113534 -200 45 -200 45 -200 45
2632607117.853 -2.6686187 4.104794 -200 45 -200 45 -200 45
2633607234.5391 -2.6708655 4.1002908 -200 45 -200 45 -200 45
2634607351.2252 -2.6776323 4.0955091 -200 45 -200 45 -200 45
2635607467.9113 -2.6775553 4.0893354 -200 45 -200 45 -200 45
2636607584.5974 -2.6853042 4.1084232 -200 45 -200 45 -200 45
2637607701.2835 -2.6898046 4.1089597 -200 45 -200 45 -200 45
2638607817.9697 -2.69891 4.1157084 -200 45 -200 45 -200 45
2639607934.6558 -2.6998219 4.1051126 -200 45 -200 45 -200 45
2640608051.3419 -2.7042956 4.0944471 -200 45 -200 45 -200 45
2641608168.028 -2.7078996 4.1061378 -200 45 -200 45 -200 45
2642608284.7141 -2.7134879 4.1412563 -200 45 -200 45 -200 45
2643608401.4002 -2.724319 4.1961923 -200 45 -200 45 -200 45
2644608518.0863 -2.7287436 4.2682409 -200 45 -200 45 -200 45
2645608634.7725 -2.7313883 4.3536263 -200 45 -200 45 -200 45
2646608751.4586 -2.7210217 4.3687763 -200 45 -200 45 -200 45
2647608868.1447 -2.7092171 4.3928852 -200 45 -200 45 -200 45
2648608984.8308 -2.6978188 4.3948488 -200 45 -200 45 -200 45
2649609101.5169 -2.6952751 4.3961515 -200 45 -200 45 -200 45
2650609218.203 -2.6969767 4.3914552 -200 45 -200 45 -200 45
2651609334.8891 -2.6914277 4.3700905 -200 45 -200 45 -200 45
2652609451.5753 -2.6963909 4.3759103 -200 45 -200 45 -200 45
2653609568.2614 -2.696166 4.3579774 -200 45 -200 45 -200 45
2654609684.9475 -2.7015834 4.3854389 -200 45 -200 45 -200 45
2655609801.6336 -2.6981544 4.3679848 -200 45 -200 45 -200 45
2656609918.3197 -2.6967719 4.368094 -200 45 -200 45 -200 45
2657610035.0058 -2.6965508 4.3459668 -200 45 -200 45 -200 45
2658610151.6919 -2.6955206 4.3454771 -200 45 -200 45 -200 45
2659610268.3781 -2.7008443 4.3531699 -200 45 -200 45 -200 45
2660610385.0642 -2.7009571 4.3625898 -200 45 -200 45 -200 45
2661610501.7503 -2.7060881 4.3871431 -200 45 -200 45 -200 45
2662610618.4364 -2.6995337 4.3722606 -200 45 -200 45 -200 45
2663610735.1225 -2.6954205 4.3591714 -200 45 -200 45 -200 45
2664610851.8086 -2.6894405 4.3506413 -200 45 -200 45 -200 45
2665610968.4947 -2.6923394 4.3428249 -200 45 -200 45 -200 45
2666611085.1809 -2.6933568 4.3462067 -200 45 -200 45 -200 45
2667611201.867 -2.6943142 4.3253708 -200 45 -200 45 -200 45
2668611318.5531 -2.6977956 4.3373332 -200 45 -200 45 -200 45
2669611435.2392 -2.6985466 4.344265 -200 45 -200 45 -200 45
2670611551.9253 -2.7052701 4.3583775 -200 45 -200 45 -200 45
2671611668.6114 -2.7031147 4.3444905 -200 45 -200 45 -200 45
2672611785.2975 -2.7028749 4.3135643 -200 45 -200 45 -200 45
2673611901.9837 -2.6990092 4.3049169 -200 45 -200 45 -200 45
2674612018.6698 -2.7004819 4.3072839 -200 45 -200 45 -200 45
2675612135.3559 -2.7064042 4.3284779 -200 45 -200 45 -200 45
2676612252.042 -2.7088785 4.3236341 -200 45 -200 45 -200 45
2677612368.7281 -2.7115173 4.3318505 -200 45 -200 45 -200 45
2678612485.4142 -2.7075436 4.319962 -200 45 -200 45 -200 45
2679612602.1004 -2.7037466 4.3065867 -200 45 -200 45 -200 45
2680612718.7865 -2.7018216 4.2977295 -200 45 -200 45 -200 45
2681612835.4726 -2.7035494 4.2988629 -200 45 -200 45 -200 45
2682612952.1587 -2.7065606 4.3005223 -200 45 -200 45 -200 45
2683613068.8448 -2.706145 4.2920213 -200 45 -200 45 -200 45
2684613185.5309 -2.7128921 4.3026195 -200 45 -200 45 -200 45
2685613302.217 -2.7155993 4.319313 -200 45 -200 45 -200 45
2686613418.9032 -2.7207122 4.3309298 -200 45 -200 45 -200 45
2687613535.5893 -2.7214684 4.3045492 -200 45 -200 45 -200 45
2688613652.2754 -2.7188253 4.2970142 -200 45 -200 45 -200 45
2689613768.9615 -2.7165554 4.2929592 -200 45 -200 45 -200 45
2690613885.6476 -2.7182667 4.285974 -200 45 -200 45 -200 45
2691614002.3337 -2.723717 4.309926 -200 45 -200 45 -200 45
2692614119.0198 -2.7260799 4.2965436 -200 45 -200 45 -200 45
2693614235.706 -2.7296576 4.3251753 -200 45 -200 45 -200 45
2694614352.3921 -2.7252328 4.2910714 -200 45 -200 45 -200 45
2695614469.0782 -2.7220883 4.2901502 -200 45 -200 45 -200 45
2696614585.7643 -2.7191575 4.2877192 -200 45 -200 45 -200 45
2697614702.4504 -2.7220821 4.2787085 -200 45 -200 45 -200 45
2698614819.1365 -2.7232139 4.2748389 -200 45 -200 45 -200 45
2699614935.8226 -2.724972 4.2862673 -200 45 -200 45 -200 45
2700615052.5088 -2.7316728 4.2985492 -200 45 -200 45 -200 45
2701615169.1949 -2.7327373 4.3083019 -200 45 -200 45 -200 45
2702615285.881 -2.7397034 4.3210597 -200 45 -200 45 -200 45
2703615402.5671 -2.7372231 4.309247 -200 45 -200 45 -200 45
2704615519.2532 -2.7361643 4.2937789 -200 45 -200 45 -200 45
2705615635.9393 -2.7344742 4.2913351 -200 45 -200 45 -200 45
2706615752.6254 -2.7378709 4.2858777 -200 45 -200 45 -200 45
2707615869.3116 -2.7411001 4.290524 -200 45 -200 45 -200 45
2708615985.9977 -2.7432189 4.2918363 -200 45 -200 45 -200 45
2709616102.6838 -2.7471757 4.2983704 -200 45 -200 45 -200 45
2710616219.3699 -2.7434096 4.2824526 -200 45 -200 45 -200 45
2711616336.056 -2.7406058 4.275661 -200 45 -200 45 -200 45
2712616452.7421 -2.7367299 4.260776 -200 45 -200 45 -200 45
2713616569.4282 -2.7404091 4.2684779 -200 45 -200 45 -200 45
2714616686.1144 -2.7428863 4.2693958 -200 45 -200 45 -200 45
2715616802.8005 -2.7452562 4.255415 -200 45 -200 45 -200 45
2716616919.4866 -2.7515762 4.2722955 -200 45 -200 45 -200 45
2717617036.1727 -2.7527807 4.2780428 -200 45 -200 45 -200 45
2718617152.8588 -2.7589254 4.2769432 -200 45 -200 45 -200 45
2719617269.5449 -2.7590973 4.2553682 -200 45 -200 45 -200 45
2720617386.231 -2.7577915 4.2440019 -200 45 -200 45 -200 45
2721617502.9172 -2.7567933 4.2400794 -200 45 -200 45 -200 45
2722617619.6033 -2.7589064 4.2439528 -200 45 -200 45 -200 45
2723617736.2894 -2.7651367 4.24721 -200 45 -200 45 -200 45
2724617852.9755 -2.770056 4.2344003 -200 45 -200 45 -200 45
2725617969.6616 -2.7730019 4.2618284 -200 45 -200 45 -200 45
2726618086.3477 -2.7680857 4.2234936 -200 45 -200 45 -200 45
2727618203.0338 -2.7690597 4.2108011 -200 45 -200 45 -200 45
2728618319.72 -2.7684019 4.1950197 -200 45 -200 45 -200 45
2729618436.4061 -2.7733088 4.1965628 -200 45 -200 45 -200 45
2730618553.0922 -2.7771878 4.181108 -200 45 -200 45 -200 45
2731618669.7783 -2.779114 4.1789298 -200 45 -200 45 -200 45
2732618786.4644 -2.7907572 4.1930594 -200 45 -200 45 -200 45
2733618903.1505 -2.7959883 4.1957674 -200 45 -200 45 -200 45
2734619019.8366 -2.8073437 4.2032561 -200 45 -200 45 -200 45
2735619136.5228 -2.8113744 4.1769896 -200 45 -200 45 -200 45
2736619253.2089 -2.8202357 4.1818972 -200 45 -200 45 -200 45
2737619369.895 -2.8243964 4.1884103 -200 45 -200 45 -200 45
2738619486.5811 -2.8369749 4.2297912 -200 45 -200 45 -200 45
2739619603.2672 -2.8520992 4.3083858 -200 45 -200 45 -200 45
2740619719.9533 -2.860718 4.4071922 -200 45 -200 45 -200 45
2741619836.6394 -2.8671141 4.5297141 -200 45 -200 45 -200 45
2742619953.3256 -2.8567812 4.6298509 -200 45 -200 45 -200 45
2743620070.0117 -2.8431678 4.7298265 -200 45 -200 45 -200 45
2744620186.6978 -2.8260911 4.772347 -200 45 -200 45 -200 45
2745620303.3839 -2.8147669 4.7979798 -200 45 -200 45 -200 45
2746620420.07 -2.8059289 4.7817316 -200 45 -200 45 -200 45
2747620536.7561 -2.7964461 4.7589474 -200 45 -200 45 -200 45
2748620653.4422 -2.7973151 4.7517891 -200 45 -200 45 -200 45
2749620770.1284 -2.7948959 4.7293048 -200 45 -200 45 -200 45
2750620886.8145 -2.7979472 4.7123399 -200 45 -200 45 -200 45
2751621003.5006 -2.7923176 4.6790376 -200 45 -200 45 -200 45
2752621120.1867 -2.7912591 4.6574626 -200 45 -200 45 -200 45
2753621236.8728 -2.7868288 4.633347 -200 45 -200 45 -200 45
2754621353.5589 -2.788373 4.620204 -200 45 -200 45 -200 45
2755621470.245 -2.7927697 4.6127849 -200 45 -200 45 -200 45
2756621586.9312 -2.7952399 4.6228328 -200 45 -200 45 -200 45
2757621703.6173 -2.7969751 4.616168 -200 45 -200 45 -200 45
2758621820.3034 -2.793205 4.5818911 -200 45 -200 45 -200 45
2759621936.9895 -2.7894282 4.5679889 -200 45 -200 45 -200 45
2760622053.6756 -2.7901959 4.5614738 -200 45 -200 45 -200 45
2761622170.3617 -2.7940137 4.5610676 -200 45 -200 45 -200 45
2762622287.0478 -2.794961 4.5744348 -200 45 -200 45 -200 45
2763622403.734 -2.79705 4.5774894 -200 45 -200 45 -200 45
2764622520.4201 -2.802197 4.5861096 -200 45 -200 45 -200 45
2765622637.1062 -2.8027868 4.6063161 -200 45 -200 45 -200 45
2766622753.7923 -2.8073657 4.6010008 -200 45 -200 45 -200 45
2767622870.4784 -2.8032398 4.590219 -200 45 -200 45 -200 45
2768622987.1645 -2.80144 4.5761585 -200 45 -200 45 -200 45
2769623103.8506 -2.7972116 4.587739 -200 45 -200 45 -200 45
2770623220.5368 -2.8005447 4.5806961 -200 45 -200 45 -200 45
2771623337.2229 -2.8034379 4.5712123 -200 45 -200 45 -200 45
2772623453.909 -2.8069723 4.5791488 -200 45 -200 45 -200 45
2773623570.5951 -2.8088624 4.5744987 -200 45 -200 45 -200 45
2774623687.2812 -2.8004327 4.5469418 -200 45 -200 45 -200 45
2775623803.9673 -2.7993062 4.5234604 -200 45 -200 45 -200 45
2776623920.6534 -2.7953513 4.5100985 -200 45 -200 45 -200 45
2777624037.3396 -2.8005776 4.4957018 -200 45 -200 45 -200 45
2778624154.0257 -2.8012753 4.490119 -200 45 -200 45 -200 45
2779624270.7118 -2.8042381 4.4918499 -200 45 -200 45 -200 45
2780624387.3979 -2.8097186 4.4795566 -200 45 -200 45 -200 45
2781624504.084 -2.8135984 4.4849176 -200 45 -200 45 -200 45
2782624620.7701 -2.8188355 4.488493 -200 45 -200 45 -200 45
2783624737.4562 -2.8184516 4.4682856 -200 45 -200 45 -200 45
2784624854.1424 -2.8177657 4.4646273 -200 45 -200 45 -200 45
2785624970.8285 -2.8139987 4.4349647 -200 45 -200 45 -200 45
2786625087.5146 -2.8183413 4.4466 -200 45 -200 45 -200 45
2787625204.2007 -2.823597 4.4439983 -200 45 -200 45 -200 45
2788625320.8868 -2.8288963 4.4496479 -200 45 -200 45 -200 45
2789625437.5729 -2.8294404 4.4385619 -200 45 -200 45 -200 45
2790625554.259 -2.822906 4.4032464 -200 45 -200 45 -200 45
2791625670.9452 -2.8238206 4.4049139 -200 45 -200 45 -200 45
2792625787.6313 -2.8206239 4.3904576 -200 45 -200 45 -200 45
2793625904.3174 -2.8262663 4.3779731 -200 45 -200 45 -200 45
2794626021.0035 -2.8273005 4.3732162 -200 45 -200 45 -200 45
2795626137.6896 -2.8327327 4.3726006 -200 45 -200 45 -200 45
2796626254.3757 -2.8393989 4.368156 -200 45 -200 45 -200 45
2797626371.0618 -2.841058 4.3719373 -200 45 -200 45 -200 45
2798626487.748 -2.8456924 4.376987 -200 45 -200 45 -200 45
2799626604.4341 -2.845181 4.3429708 -200 45 -200 45 -200 45
2800626721.1202 -2.8447926 4.3357301 -200 45 -200 45 -200 45
2801626837.8063 -2.8449552 4.3169599 -200 45 -200 45 -200 45
2802626954.4924 -2.8484077 4.3108034 -200 45 -200 45 -200 45
2803627071.1785 -2.8523076 4.316977 -200 45 -200 45 -200 45
2804627187.8646 -2.8580554 4.3051724 -200 45 -200 45 -200 45
2805627304.5508 -2.8580134 4.3117619 -200 45 -200 45 -200 45
2806627421.2369 -2.8534234 4.2730041 -200 45 -200 45 -200 45
2807627537.923 -2.8559518 4.2483969 -200 45 -200 45 -200 45
2808627654.6091 -2.8539557 4.2213244 -200 45 -200 45 -200 45
2809627771.2952 -2.8601279 4.2248831 -200 45 -200 45 -200 45
2810627887.9813 -2.8612287 4.2055068 -200 45 -200 45 -200 45
2811628004.6674 -2.8652897 4.2018647 -200 45 -200 45 -200 45
2812628121.3536 -2.8720746 4.2021108 -200 45 -200 45 -200 45
2813628238.0397 -2.8786016 4.1832457 -200 45 -200 45 -200 45
2814628354.7258 -2.8832078 4.1837196 -200 45 -200 45 -200 45
2815628471.4119 -2.8809121 4.1585574 -200 45 -200 45 -200 45
2816628588.098 -2.8829598 4.1319103 -200 45 -200 45 -200 45
2817628704.7841 -2.8812776 4.1019526 -200 45 -200 45 -200 45
2818628821.4702 -2.8878777 4.0909348 -200 45 -200 45 -200 45
2819628938.1564 -2.893235 4.0816736 -200 45 -200 45 -200 45
2820629054.8425 -2.8996201 4.074728 -200 45 -200 45 -200 45
2821629171.5286 -2.9034054 4.0568852 -200 45 -200 45 -200 45
2822629288.2147 -2.8993371 4.0101209 -200 45 -200 45 -200 45
2823629404.9008 -2.9009936 3.9875076 -200 45 -200 45 -200 45
2824629521.5869 -2.9006083 3.9573178 -200 45 -200 45 -200 45
2825629638.273 -2.9101384 3.9251304 -200 45 -200 45 -200 45
2826629754.9592 -2.9109273 3.9116285 -200 45 -200 45 -200 45
2827629871.6453 -2.9179595 3.8704381 -200 45 -200 45 -200 45
2828629988.3314 -2.9273341 3.8570702 -200 45 -200 45 -200 45
2829630105.0175 -2.9334233 3.84216 -200 45 -200 45 -200 45
2830630221.7036 -2.9411314 3.8106313 -200 45 -200 45 -200 45
2831630338.3897 -2.9448893 3.7665818 -200 45 -200 45 -200 45
2832630455.0758 -2.9502056 3.7398219 -200 45 -200 45 -200 45
2833630571.762 -2.9505682 3.6939683 -200 45 -200 45 -200 45
2834630688.4481 -2.9608746 3.6572931 -200 45 -200 45 -200 45
2835630805.1342 -2.9696412 3.6403606 -200 45 -200 45 -200 45
2836630921.8203 -2.9784021 3.61637 -200 45 -200 45 -200 45
2837631038.5064 -2.985898 3.5696068 -200 45 -200 45 -200 45
2838631155.1925 -2.9869556 3.5079303 -200 45 -200 45 -200 45
2839631271.8786 -2.9922824 3.4489238 -200 45 -200 45 -200 45
2840631388.5648 -2.9992013 3.3883193 -200 45 -200 45 -200 45
2841631505.2509 -3.0125866 3.3379087 -200 45 -200 45 -200 45
2842631621.937 -3.0206311 3.2709708 -200 45 -200 45 -200 45
2843631738.6231 -3.0366509 3.2074583 -200 45 -200 45 -200 45
2844631855.3092 -3.053767 3.1622567 -200 45 -200 45 -200 45
2845631971.9953 -3.068922 3.100709 -200 45 -200 45 -200 45
2846632088.6814 -3.0850449 3.0264904 -200 45 -200 45 -200 45
2847632205.3676 -3.0999606 2.9273503 -200 45 -200 45 -200 45
2848632322.0537 -3.1198292 2.837254 -200 45 -200 45 -200 45
2849632438.7398 -3.1372759 2.746582 -200 45 -200 45 -200 45
2850632555.4259 -3.1658988 2.6610036 -200 45 -200 45 -200 45
2851632672.112 -3.196789 2.5761766 -200 45 -200 45 -200 45
2852632788.7981 -3.2310615 2.4934285 -200 45 -200 45 -200 45
2853632905.4842 -3.263634 2.4003518 -200 45 -200 45 -200 45
2854633022.1704 -3.2989726 2.2852378 -200 45 -200 45 -200 45
2855633138.8565 -3.3429642 2.185272 -200 45 -200 45 -200 45
2856633255.5426 -3.3965569 2.0976963 -200 45 -200 45 -200 45
2857633372.2287 -3.4615705 2.0508671 -200 45 -200 45 -200 45
2858633488.9148 -3.5342398 2.0245299 -200 45 -200 45 -200 45
2859633605.6009 -3.6247013 2.0741954 -200 45 -200 45 -200 45
2860633722.287 -3.7279348 2.2263007 -200 45 -200 45 -200 45
2861633838.9732 -3.8359241 2.484297 -200 45 -200 45 -200 45
2862633955.6593 -3.9516933 2.9212191 -200 45 -200 45 -200 45
2863634072.3454 -4.0628996 3.5574954 -200 45 -200 45 -200 45
2864634189.0315 -4.1587868 4.4884253 -200 45 -200 45 -200 45
2865634305.7176 -4.2225556 5.6230445 -200 45 -200 45 -200 45
2866634422.4037 -4.2377434 6.9144731 -200 45 -200 45 -200 45
2867634539.0898 -4.1997519 8.1790619 -200 45 -200 45 -200 45
2868634655.776 -4.1171932 9.2964001 -200 45 -200 45 -200 45
2869634772.4621 -3.9984865 10.171959 -200 45 -200 45 -200 45
2870634889.1482 -3.8635437 10.744454 -200 45 -200 45 -200 45
2871635005.8343 -3.7325947 11.136029 -200 45 -200 45 -200 45
2872635122.5204 -3.6055322 11.390554 -200 45 -200 45 -200 45
2873635239.2065 -3.4871025 11.517644 -200 45 -200 45 -200 45
2874635355.8926 -3.365999 11.488748 -200 45 -200 45 -200 45
2875635472.5788 -3.2580185 11.309373 -200 45 -200 45 -200 45
2876635589.2649 -3.175771 10.988008 -200 45 -200 45 -200 45
2877635705.951 -3.1135261 10.610465 -200 45 -200 45 -200 45
2878635822.6371 -3.0736449 10.239644 -200 45 -200 45 -200 45
2879635939.3232 -3.0449355 9.8700514 -200 45 -200 45 -200 45
2880636056.0093 -3.0300002 9.5945749 -200 45 -200 45 -200 45
2881636172.6954 -3.0241036 9.3587055 -200 45 -200 45 -200 45
2882636289.3816 -3.0249054 9.2062864 -200 45 -200 45 -200 45
2883636406.0677 -3.0279322 9.087923 -200 45 -200 45 -200 45
2884636522.7538 -3.0293643 9.0281525 -200 45 -200 45 -200 45
2885636639.4399 -3.0279596 8.975956 -200 45 -200 45 -200 45
2886636756.126 -3.0165327 8.9209166 -200 45 -200 45 -200 45
2887636872.8121 -3.0100167 8.9159374 -200 45 -200 45 -200 45
2888636989.4983 -2.9955642 8.9030008 -200 45 -200 45 -200 45
2889637106.1844 -2.9907978 8.9029369 -200 45 -200 45 -200 45
2890637222.8705 -2.9797895 8.8478689 -200 45 -200 45 -200 45
2891637339.5566 -2.9750752 8.8469954 -200 45 -200 45 -200 45
2892637456.2427 -2.9695468 8.8267441 -200 45 -200 45 -200 45
2893637572.9288 -2.9672072 8.8066921 -200 45 -200 45 -200 45
2894637689.6149 -2.9675276 8.8044548 -200 45 -200 45 -200 45
2895637806.3011 -2.9585319 8.8297987 -200 45 -200 45 -200 45
2896637922.9872 -2.9493091 8.9227591 -200 45 -200 45 -200 45
2897638039.6733 -2.9294863 9.0102606 -200 45 -200 45 -200 45
2898638156.3594 -2.9032731 9.0884142 -200 45 -200 45 -200 45
2899638273.0455 -2.8733759 9.0744066 -200 45 -200 45 -200 45
2900638389.7316 -2.8422129 9.0280991 -200 45 -200 45 -200 45
2901638506.4177 -2.8127718 8.8921709 -200 45 -200 45 -200 45
2902638623.1039 -2.7842374 8.7311163 -200 45 -200 45 -200 45
2903638739.79 -2.7687213 8.5755615 -200 45 -200 45 -200 45
2904638856.4761 -2.7593672 8.4233885 -200 45 -200 45 -200 45
2905638973.1622 -2.7555499 8.2975092 -200 45 -200 45 -200 45
2906639089.8483 -2.749311 8.1665192 -200 45 -200 45 -200 45
2907639206.5344 -2.7513793 8.0569878 -200 45 -200 45 -200 45
2908639323.2205 -2.7534902 7.9732947 -200 45 -200 45 -200 45
2909639439.9067 -2.7587676 7.901011 -200 45 -200 45 -200 45
2910639556.5928 -2.7586 7.8089323 -200 45 -200 45 -200 45
2911639673.2789 -2.7565086 7.7080598 -200 45 -200 45 -200 45
2912639789.965 -2.7583337 7.6394405 -200 45 -200 45 -200 45
2913639906.6511 -2.7575126 7.5728955 -200 45 -200 45 -200 45
2914640023.3372 -2.7611446 7.519578 -200 45 -200 45 -200 45
2915640140.0233 -2.7656846 7.475244 -200 45 -200 45 -200 45
2916640256.7095 -2.770932 7.4420872 -200 45 -200 45 -200 45
2917640373.3956 -2.7687354 7.3816886 -200 45 -200 45 -200 45
2918640490.0817 -2.7652311 7.3263121 -200 45 -200 45 -200 45
2919640606.7678 -2.7631049 7.2719631 -200 45 -200 45 -200 45
2920640723.4539 -2.7650814 7.2533808 -200 45 -200 45 -200 45
2921640840.14 -2.7714856 7.1935973 -200 45 -200 45 -200 45
2922640956.8261 -2.7703469 7.1472092 -200 45 -200 45 -200 45
2923641073.5123 -2.7772098 7.1287642 -200 45 -200 45 -200 45
2924641190.1984 -2.7818146 7.107018 -200 45 -200 45 -200 45
2925641306.8845 -2.7858596 7.0931215 -200 45 -200 45 -200 45
2926641423.5706 -2.7887385 7.0620227 -200 45 -200 45 -200 45
2927641540.2567 -2.7872624 7.0033293 -200 45 -200 45 -200 45
2928641656.9428 -2.7888434 6.9845104 -200 45 -200 45 -200 45
2929641773.6289 -2.7891912 6.9587531 -200 45 -200 45 -200 45
2930641890.3151 -2.7943733 6.95467 -200 45 -200 45 -200 45
2931642007.0012 -2.7959888 6.924902 -200 45 -200 45 -200 45
2932642123.6873 -2.8016572 6.9261436 -200 45 -200 45 -200 45
2933642240.3734 -2.8015189 6.8837118 -200 45 -200 45 -200 45
2934642357.0595 -2.7972052 6.8487844 -200 45 -200 45 -200 45
2935642473.7456 -2.7975497 6.8290472 -200 45 -200 45 -200 45
2936642590.4317 -2.7979822 6.7992158 -200 45 -200 45 -200 45
2937642707.1179 -2.803081 6.7923007 -200 45 -200 45 -200 45
2938642823.804 -2.8030727 6.7741184 -200 45 -200 45 -200 45
2939642940.4901 -2.8078542 6.758882 -200 45 -200 45 -200 45
2940643057.1762 -2.8108785 6.7543054 -200 45 -200 45 -200 45
2941643173.8623 -2.8168292 6.7554197 -200 45 -200 45 -200 45
2942643290.5484 -2.8192601 6.7222733 -200 45 -200 45 -200 45
2943643407.2345 -2.8168867 6.6953387 -200 45 -200 45 -200 45
2944643523.9207 -2.817986 6.6775894 -200 45 -200 45 -200 45
2945643640.6068 -2.817323 6.6562319 -200 45 -200 45 -200 45
2946643757.2929 -2.822845 6.6563349 -200 45 -200 45 -200 45
2947643873.979 -2.8264525 6.651948 -200 45 -200 45 -200 45
2948643990.6651 -2.833751 6.6440382 -200 45 -200 45 -200 45
2949644107.3512 -2.8308918 6.6036849 -200 45 -200 45 -200 45
2950644224.0373 -2.8281291 6.5818152 -200 45 -200 45 -200 45
2951644340.7235 -2.828202 6.566308 -200 45 -200 45 -200 45
2952644457.4096 -2.8296113 6.5419312 -200 45 -200 45 -200 45
2953644574.0957 -2.8354182 6.5284462 -200 45 -200 45 -200 45
2954644690.7818 -2.8346808 6.5058007 -200 45 -200 45 -200 45
2955644807.4679 -2.8437672 6.5181851 -200 45 -200 45 -200 45
2956644924.154 -2.8504417 6.4974799 -200 45 -200 45 -200 45
2957645040.8401 -2.8600638 6.5069513 -200 45 -200 45 -200 45
2958645157.5263 -2.862417 6.4827962 -200 45 -200 45 -200 45
2959645274.2124 -2.8671176 6.4643736 -200 45 -200 45 -200 45
2960645390.8985 -2.8717854 6.4510918 -200 45 -200 45 -200 45
2961645507.5846 -2.8780744 6.4663124 -200 45 -200 45 -200 45
2962645624.2707 -2.8896115 6.4998341 -200 45 -200 45 -200 45
2963645740.9568 -2.8972881 6.5350237 -200 45 -200 45 -200 45
2964645857.6429 -2.9061925 6.5966797 -200 45 -200 45 -200 45
2965645974.3291 -2.9032347 6.6317692 -200 45 -200 45 -200 45
2966646091.0152 -2.90135 6.6728249 -200 45 -200 45 -200 45
2967646207.7013 -2.8947904 6.6955767 -200 45 -200 45 -200 45
2968646324.3874 -2.8949213 6.7312875 -200 45 -200 45 -200 45
2969646441.0735 -2.8925445 6.7905498 -200 45 -200 45 -200 45
2970646557.7596 -2.886209 6.8079453 -200 45 -200 45 -200 45
2971646674.4457 -2.8854728 6.8481932 -200 45 -200 45 -200 45
2972646791.1319 -2.8813488 6.8526335 -200 45 -200 45 -200 45
2973646907.818 -2.8807266 6.8675628 -200 45 -200 45 -200 45
2974647024.5041 -2.8765292 6.8407907 -200 45 -200 45 -200 45
2975647141.1902 -2.869828 6.7942939 -200 45 -200 45 -200 45
2976647257.8763 -2.8656342 6.7851462 -200 45 -200 45 -200 45
2977647374.5624 -2.8666358 6.7660055 -200 45 -200 45 -200 45
2978647491.2485 -2.8679869 6.7563171 -200 45 -200 45 -200 45
2979647607.9347 -2.8702221 6.7448893 -200 45 -200 45 -200 45
2980647724.6208 -2.8752944 6.7491446 -200 45 -200 45 -200 45
2981647841.3069 -2.872148 6.7408466 -200 45 -200 45 -200 45
2982647957.993 -2.8652446 6.7168379 -200 45 -200 45 -200 45
2983648074.6791 -2.8626916 6.6986003 -200 45 -200 45 -200 45
2984648191.3652 -2.8638179 6.6910257 -200 45 -200 45 -200 45
2985648308.0513 -2.8692305 6.6896515 -200 45 -200 45 -200 45
2986648424.7375 -2.8688703 6.6875811 -200 45 -200 45 -200 45
2987648541.4236 -2.877079 6.7096419 -200 45 -200 45 -200 45
2988648658.1097 -2.8754683 6.7137976 -200 45 -200 45 -200 45
2989648774.7958 -2.8811052 6.7366529 -200 45 -200 45 -200 45
2990648891.4819 -2.8792179 6.7324724 -200 45 -200 45 -200 45
2991649008.168 -2.8728611 6.7191181 -200 45 -200 45 -200 45
2992649124.8541 -2.8683736 6.7099905 -200 45 -200 45 -200 45
2993649241.5403 -2.868932 6.6917882 -200 45 -200 45 -200 45
2994649358.2264 -2.8719342 6.6920686 -200 45 -200 45 -200 45
2995649474.9125 -2.8738489 6.6856298 -200 45 -200 45 -200 45
2996649591.5986 -2.8770535 6.6942439 -200 45 -200 45 -200 45
2997649708.2847 -2.872993 6.6586475 -200 45 -200 45 -200 45
2998649824.9708 -2.8708978 6.6502624 -200 45 -200 45 -200 45
2999649941.6569 -2.8639634 6.6207404 -200 45 -200 45 -200 45
3000650058.3431 -2.8659205 6.6249475 -200 45 -200 45 -200 45
3001650175.0292 -2.8723595 6.6117549 -200 45 -200 45 -200 45
3002650291.7153 -2.8700781 6.5850573 -200 45 -200 45 -200 45
3003650408.4014 -2.8746412 6.6052623 -200 45 -200 45 -200 45
3004650525.0875 -2.8774827 6.6177659 -200 45 -200 45 -200 45
3005650641.7736 -2.8824179 6.6134305 -200 45 -200 45 -200 45
3006650758.4597 -2.8828337 6.5789056 -200 45 -200 45 -200 45
3007650875.1459 -2.8808227 6.5768061 -200 45 -200 45 -200 45
3008650991.832 -2.8795474 6.5636477 -200 45 -200 45 -200 45
3009651108.5181 -2.8806157 6.5519252 -200 45 -200 45 -200 45
3010651225.2042 -2.8856168 6.5587463 -200 45 -200 45 -200 45
3011651341.8903 -2.8873999 6.5485735 -200 45 -200 45 -200 45
3012651458.5764 -2.8921061 6.5662189 -200 45 -200 45 -200 45
3013651575.2625 -2.8916488 6.5418172 -200 45 -200 45 -200 45
3014651691.9487 -2.8860574 6.5293946 -200 45 -200 45 -200 45
3015651808.6348 -2.8829563 6.5214796 -200 45 -200 45 -200 45
3016651925.3209 -2.886054 6.5106401 -200 45 -200 45 -200 45
3017652042.007 -2.8866501 6.5065794 -200 45 -200 45 -200 45
3018652158.6931 -2.8888516 6.4977827 -200 45 -200 45 -200 45
3019652275.3792 -2.8942037 6.5120697 -200 45 -200 45 -200 45
3020652392.0653 -2.8964231 6.5115032 -200 45 -200 45 -200 45
3021652508.7515 -2.9047961 6.5173106 -200 45 -200 45 -200 45
3022652625.4376 -2.9029367 6.4996023 -200 45 -200 45 -200 45
3023652742.1237 -2.9005978 6.4842005 -200 45 -200 45 -200 45
3024652858.8098 -2.9005139 6.4666138 -200 45 -200 45 -200 45
3025652975.4959 -2.9022558 6.4615564 -200 45 -200 45 -200 45
3026653092.182 -2.9072032 6.4755063 -200 45 -200 45 -200 45
3027653208.8681 -2.9103787 6.465064 -200 45 -200 45 -200 45
3028653325.5543 -2.9147382 6.4781265 -200 45 -200 45 -200 45
3029653442.2404 -2.9111843 6.4550767 -200 45 -200 45 -200 45
3030653558.9265 -2.9086888 6.4546652 -200 45 -200 45 -200 45
3031653675.6126 -2.9049897 6.4244504 -200 45 -200 45 -200 45
3032653792.2987 -2.9073396 6.4245219 -200 45 -200 45 -200 45
3033653908.9848 -2.9115446 6.4198556 -200 45 -200 45 -200 45
3034654025.6709 -2.9103868 6.422215 -200 45 -200 45 -200 45
3035654142.3571 -2.9174435 6.4296951 -200 45 -200 45 -200 45
3036654259.0432 -2.919801 6.4215856 -200 45 -200 45 -200 45
3037654375.7293 -2.9257853 6.426971 -200 45 -200 45 -200 45
3038654492.4154 -2.9242187 6.4018207 -200 45 -200 45 -200 45
3039654609.1015 -2.9271827 6.3942451 -200 45 -200 45 -200 45
3040654725.7876 -2.9222584 6.3798327 -200 45 -200 45 -200 45
3041654842.4737 -2.9248104 6.3710394 -200 45 -200 45 -200 45
3042654959.1599 -2.9307756 6.3771539 -200 45 -200 45 -200 45
3043655075.846 -2.9345546 6.3786855 -200 45 -200 45 -200 45
3044655192.5321 -2.9390051 6.3910913 -200 45 -200 45 -200 45
3045655309.2182 -2.9341538 6.3555536 -200 45 -200 45 -200 45
3046655425.9043 -2.9315357 6.3536868 -200 45 -200 45 -200 45
3047655542.5904 -2.9304473 6.3299994 -200 45 -200 45 -200 45
3048655659.2765 -2.9323614 6.3216834 -200 45 -200 45 -200 45
3049655775.9627 -2.9371526 6.3317308 -200 45 -200 45 -200 45
3050655892.6488 -2.9383609 6.316875 -200 45 -200 45 -200 45
3051656009.3349 -2.9466288 6.3193994 -200 45 -200 45 -200 45
3052656126.021 -2.946595 6.3103833 -200 45 -200 45 -200 45
3053656242.7071 -2.9537885 6.3082557 -200 45 -200 45 -200 45
3054656359.3932 -2.9530082 6.3050337 -200 45 -200 45 -200 45
3055656476.0793 -2.9522183 6.2856336 -200 45 -200 45 -200 45
3056656592.7655 -2.9517689 6.2746096 -200 45 -200 45 -200 45
3057656709.4516 -2.9552462 6.2597141 -200 45 -200 45 -200 45
3058656826.1377 -2.9604747 6.2652607 -200 45 -200 45 -200 45
3059656942.8238 -2.9642444 6.255218 -200 45 -200 45 -200 45
3060657059.5099 -2.9677291 6.2494569 -200 45 -200 45 -200 45
3061657176.196 -2.9638755 6.2301264 -200 45 -200 45 -200 45
3062657292.8821 -2.9640467 6.2154307 -200 45 -200 45 -200 45
3063657409.5683 -2.9612257 6.1947966 -200 45 -200 45 -200 45
3064657526.2544 -2.963141 6.1835985 -200 45 -200 45 -200 45
3065657642.9405 -2.9683931 6.1764607 -200 45 -200 45 -200 45
3066657759.6266 -2.9704783 6.156364 -200 45 -200 45 -200 45
3067657876.3127 -2.9790576 6.1775174 -200 45 -200 45 -200 45
3068657992.9988 -2.9810143 6.1593671 -200 45 -200 45 -200 45
3069658109.6849 -2.9874325 6.1578112 -200 45 -200 45 -200 45
3070658226.3711 -2.9871092 6.1150947 -200 45 -200 45 -200 45
3071658343.0572 -2.9883561 6.100091 -200 45 -200 45 -200 45
3072658459.7433 -2.9880726 6.0799737 -200 45 -200 45 -200 45
3073658576.4294 -2.9913766 6.066854 -200 45 -200 45 -200 45
3074658693.1155 -2.9981759 6.0611515 -200 45 -200 45 -200 45
3075658809.8016 -3.0034788 6.0476022 -200 45 -200 45 -200 45
3076658926.4877 -3.0088634 6.0313802 -200 45 -200 45 -200 45
3077659043.1739 -3.0068109 5.9908438 -200 45 -200 45 -200 45
3078659159.86 -3.0072682 5.9710593 -200 45 -200 45 -200 45
3079659276.5461 -3.0089531 5.9387288 -200 45 -200 45 -200 45
3080659393.2322 -3.0158293 5.9166875 -200 45 -200 45 -200 45
3081659509.9183 -3.021915 5.9023547 -200 45 -200 45 -200 45
3082659626.6044 -3.0235338 5.8919454 -200 45 -200 45 -200 45
3083659743.2905 -3.0309417 5.8725266 -200 45 -200 45 -200 45
3084659859.9767 -3.0404074 5.8654141 -200 45 -200 45 -200 45
3085659976.6628 -3.0485876 5.8353715 -200 45 -200 45 -200 45
3086660093.3489 -3.0523114 5.7836776 -200 45 -200 45 -200 45
3087660210.035 -3.0547845 5.7603621 -200 45 -200 45 -200 45
3088660326.7211 -3.0574367 5.7115698 -200 45 -200 45 -200 45
3089660443.4072 -3.0664222 5.6807642 -200 45 -200 45 -200 45
3090660560.0933 -3.0795603 5.6717763 -200 45 -200 45 -200 45
3091660676.7795 -3.0881145 5.6274076 -200 45 -200 45 -200 45
3092660793.4656 -3.0984113 5.5962524 -200 45 -200 45 -200 45
3093660910.1517 -3.0997384 5.5401516 -200 45 -200 45 -200 45
3094661026.8378 -3.1083643 5.4792795 -200 45 -200 45 -200 45
3095661143.5239 -3.1167374 5.4193239 -200 45 -200 45 -200 45
3096661260.21 -3.1328466 5.3686562 -200 45 -200 45 -200 45
3097661376.8961 -3.1444168 5.3296123 -200 45 -200 45 -200 45
3098661493.5823 -3.1634908 5.2661071 -200 45 -200 45 -200 45
3099661610.2684 -3.1831312 5.2329283 -200 45 -200 45 -200 45
3100661726.9545 -3.2060885 5.1986856 -200 45 -200 45 -200 45
3101661843.6406 -3.2302091 5.1562667 -200 45 -200 45 -200 45
3102661960.3267 -3.2491567 5.094348 -200 45 -200 45 -200 45
3103662077.0128 -3.2751904 5.053328 -200 45 -200 45 -200 45
3104662193.6989 -3.297487 4.9942813 -200 45 -200 45 -200 45
3105662310.3851 -3.3328722 4.9410214 -200 45 -200 45 -200 45
3106662427.0712 -3.376591 4.936213 -200 45 -200 45 -200 45
3107662543.7573 -3.4178891 4.9166594 -200 45 -200 45 -200 45
3108662660.4434 -3.4676576 4.9125819 -200 45 -200 45 -200 45
3109662777.1295 -3.5205629 4.93747 -200 45 -200 45 -200 45
3110662893.8156 -3.5846751 5.0378852 -200 45 -200 45 -200 45
3111663010.5018 -3.6594594 5.2077765 -200 45 -200 45 -200 45
3112663127.1879 -3.7430601 5.5339231 -200 45 -200 45 -200 45
3113663243.874 -3.8228083 6.0466824 -200 45 -200 45 -200 45
3114663360.5601 -3.8924196 6.7822995 -200 45 -200 45 -200 45
3115663477.2462 -3.9285316 7.7024608 -200 45 -200 45 -200 45
3116663593.9323 -3.920095 8.6770668 -200 45 -200 45 -200 45
3117663710.6184 -3.8659453 9.5835943 -200 45 -200 45 -200 45
3118663827.3046 -3.7719033 10.225733 -200 45 -200 45 -200 45
3119663943.9907 -3.6663444 10.638002 -200 45 -200 45 -200 45
3120664060.6768 -3.5658998 10.819727 -200 45 -200 45 -200 45
3121664177.3629 -3.481703 10.864008 -200 45 -200 45 -200 45
3122664294.049 -3.4193404 10.841065 -200 45 -200 45 -200 45
3123664410.7351 -3.3656595 10.771017 -200 45 -200 45 -200 45
3124664527.4212 -3.3180223 10.703125 -200 45 -200 45 -200 45
3125664644.1074 -3.2727482 10.562089 -200 45 -200 45 -200 45
3126664760.7935 -3.2368586 10.444924 -200 45 -200 45 -200 45
3127664877.4796 -3.2071228 10.316148 -200 45 -200 45 -200 45
3128664994.1657 -3.1924956 10.218864 -200 45 -200 45 -200 45
3129665110.8518 -3.1767669 10.123337 -200 45 -200 45 -200 45
3130665227.5379 -3.1662238 10.047875 -200 45 -200 45 -200 45
3131665344.224 -3.159122 10.016157 -200 45 -200 45 -200 45
3132665460.9102 -3.1543286 10.006726 -200 45 -200 45 -200 45
3133665577.5963 -3.1494758 9.9957037 -200 45 -200 45 -200 45
3134665694.2824 -3.1339662 9.9924374 -200 45 -200 45 -200 45
3135665810.9685 -3.1213865 10.007427 -200 45 -200 45 -200 45
3136665927.6546 -3.1019323 10.019268 -200 45 -200 45 -200 45
3137666044.3407 -3.0858967 10.021723 -200 45 -200 45 -200 45
3138666161.0268 -3.0719335 10.027463 -200 45 -200 45 -200 45
3139666277.713 -3.0552227 10.027286 -200 45 -200 45 -200 45
3140666394.3991 -3.0349514 10.00464 -200 45 -200 45 -200 45
3141666511.0852 -3.0073292 9.9426432 -200 45 -200 45 -200 45
3142666627.7713 -2.9849329 9.8715658 -200 45 -200 45 -200 45
3143666744.4574 -2.964664 9.7678719 -200 45 -200 45 -200 45
3144666861.1435 -2.9529622 9.6856031 -200 45 -200 45 -200 45
3145666977.8296 -2.9409494 9.5685568 -200 45 -200 45 -200 45
3146667094.5158 -2.9323721 9.4588213 -200 45 -200 45 -200 45
3147667211.2019 -2.9305389 9.3604107 -200 45 -200 45 -200 45
3148667327.888 -2.9266758 9.2898579 -200 45 -200 45 -200 45
3149667444.5741 -2.9247334 9.1977711 -200 45 -200 45 -200 45
3150667561.2602 -2.9218216 9.0936251 -200 45 -200 45 -200 45
3151667677.9463 -2.9176943 9.0221405 -200 45 -200 45 -200 45
3152667794.6324 -2.9139907 8.9388819 -200 45 -200 45 -200 45
3153667911.3186 -2.9167051 8.8716803 -200 45 -200 45 -200 45
3154668028.0047 -2.9189148 8.8090487 -200 45 -200 45 -200 45
3155668144.6908 -2.92272 8.7658939 -200 45 -200 45 -200 45
3156668261.3769 -2.9226992 8.7064676 -200 45 -200 45 -200 45
3157668378.063 -2.9185321 8.6287308 -200 45 -200 45 -200 45
3158668494.7491 -2.9172153 8.5824594 -200 45 -200 45 -200 45
3159668611.4352 -2.916043 8.5355682 -200 45 -200 45 -200 45
3160668728.1214 -2.9196262 8.4978333 -200 45 -200 45 -200 45
3161668844.8075 -2.9203022 8.4537573 -200 45 -200 45 -200 45
3162668961.4936 -2.9265773 8.4163523 -200 45 -200 45 -200 45
3163669078.1797 -2.9314451 8.385807 -200 45 -200 45 -200 45
3164669194.8658 -2.9342656 8.3713989 -200 45 -200 45 -200 45
3165669311.5519 -2.939548 8.3439722 -200 45 -200 45 -200 45
3166669428.238 -2.9394727 8.2861261 -200 45 -200 45 -200 45
3167669544.9242 -2.9421527 8.26719 -200 45 -200 45 -200 45
3168669661.6103 -2.9393754 8.2151518 -200 45 -200 45 -200 45
3169669778.2964 -2.9442401 8.1988468 -200 45 -200 45 -200 45
3170669894.9825 -2.9477024 8.2020149 -200 45 -200 45 -200 45
3171670011.6686 -2.9547405 8.1806812 -200 45 -200 45 -200 45
3172670128.3547 -2.9556122 8.151556 -200 45 -200 45 -200 45
3173670245.0408 -2.9527752 8.1173429 -200 45 -200 45 -200 45
3174670361.727 -2.9513044 8.0754547 -200 45 -200 45 -200 45
3175670478.4131 -2.9497435 8.0527 -200 45 -200 45 -200 45
3176670595.0992 -2.9552579 8.0376081 -200 45 -200 45 -200 45
3177670711.7853 -2.9589841 8.0147371 -200 45 -200 45 -200 45
3178670828.4714 -2.9641008 8.0012856 -200 45 -200 45 -200 45
3179670945.1575 -2.9716349 7.9793901 -200 45 -200 45 -200 45
3180671061.8436 -2.9759514 7.9578314 -200 45 -200 45 -200 45
3181671178.5298 -2.9814487 7.9423594 -200 45 -200 45 -200 45
3182671295.2159 -2.9862363 7.912251 -200 45 -200 45 -200 45
3183671411.902 -2.9899325 7.8880534 -200 45 -200 45 -200 45
3184671528.5881 -2.9934137 7.8693862 -200 45 -200 45 -200 45
3185671645.2742 -3.0033019 7.8712835 -200 45 -200 45 -200 45
3186671761.9603 -3.0150981 7.8765974 -200 45 -200 45 -200 45
3187671878.6464 -3.0280845 7.9041872 -200 45 -200 45 -200 45
3188671995.3326 -3.0327735 7.9598784 -200 45 -200 45 -200 45
3189672112.0187 -3.0345547 7.9896107 -200 45 -200 45 -200 45
3190672228.7048 -3.0347533 8.0494604 -200 45 -200 45 -200 45
3191672345.3909 -3.0326605 8.0972939 -200 45 -200 45 -200 45
3192672462.077 -3.0313509 8.1670227 -200 45 -200 45 -200 45
3193672578.7631 -3.0219374 8.1887493 -200 45 -200 45 -200 45
3194672695.4492 -3.0203454 8.2283697 -200 45 -200 45 -200 45
3195672812.1354 -3.0166764 8.2470722 -200 45 -200 45 -200 45
3196672928.8215 -3.0127063 8.2419348 -200 45 -200 45 -200 45
3197673045.5076 -3.0118732 8.2272205 -200 45 -200 45 -200 45
3198673162.1937 -3.0060542 8.1725378 -200 45 -200 45 -200 45
3199673278.8798 -3.0023658 8.1588449 -200 45 -200 45 -200 45
3200673395.5659 -2.9997389 8.1418037 -200 45 -200 45 -200 45
3201673512.252 -3.0025334 8.1207561 -200 45 -200 45 -200 45
3202673628.9382 -3.0075026 8.1149416 -200 45 -200 45 -200 45
3203673745.6243 -3.0101461 8.1185093 -200 45 -200 45 -200 45
3204673862.3104 -3.0095866 8.1039696 -200 45 -200 45 -200 45
3205673978.9965 -3.0022993 8.0790377 -200 45 -200 45 -200 45
3206674095.6826 -3.0016043 8.0750656 -200 45 -200 45 -200 45
3207674212.3687 -3.0000043 8.059598 -200 45 -200 45 -200 45
3208674329.0548 -3.0033138 8.0531979 -200 45 -200 45 -200 45
3209674445.741 -3.0010748 8.0469475 -200 45 -200 45 -200 45
3210674562.4271 -3.0049055 8.0438938 -200 45 -200 45 -200 45
3211674679.1132 -3.0068777 8.0510435 -200 45 -200 45 -200 45
3212674795.7993 -3.0077126 8.060627 -200 45 -200 45 -200 45
3213674912.4854 -3.0101576 8.0505877 -200 45 -200 45 -200 45
3214675029.1715 -3.0045068 7.9989285 -200 45 -200 45 -200 45
3215675145.8576 -3.0043538 7.9856677 -200 45 -200 45 -200 45
3216675262.5438 -3.0033767 7.958848 -200 45 -200 45 -200 45
3217675379.2299 -3.0065207 7.9479222 -200 45 -200 45 -200 45
3218675495.916 -3.0108242 7.9388819 -200 45 -200 45 -200 45
3219675612.6021 -3.0147493 7.9203925 -200 45 -200 45 -200 45
3220675729.2882 -3.0121737 7.9091945 -200 45 -200 45 -200 45
3221675845.9743 -3.0088894 7.8656187 -200 45 -200 45 -200 45
3222675962.6604 -3.0065248 7.8396988 -200 45 -200 45 -200 45
3223676079.3466 -3.0086949 7.8173718 -200 45 -200 45 -200 45
3224676196.0327 -3.0133865 7.7998405 -200 45 -200 45 -200 45
3225676312.7188 -3.0147173 7.7794037 -200 45 -200 45 -200 45
3226676429.4049 -3.0204768 7.7722459 -200 45 -200 45 -200 45
3227676546.091 -3.0267336 7.7597728 -200 45 -200 45 -200 45
3228676662.7771 -3.0313623 7.7381802 -200 45 -200 45 -200 45
3229676779.4632 -3.0352819 7.7208571 -200 45 -200 45 -200 45
3230676896.1494 -3.0362086 7.6961823 -200 45 -200 45 -200 45
3231677012.8355 -3.0374398 7.6571321 -200 45 -200 45 -200 45
3232677129.5216 -3.0383108 7.6410828 -200 45 -200 45 -200 45
3233677246.2077 -3.0463929 7.6150832 -200 45 -200 45 -200 45
3234677362.8938 -3.0524638 7.6031456 -200 45 -200 45 -200 45
3235677479.5799 -3.0604854 7.5878596 -200 45 -200 45 -200 45
3236677596.266 -3.0620089 7.5512948 -200 45 -200 45 -200 45
3237677712.9522 -3.0619886 7.5031252 -200 45 -200 45 -200 45
3238677829.6383 -3.0639367 7.4619265 -200 45 -200 45 -200 45
3239677946.3244 -3.0692174 7.4437699 -200 45 -200 45 -200 45
3240678063.0105 -3.0785384 7.4182448 -200 45 -200 45 -200 45
3241678179.6966 -3.0845294 7.3703327 -200 45 -200 45 -200 45
3242678296.3827 -3.098851 7.3525128 -200 45 -200 45 -200 45
3243678413.0688 -3.1112397 7.3068051 -200 45 -200 45 -200 45
3244678529.755 -3.1218398 7.2785425 -200 45 -200 45 -200 45
3245678646.4411 -3.1349912 7.2490473 -200 45 -200 45 -200 45
3246678763.1272 -3.1468277 7.1781421 -200 45 -200 45 -200 45
3247678879.8133 -3.1629765 7.1403537 -200 45 -200 45 -200 45
3248678996.4994 -3.1768851 7.0936575 -200 45 -200 45 -200 45
3249679113.1855 -3.2029688 7.0691953 -200 45 -200 45 -200 45
3250679229.8716 -3.2326379 7.045032 -200 45 -200 45 -200 45
3251679346.5578 -3.264555 7.062284 -200 45 -200 45 -200 45
3252679463.2439 -3.3010099 7.0717597 -200 45 -200 45 -200 45
3253679579.93 -3.334415 7.131588 -200 45 -200 45 -200 45
3254679696.6161 -3.3784146 7.2719021 -200 45 -200 45 -200 45
3255679813.3022 -3.4228899 7.5241699 -200 45 -200 45 -200 45
3256679929.9883 -3.4624276 7.8833156 -200 45 -200 45 -200 45
3257680046.6744 -3.4788618 8.3421106 -200 45 -200 45 -200 45
3258680163.3606 -3.4802742 8.8280602 -200 45 -200 45 -200 45
3259680280.0467 -3.4571977 9.262743 -200 45 -200 45 -200 45
3260680396.7328 -3.4258404 9.6249256 -200 45 -200 45 -200 45
3261680513.4189 -3.3776944 9.8551855 -200 45 -200 45 -200 45
3262680630.105 -3.3266454 9.9813576 -200 45 -200 45 -200 45
3263680746.7911 -3.2813056 10.041922 -200 45 -200 45 -200 45
3264680863.4772 -3.238239 10.055024 -200 45 -200 45 -200 45
3265680980.1634 -3.2099721 10.031241 -200 45 -200 45 -200 45
3266681096.8495 -3.1832044 9.9973507 -200 45 -200 45 -200 45
3267681213.5356 -3.1606066 9.9368935 -200 45 -200 45 -200 45
3268681330.2217 -3.1350462 9.8487501 -200 45 -200 45 -200 45
3269681446.9078 -3.1108346 9.706542 -200 45 -200 45 -200 45
3270681563.5939 -3.0994387 9.6031961 -200 45 -200 45 -200 45
3271681680.28 -3.0893593 9.4966469 -200 45 -200 45 -200 45
3272681796.9662 -3.0886638 9.4040279 -200 45 -200 45 -200 45
3273681913.6523 -3.0882466 9.3246298 -200 45 -200 45 -200 45
3274682030.3384 -3.0916188 9.2611923 -200 45 -200 45 -200 45
3275682147.0245 -3.0961978 9.2280731 -200 45 -200 45 -200 45
3276682263.7106 -3.1012194 9.2055168 -200 45 -200 45 -200 45
3277682380.3967 -3.1044774 9.1767645 -200 45 -200 45 -200 45
3278682497.0828 -3.0999401 9.1252632 -200 45 -200 45 -200 45
3279682613.769 -3.1016412 9.1007557 -200 45 -200 45 -200 45
3280682730.4551 -3.1016557 9.0687475 -200 45 -200 45 -200 45
3281682847.1412 -3.1076922 9.0539942 -200 45 -200 45 -200 45
3282682963.8273 -3.1122568 9.0196657 -200 45 -200 45 -200 45
3283683080.5134 -3.1213036 9.0053453 -200 45 -200 45 -200 45
3284683197.1995 -3.1239729 8.9769716 -200 45 -200 45 -200 45
3285683313.8856 -3.1312091 8.9520531 -200 45 -200 45 -200 45
3286683430.5718 -3.140784 8.9552212 -200 45 -200 45 -200 45
3287683547.2579 -3.1483116 9.0172653 -200 45 -200 45 -200 45
3288683663.944 -3.1603217 9.0881996 -200 45 -200 45 -200 45
3289683780.6301 -3.1647406 9.1511345 -200 45 -200 45 -200 45
3290683897.3162 -3.1761315 9.2537565 -200 45 -200 45 -200 45
3291684014.0023 -3.1774406 9.3642273 -200 45 -200 45 -200 45
3292684130.6884 -3.178741 9.5276699 -200 45 -200 45 -200 45
3293684247.3746 -3.1696644 9.633255 -200 45 -200 45 -200 45
3294684364.0607 -3.1501992 9.7285633 -200 45 -200 45 -200 45
3295684480.7468 -3.1299949 9.7971735 -200 45 -200 45 -200 45
3296684597.4329 -3.1090007 9.8319626 -200 45 -200 45 -200 45
3297684714.119 -3.0948441 9.8340769 -200 45 -200 45 -200 45
3298684830.8051 -3.0784557 9.8088179 -200 45 -200 45 -200 45
3299684947.4912 -3.0671825 9.7625456 -200 45 -200 45 -200 45
3300685064.1774 -3.051729 9.7148476 -200 45 -200 45 -200 45
3301685180.8635 -3.0401206 9.6376553 -200 45 -200 45 -200 45
3302685297.5496 -3.031759 9.5608168 -200 45 -200 45 -200 45
3303685414.2357 -3.0296814 9.5053034 -200 45 -200 45 -200 45
3304685530.9218 -3.0308547 9.4696045 -200 45 -200 45 -200 45
3305685647.6079 -3.0263045 9.4272556 -200 45 -200 45 -200 45
3306685764.294 -3.0295992 9.3940916 -200 45 -200 45 -200 45
3307685880.9802 -3.0315659 9.3626871 -200 45 -200 45 -200 45
3308685997.6663 -3.0344818 9.3555346 -200 45 -200 45 -200 45
3309686114.3524 -3.0335569 9.3274651 -200 45 -200 45 -200 45
3310686231.0385 -3.0334485 9.2858315 -200 45 -200 45 -200 45
3311686347.7246 -3.0317023 9.2694502 -200 45 -200 45 -200 45
3312686464.4107 -3.0305319 9.2609701 -200 45 -200 45 -200 45
3313686581.0968 -3.0339956 9.2404728 -200 45 -200 45 -200 45
3314686697.783 -3.0360425 9.2288675 -200 45 -200 45 -200 45
3315686814.4691 -3.0415876 9.2337875 -200 45 -200 45 -200 45
3316686931.1552 -3.0360713 9.2068977 -200 45 -200 45 -200 45
3317687047.8413 -3.0341251 9.190815 -200 45 -200 45 -200 45
3318687164.5274 -3.0342157 9.2036667 -200 45 -200 45 -200 45
3319687281.2135 -3.0323346 9.2003794 -200 45 -200 45 -200 45
3320687397.8997 -3.0345733 9.2038536 -200 45 -200 45 -200 45
3321687514.5858 -3.0307317 9.1933575 -200 45 -200 45 -200 45
3322687631.2719 -3.0351851 9.2084112 -200 45 -200 45 -200 45
3323687747.958 -3.0338759 9.217308 -200 45 -200 45 -200 45
3324687864.6441 -3.0345671 9.2096825 -200 45 -200 45 -200 45
3325687981.3302 -3.0321836 9.201417 -200 45 -200 45 -200 45
3326688098.0163 -3.0294709 9.1699305 -200 45 -200 45 -200 45
3327688214.7025 -3.0257885 9.135849 -200 45 -200 45 -200 45
3328688331.3886 -3.0231287 9.1257486 -200 45 -200 45 -200 45
3329688448.0747 -3.0301962 9.1113749 -200 45 -200 45 -200 45
3330688564.7608 -3.0308807 9.1015911 -200 45 -200 45 -200 45
3331688681.4469 -3.0336194 9.1023188 -200 45 -200 45 -200 45
3332688798.133 -3.0294206 9.0784035 -200 45 -200 45 -200 45
3333688914.8191 -3.0261943 9.0719585 -200 45 -200 45 -200 45
3334689031.5053 -3.0245187 9.0299129 -200 45 -200 45 -200 45
3335689148.1914 -3.0261571 9.03617 -200 45 -200 45 -200 45
3336689264.8775 -3.0279832 9.0261126 -200 45 -200 45 -200 45
3337689381.5636 -3.0278094 9.0148439 -200 45 -200 45 -200 45
3338689498.2497 -3.0350933 9.0109234 -200 45 -200 45 -200 45
3339689614.9358 -3.0364738 9.0280743 -200 45 -200 45 -200 45
3340689731.6219 -3.0402548 9.0269537 -200 45 -200 45 -200 45
3341689848.3081 -3.0421827 9.0117016 -200 45 -200 45 -200 45
3342689964.9942 -3.0394874 8.9900742 -200 45 -200 45 -200 45
3343690081.6803 -3.0384605 8.9738092 -200 45 -200 45 -200 45
3344690198.3664 -3.0394163 8.9674015 -200 45 -200 45 -200 45
3345690315.0525 -3.0445101 8.9708414 -200 45 -200 45 -200 45
3346690431.7386 -3.045032 8.9896994 -200 45 -200 45 -200 45
3347690548.4247 -3.0499208 8.9933567 -200 45 -200 45 -200 45
3348690665.1109 -3.0412076 8.9654922 -200 45 -200 45 -200 45
3349690781.797 -3.0412798 8.9583683 -200 45 -200 45 -200 45
3350690898.4831 -3.0387464 8.9518909 -200 45 -200 45 -200 45
3351691015.1692 -3.0413506 8.955368 -200 45 -200 45 -200 45
3352691131.8553 -3.0467179 8.9549494 -200 45 -200 45 -200 45
3353691248.5414 -3.0451548 8.9433327 -200 45 -200 45 -200 45
3354691365.2275 -3.0511787 8.9649916 -200 45 -200 45 -200 45
3355691481.9137 -3.0522106 8.9594145 -200 45 -200 45 -200 45
3356691598.5998 -3.0548074 8.9721375 -200 45 -200 45 -200 45
3357691715.2859 -3.0579767 8.9662161 -200 45 -200 45 -200 45
3358691831.972 -3.0567102 8.9559412 -200 45 -200 45 -200 45
3359691948.6581 -3.0551541 8.9536896 -200 45 -200 45 -200 45
3360692065.3442 -3.057061 8.9361315 -200 45 -200 45 -200 45
3361692182.0303 -3.060075 8.9382257 -200 45 -200 45 -200 45
3362692298.7165 -3.0630689 8.9517937 -200 45 -200 45 -200 45
3363692415.4026 -3.0658536 8.9708519 -200 45 -200 45 -200 45
3364692532.0887 -3.0609732 8.9494114 -200 45 -200 45 -200 45
3365692648.7748 -3.0582662 8.9454327 -200 45 -200 45 -200 45
3366692765.4609 -3.0555935 8.9342041 -200 45 -200 45 -200 45
3367692882.147 -3.0589535 8.9412308 -200 45 -200 45 -200 45
3368692998.8331 -3.0601072 8.9417219 -200 45 -200 45 -200 45
3369693115.5193 -3.0599549 8.9225836 -200 45 -200 45 -200 45
3370693232.2054 -3.0689309 8.9504967 -200 45 -200 45 -200 45
3371693348.8915 -3.0681055 8.9562616 -200 45 -200 45 -200 45
3372693465.5776 -3.0711114 8.9711752 -200 45 -200 45 -200 45
3373693582.2637 -3.0723479 8.9549036 -200 45 -200 45 -200 45
3374693698.9498 -3.0713539 8.9617653 -200 45 -200 45 -200 45
3375693815.6359 -3.0699706 8.9384661 -200 45 -200 45 -200 45
3376693932.3221 -3.0704865 8.9467077 -200 45 -200 45 -200 45
3377694049.0082 -3.0745392 8.9486523 -200 45 -200 45 -200 45
3378694165.6943 -3.0766425 8.9522047 -200 45 -200 45 -200 45
3379694282.3804 -3.0818629 8.9656982 -200 45 -200 45 -200 45
3380694399.0665 -3.0756173 8.945282 -200 45 -200 45 -200 45
3381694515.7526 -3.0728202 8.95504 -200 45 -200 45 -200 45
3382694632.4387 -3.0700285 8.9338331 -200 45 -200 45 -200 45
3383694749.1249 -3.0727694 8.9438448 -200 45 -200 45 -200 45
3384694865.811 -3.0770619 8.95471 -200 45 -200 45 -200 45
3385694982.4971 -3.0759275 8.9444866 -200 45 -200 45 -200 45
3386695099.1832 -3.0813346 8.9543314 -200 45 -200 45 -200 45
3387695215.8693 -3.083324 8.9738941 -200 45 -200 45 -200 45
3388695332.5554 -3.0877533 8.9780731 -200 45 -200 45 -200 45
3389695449.2415 -3.0854521 8.9756737 -200 45 -200 45 -200 45
3390695565.9277 -3.0853882 8.9650631 -200 45 -200 45 -200 45
3391695682.6138 -3.0823982 8.9435339 -200 45 -200 45 -200 45
3392695799.2999 -3.0860066 8.9581404 -200 45 -200 45 -200 45
3393695915.986 -3.0894012 8.9721184 -200 45 -200 45 -200 45
3394696032.6721 -3.0914497 8.9803324 -200 45 -200 45 -200 45
3395696149.3582 -3.0944705 8.9944277 -200 45 -200 45 -200 45
3396696266.0443 -3.0883722 8.9749908 -200 45 -200 45 -200 45
3397696382.7305 -3.0867674 8.9658022 -200 45 -200 45 -200 45
3398696499.4166 -3.0836957 8.9761639 -200 45 -200 45 -200 45
3399696616.1027 -3.088244 8.9535847 -200 45 -200 45 -200 45
3400696732.7888 -3.0901821 8.9665318 -200 45 -200 45 -200 45
3401696849.4749 -3.0901086 8.9590969 -200 45 -200 45 -200 45
3402696966.161 -3.0949745 8.9853868 -200 45 -200 45 -200 45
3403697082.8471 -3.0953803 8.9846058 -200 45 -200 45 -200 45
3404697199.5333 -3.1020756 8.988616 -200 45 -200 45 -200 45
3405697316.2194 -3.0998228 8.9980707 -200 45 -200 45 -200 45
3406697432.9055 -3.1006424 8.9848986 -200 45 -200 45 -200 45
3407697549.5916 -3.0978005 8.982336 -200 45 -200 45 -200 45
3408697666.2777 -3.0995839 8.9784451 -200 45 -200 45 -200 45
3409697782.9638 -3.1023815 8.9853516 -200 45 -200 45 -200 45
3410697899.6499 -3.1047938 9.0011435 -200 45 -200 45 -200 45
3411698016.3361 -3.1101229 9.0182934 -200 45 -200 45 -200 45
3412698133.0222 -3.1027853 8.9922543 -200 45 -200 45 -200 45
3413698249.7083 -3.1016757 8.9865446 -200 45 -200 45 -200 45
3414698366.3944 -3.0977068 8.9864016 -200 45 -200 45 -200 45
3415698483.0805 -3.1009514 8.9883862 -200 45 -200 45 -200 45
3416698599.7666 -3.1026073 9.0074816 -200 45 -200 45 -200 45
3417698716.4527 -3.1041107 8.998951 -200 45 -200 45 -200 45
3418698833.1389 -3.1104164 9.020093 -200 45 -200 45 -200 45
3419698949.825 -3.1103051 9.0259666 -200 45 -200 45 -200 45
3420699066.5111 -3.1161683 9.0259514 -200 45 -200 45 -200 45
3421699183.1972 -3.1138189 9.0138569 -200 45 -200 45 -200 45
3422699299.8833 -3.1133673 9.0139122 -200 45 -200 45 -200 45
3423699416.5694 -3.1108952 9.0169353 -200 45 -200 45 -200 45
3424699533.2555 -3.1126323 9.0254421 -200 45 -200 45 -200 45
3425699649.9417 -3.1156919 9.0247507 -200 45 -200 45 -200 45
3426699766.6278 -3.1196764 9.0436125 -200 45 -200 45 -200 45
3427699883.3139 -3.121685 9.050765 -200 45 -200 45 -200 45
3428700000 -3.1158893 9.0250654 -200 45 -200 45 -200 45
3429700116.6861 -3.1153305 9.0259666 -200 45 -200 45 -200 45
3430700233.3722 -3.1131823 9.0147514 -200 45 -200 45 -200 45
3431700350.0583 -3.1153674 9.0379715 -200 45 -200 45 -200 45
3432700466.7445 -3.1167409 9.0307426 -200 45 -200 45 -200 45
3433700583.4306 -3.1198044 9.0352497 -200 45 -200 45 -200 45
3434700700.1167 -3.1231699 9.0514097 -200 45 -200 45 -200 45
3435700816.8028 -3.124635 9.0613165 -200 45 -200 45 -200 45
3436700933.4889 -3.1305561 9.0629702 -200 45 -200 45 -200 45
3437701050.175 -3.1283808 9.0601978 -200 45 -200 45 -200 45
3438701166.8611 -3.1275043 9.0593309 -200 45 -200 45 -200 45
3439701283.5473 -3.1236095 9.0525856 -200 45 -200 45 -200 45
3440701400.2334 -3.1270666 9.0648136 -200 45 -200 45 -200 45
3441701516.9195 -3.1297174 9.0667238 -200 45 -200 45 -200 45
3442701633.6056 -3.1333582 9.085638 -200 45 -200 45 -200 45
3443701750.2917 -3.1370177 9.0979261 -200 45 -200 45 -200 45
3444701866.9778 -3.1291978 9.0699759 -200 45 -200 45 -200 45
3445701983.6639 -3.1274543 9.077116 -200 45 -200 45 -200 45
3446702100.3501 -3.1251404 9.0673151 -200 45 -200 45 -200 45
3447702217.0362 -3.1291437 9.0836411 -200 45 -200 45 -200 45
3448702333.7223 -3.1307406 9.0821056 -200 45 -200 45 -200 45
3449702450.4084 -3.1321192 9.0799723 -200 45 -200 45 -200 45
3450702567.0945 -3.1366513 9.0959454 -200 45 -200 45 -200 45
3451702683.7806 -3.137347 9.1044703 -200 45 -200 45 -200 45
3452702800.4667 -3.1436083 9.1152296 -200 45 -200 45 -200 45
3453702917.1529 -3.1414521 9.1038952 -200 45 -200 45 -200 45
3454703033.839 -3.1402588 9.1058931 -200 45 -200 45 -200 45
3455703150.5251 -3.138633 9.0938339 -200 45 -200 45 -200 45
3456703267.2112 -3.1421559 9.0941677 -200 45 -200 45 -200 45
3457703383.8973 -3.1445153 9.1175499 -200 45 -200 45 -200 45
3458703500.5834 -3.1490417 9.1259623 -200 45 -200 45 -200 45
3459703617.2695 -3.1501856 9.1294937 -200 45 -200 45 -200 45
3460703733.9557 -3.1427665 9.125761 -200 45 -200 45 -200 45
3461703850.6418 -3.1417842 9.1159172 -200 45 -200 45 -200 45
3462703967.3279 -3.1395226 9.1162977 -200 45 -200 45 -200 45
3463704084.014 -3.1424329 9.1071196 -200 45 -200 45 -200 45
3464704200.7001 -3.1449649 9.1341257 -200 45 -200 45 -200 45
3465704317.3862 -3.1477754 9.1293964 -200 45 -200 45 -200 45
3466704434.0723 -3.1496634 9.1239595 -200 45 -200 45 -200 45
3467704550.7585 -3.1531131 9.1422377 -200 45 -200 45 -200 45
3468704667.4446 -3.155616 9.1786575 -200 45 -200 45 -200 45
3469704784.1307 -3.1569433 9.147934 -200 45 -200 45 -200 45
3470704900.8168 -3.1543884 9.1498833 -200 45 -200 45 -200 45
3471705017.5029 -3.1542599 9.1444473 -200 45 -200 45 -200 45
3472705134.189 -3.1549783 9.1455145 -200 45 -200 45 -200 45
3473705250.8751 -3.1581364 9.1595917 -200 45 -200 45 -200 45
3474705367.5613 -3.1638563 9.1688166 -200 45 -200 45 -200 45
3475705484.2474 -3.163631 9.1690445 -200 45 -200 45 -200 45
3476705600.9335 -3.1598325 9.1673174 -200 45 -200 45 -200 45
3477705717.6196 -3.1568828 9.1672297 -200 45 -200 45 -200 45
3478705834.3057 -3.1566148 9.1511374 -200 45 -200 45 -200 45
3479705950.9918 -3.1586897 9.1568851 -200 45 -200 45 -200 45
3480706067.6779 -3.1607072 9.160058 -200 45 -200 45 -200 45
3481706184.3641 -3.1627905 9.166152 -200 45 -200 45 -200 45
3482706301.0502 -3.1679647 9.1839771 -200 45 -200 45 -200 45
3483706417.7363 -3.1696448 9.1993885 -200 45 -200 45 -200 45
3484706534.4224 -3.1750348 9.1957455 -200 45 -200 45 -200 45
3485706651.1085 -3.1725211 9.1787291 -200 45 -200 45 -200 45
3486706767.7946 -3.1718411 9.1926155 -200 45 -200 45 -200 45
3487706884.4807 -3.1689239 9.1822748 -200 45 -200 45 -200 45
3488707001.1669 -3.1714308 9.1900148 -200 45 -200 45 -200 45
3489707117.853 -3.176686 9.1874409 -200 45 -200 45 -200 45
3490707234.5391 -3.1821783 9.2071257 -200 45 -200 45 -200 45
3491707351.2252 -3.1825023 9.2093363 -200 45 -200 45 -200 45
3492707467.9113 -3.1782389 9.1980238 -200 45 -200 45 -200 45
3493707584.5974 -3.1779933 9.1831779 -200 45 -200 45 -200 45
3494707701.2835 -3.1777272 9.1757069 -200 45 -200 45 -200 45
3495707817.9697 -3.1796496 9.1915588 -200 45 -200 45 -200 45
3496707934.6558 -3.1844347 9.1831684 -200 45 -200 45 -200 45
3497708051.3419 -3.1874828 9.2040586 -200 45 -200 45 -200 45
3498708168.028 -3.1928325 9.2222776 -200 45 -200 45 -200 45
3499708284.7141 -3.1966584 9.2312803 -200 45 -200 45 -200 45
3500708401.4002 -3.2029514 9.2433729 -200 45 -200 45 -200 45
3501708518.0863 -3.2020478 9.2569466 -200 45 -200 45 -200 45
3502708634.7725 -3.201107 9.2747135 -200 45 -200 45 -200 45
3503708751.4586 -3.2014685 9.2896786 -200 45 -200 45 -200 45
3504708868.1447 -3.2024949 9.328721 -200 45 -200 45 -200 45
3505708984.8308 -3.2066922 9.3572664 -200 45 -200 45 -200 45
3506709101.5169 -3.2076404 9.3735456 -200 45 -200 45 -200 45
3507709218.203 -3.2066069 9.4034395 -200 45 -200 45 -200 45
3508709334.8891 -3.1988208 9.3854036 -200 45 -200 45 -200 45
3509709451.5753 -3.1954048 9.3834171 -200 45 -200 45 -200 45
3510709568.2614 -3.1916885 9.381608 -200 45 -200 45 -200 45
3511709684.9475 -3.1928666 9.3895807 -200 45 -200 45 -200 45
3512709801.6336 -3.192373 9.3748236 -200 45 -200 45 -200 45
3513709918.3197 -3.1941161 9.3759394 -200 45 -200 45 -200 45
3514710035.0058 -3.196949 9.4032803 -200 45 -200 45 -200 45
3515710151.6919 -3.1989274 9.411438 -200 45 -200 45 -200 45
3516710268.3781 -3.2000675 9.4271889 -200 45 -200 45 -200 45
3517710385.0642 -3.1986873 9.3949699 -200 45 -200 45 -200 45
3518710501.7503 -3.2005265 9.3876858 -200 45 -200 45 -200 45
3519710618.4364 -3.1973088 9.3870115 -200 45 -200 45 -200 45
3520710735.1225 -3.1989987 9.3929863 -200 45 -200 45 -200 45
3521710851.8086 -3.2027352 9.3896065 -200 45 -200 45 -200 45
3522710968.4947 -3.2048445 9.4213171 -200 45 -200 45 -200 45
3523711085.1809 -3.2066736 9.4055004 -200 45 -200 45 -200 45
3524711201.867 -3.199733 9.3912525 -200 45 -200 45 -200 45
3525711318.5531 -3.1982908 9.3929386 -200 45 -200 45 -200 45
3526711435.2392 -3.1945362 9.3787241 -200 45 -200 45 -200 45
3527711551.9253 -3.2006223 9.3924026 -200 45 -200 45 -200 45
3528711668.6114 -3.1993196 9.4019241 -200 45 -200 45 -200 45
3529711785.2975 -3.2026217 9.3970413 -200 45 -200 45 -200 45
3530711901.9837 -3.208077 9.4114113 -200 45 -200 45 -200 45
3531712018.6698 -3.2100165 9.4210777 -200 45 -200 45 -200 45
3532712135.3559 -3.2116587 9.4358759 -200 45 -200 45 -200 45
3533712252.042 -3.2109339 9.4276495 -200 45 -200 45 -200 45
3534712368.7281 -3.2095377 9.4056997 -200 45 -200 45 -200 45
3535712485.4142 -3.2059207 9.4150991 -200 45 -200 45 -200 45
3536712602.1004 -3.2094214 9.4256144 -200 45 -200 45 -200 45
3537712718.7865 -3.2128975 9.4246635 -200 45 -200 45 -200 45
3538712835.4726 -3.2174761 9.4310236 -200 45 -200 45 -200 45
3539712952.1587 -3.2151046 9.4289513 -200 45 -200 45 -200 45
3540713068.8448 -3.2111666 9.3992262 -200 45 -200 45 -200 45
3541713185.5309 -3.2097514 9.4052324 -200 45 -200 45 -200 45
3542713302.217 -3.2101612 9.3905115 -200 45 -200 45 -200 45
3543713418.9032 -3.2127357 9.4108009 -200 45 -200 45 -200 45
3544713535.5893 -3.2127547 9.3865385 -200 45 -200 45 -200 45
3545713652.2754 -3.21541 9.4034214 -200 45 -200 45 -200 45
3546713768.9615 -3.2192862 9.4010296 -200 45 -200 45 -200 45
3547713885.6476 -3.2248135 9.4182062 -200 45 -200 45 -200 45
3548714002.3337 -3.227937 9.4339981 -200 45 -200 45 -200 45
3549714119.0198 -3.2244682 9.3991232 -200 45 -200 45 -200 45
3550714235.706 -3.2248263 9.4004049 -200 45 -200 45 -200 45
3551714352.3921 -3.2246716 9.3962641 -200 45 -200 45 -200 45
3552714469.0782 -3.2308722 9.3946466 -200 45 -200 45 -200 45
3553714585.7643 -3.2320688 9.4008665 -200 45 -200 45 -200 45
3554714702.4504 -3.2354791 9.4252119 -200 45 -200 45 -200 45
3555714819.1365 -3.2378807 9.4248686 -200 45 -200 45 -200 45
3556714935.8226 -3.2339592 9.3925867 -200 45 -200 45 -200 45
3557715052.5088 -3.2339733 9.382576 -200 45 -200 45 -200 45
3558715169.1949 -3.2323859 9.3655081 -200 45 -200 45 -200 45
3559715285.881 -3.2385521 9.370471 -200 45 -200 45 -200 45
3560715402.5671 -3.2383456 9.3593464 -200 45 -200 45 -200 45
3561715519.2532 -3.24476 9.382719 -200 45 -200 45 -200 45
3562715635.9393 -3.2488928 9.3887644 -200 45 -200 45 -200 45
3563715752.6254 -3.2547164 9.3972483 -200 45 -200 45 -200 45
3564715869.3116 -3.2624934 9.4030981 -200 45 -200 45 -200 45
3565715985.9977 -3.2626941 9.3972836 -200 45 -200 45 -200 45
3566716102.6838 -3.2641573 9.4007883 -200 45 -200 45 -200 45
3567716219.3699 -3.2656438 9.396307 -200 45 -200 45 -200 45
3568716336.056 -3.2729623 9.4036293 -200 45 -200 45 -200 45
3569716452.7421 -3.2773182 9.4147692 -200 45 -200 45 -200 45
3570716569.4282 -3.2854888 9.4506311 -200 45 -200 45 -200 45
3571716686.1144 -3.2876816 9.4684229 -200 45 -200 45 -200 45
3572716802.8005 -3.2858329 9.4812832 -200 45 -200 45 -200 45
3573716919.4866 -3.2838514 9.5033617 -200 45 -200 45 -200 45
3574717036.1727 -3.2845922 9.5138283 -200 45 -200 45 -200 45
3575717152.8588 -3.2882311 9.5439072 -200 45 -200 45 -200 45
3576717269.5449 -3.2888458 9.5391588 -200 45 -200 45 -200 45
3577717386.231 -3.2959919 9.5658493 -200 45 -200 45 -200 45
3578717502.9172 -3.3011963 9.5758896 -200 45 -200 45 -200 45
3579717619.6033 -3.3081789 9.6136827 -200 45 -200 45 -200 45
3580717736.2894 -3.3129838 9.6181831 -200 45 -200 45 -200 45
3581717852.9755 -3.3196523 9.6374378 -200 45 -200 45 -200 45
3582717969.6616 -3.3216286 9.7128611 -200 45 -200 45 -200 45
3583718086.3477 -3.3239686 9.7725668 -200 45 -200 45 -200 45
3584718203.0338 -3.325937 9.863946 -200 45 -200 45 -200 45
3585718319.72 -3.3236814 9.9569263 -200 45 -200 45 -200 45
3586718436.4061 -3.3200414 10.03209 -200 45 -200 45 -200 45
3587718553.0922 -3.3073864 10.066362 -200 45 -200 45 -200 45
3588718669.7783 -3.2938819 10.059419 -200 45 -200 45 -200 45
3589718786.4644 -3.282486 10.060495 -200 45 -200 45 -200 45
3590718903.1505 -3.2753301 10.040469 -200 45 -200 45 -200 45
3591719019.8366 -3.2725213 10.039089 -200 45 -200 45 -200 45
3592719136.5228 -3.2661269 10.006777 -200 45 -200 45 -200 45
3593719253.2089 -3.2686579 10.004228 -200 45 -200 45 -200 45
3594719369.895 -3.2708015 9.994031 -200 45 -200 45 -200 45
3595719486.5811 -3.2701056 10.005913 -200 45 -200 45 -200 45
3596719603.2672 -3.2714579 9.9882774 -200 45 -200 45 -200 45
3597719719.9533 -3.267225 9.9787283 -200 45 -200 45 -200 45
3598719836.6394 -3.2681599 9.9555092 -200 45 -200 45 -200 45
3599719953.3256 -3.266037 9.9527941 -200 45 -200 45 -200 45
3600720070.0117 -3.2668877 9.9452248 -200 45 -200 45 -200 45
3601720186.6978 -3.2680073 9.9608784 -200 45 -200 45 -200 45
3602720303.3839 -3.2708552 9.9858017 -200 45 -200 45 -200 45
3603720420.07 -3.2685375 9.9777584 -200 45 -200 45 -200 45
3604720536.7561 -3.2611494 9.9695244 -200 45 -200 45 -200 45
3605720653.4422 -3.2607853 9.9576483 -200 45 -200 45 -200 45
3606720770.1284 -3.2601182 9.9450226 -200 45 -200 45 -200 45
3607720886.8145 -3.258893 9.9460506 -200 45 -200 45 -200 45
3608721003.5006 -3.257226 9.9524813 -200 45 -200 45 -200 45
3609721120.1867 -3.2621636 9.9664669 -200 45 -200 45 -200 45
3610721236.8728 -3.2650187 9.9635286 -200 45 -200 45 -200 45
3611721353.5589 -3.2671256 9.9568882 -200 45 -200 45 -200 45
3612721470.245 -3.2666326 9.9628687 -200 45 -200 45 -200 45
3613721586.9312 -3.2630935 9.9376163 -200 45 -200 45 -200 45
3614721703.6173 -3.2634368 9.9285021 -200 45 -200 45 -200 45
3615721820.3034 -3.2609379 9.9177685 -200 45 -200 45 -200 45
3616721936.9895 -3.2657428 9.9150095 -200 45 -200 45 -200 45
3617722053.6756 -3.2677295 9.927124 -200 45 -200 45 -200 45
3618722170.3617 -3.269856 9.9319506 -200 45 -200 45 -200 45
3619722287.0478 -3.2673829 9.9225636 -200 45 -200 45 -200 45
3620722403.734 -3.2629936 9.9039211 -200 45 -200 45 -200 45
3621722520.4201 -3.262181 9.8940239 -200 45 -200 45 -200 45
3622722637.1062 -3.262924 9.8849297 -200 45 -200 45 -200 45
3623722753.7923 -3.2671492 9.8930454 -200 45 -200 45 -200 45
3624722870.4784 -3.2642941 9.8792629 -200 45 -200 45 -200 45
3625722987.1645 -3.2696242 9.8945026 -200 45 -200 45 -200 45
3626723103.8506 -3.2728193 9.8862562 -200 45 -200 45 -200 45
3627723220.5368 -3.2778411 9.9277992 -200 45 -200 45 -200 45
3628723337.2229 -3.2785356 9.9021912 -200 45 -200 45 -200 45
3629723453.909 -3.2759478 9.8895454 -200 45 -200 45 -200 45
3630723570.5951 -3.2765884 9.8777075 -200 45 -200 45 -200 45
3631723687.2812 -3.2755029 9.8927479 -200 45 -200 45 -200 45
3632723803.9673 -3.2789364 9.8961258 -200 45 -200 45 -200 45
3633723920.6534 -3.2835972 9.9037361 -200 45 -200 45 -200 45
3634724037.3396 -3.287986 9.9198132 -200 45 -200 45 -200 45
3635724154.0257 -3.2833793 9.9142694 -200 45 -200 45 -200 45
3636724270.7118 -3.2798738 9.9069319 -200 45 -200 45 -200 45
3637724387.3979 -3.2781515 9.8839254 -200 45 -200 45 -200 45
3638724504.084 -3.2787662 9.889452 -200 45 -200 45 -200 45
3639724620.7701 -3.2816935 9.8993301 -200 45 -200 45 -200 45
3640724737.4562 -3.2832379 9.8982086 -200 45 -200 45 -200 45
3641724854.1424 -3.2874465 9.907711 -200 45 -200 45 -200 45
3642724970.8285 -3.2885671 9.9157047 -200 45 -200 45 -200 45
3643725087.5146 -3.2952981 9.9166927 -200 45 -200 45 -200 45
3644725204.2007 -3.2944598 9.9082365 -200 45 -200 45 -200 45
3645725320.8868 -3.293906 9.8990984 -200 45 -200 45 -200 45
3646725437.5729 -3.2912602 9.9009027 -200 45 -200 45 -200 45
3647725554.259 -3.2924566 9.9090433 -200 45 -200 45 -200 45
3648725670.9452 -3.2978065 9.903882 -200 45 -200 45 -200 45
3649725787.6313 -3.298018 9.9173546 -200 45 -200 45 -200 45
3650725904.3174 -3.3032973 9.9232149 -200 45 -200 45 -200 45
3651726021.0035 -3.3000002 9.9224138 -200 45 -200 45 -200 45
3652726137.6896 -3.2965074 9.9066401 -200 45 -200 45 -200 45
3653726254.3757 -3.2952478 9.8957844 -200 45 -200 45 -200 45
3654726371.0618 -3.2953863 9.9054461 -200 45 -200 45 -200 45
3655726487.748 -3.299509 9.9177227 -200 45 -200 45 -200 45
3656726604.4341 -3.3006449 9.9040823 -200 45 -200 45 -200 45
3657726721.1202 -3.3053532 9.912365 -200 45 -200 45 -200 45
3658726837.8063 -3.3066018 9.9357834 -200 45 -200 45 -200 45
3659726954.4924 -3.3099406 9.9365206 -200 45 -200 45 -200 45
3660727071.1785 -3.3102562 9.9299707 -200 45 -200 45 -200 45
3661727187.8646 -3.3086555 9.9263515 -200 45 -200 45 -200 45
3662727304.5508 -3.3075395 9.9298782 -200 45 -200 45 -200 45
3663727421.2369 -3.3102164 9.9253721 -200 45 -200 45 -200 45
3664727537.923 -3.3131626 9.9166765 -200 45 -200 45 -200 45
3665727654.6091 -3.3169534 9.9288635 -200 45 -200 45 -200 45
3666727771.2952 -3.3200023 9.964427 -200 45 -200 45 -200 45
3667727887.9813 -3.3149941 9.9464464 -200 45 -200 45 -200 45
3668728004.6674 -3.3130488 9.942461 -200 45 -200 45 -200 45
3669728121.3536 -3.310056 9.9495773 -200 45 -200 45 -200 45
3670728238.0397 -3.3125761 9.9230661 -200 45 -200 45 -200 45
3671728354.7258 -3.3177261 9.9410591 -200 45 -200 45 -200 45
3672728471.4119 -3.3136277 9.9368095 -200 45 -200 45 -200 45
3673728588.098 -3.319083 9.9549704 -200 45 -200 45 -200 45
3674728704.7841 -3.3218691 9.9544029 -200 45 -200 45 -200 45
3675728821.4702 -3.3290157 9.9718428 -200 45 -200 45 -200 45
3676728938.1564 -3.3252022 9.961503 -200 45 -200 45 -200 45
3677729054.8425 -3.3263552 9.9471445 -200 45 -200 45 -200 45
3678729171.5286 -3.3254268 9.9343576 -200 45 -200 45 -200 45
3679729288.2147 -3.3255768 9.9394379 -200 45 -200 45 -200 45
3680729404.9008 -3.3313217 9.9448786 -200 45 -200 45 -200 45
3681729521.5869 -3.3321233 9.9439726 -200 45 -200 45 -200 45
3682729638.273 -3.3371058 9.9751406 -200 45 -200 45 -200 45
3683729754.9592 -3.3330171 9.9551859 -200 45 -200 45 -200 45
3684729871.6453 -3.3301682 9.9425116 -200 45 -200 45 -200 45
3685729988.3314 -3.3287735 9.938364 -200 45 -200 45 -200 45
3686730105.0175 -3.3292623 9.9367819 -200 45 -200 45 -200 45
3687730221.7036 -3.3340695 9.9392281 -200 45 -200 45 -200 45
3688730338.3897 -3.3318746 9.9252501 -200 45 -200 45 -200 45
3689730455.0758 -3.3378174 9.9384155 -200 45 -200 45 -200 45
3690730571.762 -3.3400872 9.9489079 -200 45 -200 45 -200 45
3691730688.4481 -3.3448594 9.9719124 -200 45 -200 45 -200 45
3692730805.1342 -3.3446546 9.9594202 -200 45 -200 45 -200 45
3693730921.8203 -3.3464301 9.9494801 -200 45 -200 45 -200 45
3694731038.5064 -3.3446517 9.9509048 -200 45 -200 45 -200 45
3695731155.1925 -3.3449204 9.9459343 -200 45 -200 45 -200 45
3696731271.8786 -3.3488977 9.9550886 -200 45 -200 45 -200 45
3697731388.5648 -3.3514361 9.9575663 -200 45 -200 45 -200 45
3698731505.2509 -3.355624 9.9688139 -200 45 -200 45 -200 45
3699731621.937 -3.3501914 9.9616327 -200 45 -200 45 -200 45
3700731738.6231 -3.3493426 9.955739 -200 45 -200 45 -200 45
3701731855.3092 -3.3467748 9.9439077 -200 45 -200 45 -200 45
3702731971.9953 -3.3494232 9.9276571 -200 45 -200 45 -200 45
3703732088.6814 -3.3531771 9.9428272 -200 45 -200 45 -200 45
3704732205.3676 -3.3522754 9.9271469 -200 45 -200 45 -200 45
3705732322.0537 -3.3589735 9.9500017 -200 45 -200 45 -200 45
3706732438.7398 -3.3601811 9.9660702 -200 45 -200 45 -200 45
3707732555.4259 -3.3663399 9.9767981 -200 45 -200 45 -200 45
3708732672.112 -3.3653643 9.9574804 -200 45 -200 45 -200 45
3709732788.7981 -3.3640051 9.9411983 -200 45 -200 45 -200 45
3710732905.4842 -3.3639555 9.9483566 -200 45 -200 45 -200 45
3711733022.1704 -3.3643005 9.9474392 -200 45 -200 45 -200 45
3712733138.8565 -3.3709822 9.9490318 -200 45 -200 45 -200 45
3713733255.5426 -3.3726137 9.9623213 -200 45 -200 45 -200 45
3714733372.2287 -3.3769546 9.9599581 -200 45 -200 45 -200 45
3715733488.9148 -3.3733425 9.9628134 -200 45 -200 45 -200 45
3716733605.6009 -3.3696105 9.9430914 -200 45 -200 45 -200 45
3717733722.287 -3.3678207 9.9255676 -200 45 -200 45 -200 45
3718733838.9732 -3.3682475 9.9470768 -200 45 -200 45 -200 45
3719733955.6593 -3.3728406 9.9406252 -200 45 -200 45 -200 45
3720734072.3454 -3.3710723 9.9425735 -200 45 -200 45 -200 45
3721734189.0315 -3.3805041 9.9401884 -200 45 -200 45 -200 45
3722734305.7176 -3.3791451 9.9548941 -200 45 -200 45 -200 45
3723734422.4037 -3.3859692 9.9628906 -200 45 -200 45 -200 45
3724734539.0898 -3.3853714 9.9623718 -200 45 -200 45 -200 45
3725734655.776 -3.3849833 9.9377136 -200 45 -200 45 -200 45
3726734772.4621 -3.3833802 9.9158669 -200 45 -200 45 -200 45
3727734889.1482 -3.3860266 9.9263353 -200 45 -200 45 -200 45
3728735005.8343 -3.3910685 9.940567 -200 45 -200 45 -200 45
3729735122.5204 -3.3920305 9.9256554 -200 45 -200 45 -200 45
3730735239.2065 -3.3970065 9.942379 -200 45 -200 45 -200 45
3731735355.8926 -3.3920732 9.9285564 -200 45 -200 45 -200 45
3732735472.5788 -3.3912086 9.9233818 -200 45 -200 45 -200 45
3733735589.2649 -3.3879054 9.9112968 -200 45 -200 45 -200 45
3734735705.951 -3.3922265 9.9059906 -200 45 -200 45 -200 45
3735735822.6371 -3.3937621 9.9144049 -200 45 -200 45 -200 45
3736735939.3232 -3.3949566 9.8942223 -200 45 -200 45 -200 45
3737736056.0093 -3.4012358 9.9055367 -200 45 -200 45 -200 45
3738736172.6954 -3.4027355 9.9183779 -200 45 -200 45 -200 45
3739736289.3816 -3.4074347 9.9352903 -200 45 -200 45 -200 45
3740736406.0677 -3.4067991 9.9084921 -200 45 -200 45 -200 45
3741736522.7538 -3.4093184 9.9075947 -200 45 -200 45 -200 45
3742736639.4399 -3.4093394 9.8927088 -200 45 -200 45 -200 45
3743736756.126 -3.4101222 9.8911209 -200 45 -200 45 -200 45
3744736872.8121 -3.4157262 9.8937817 -200 45 -200 45 -200 45
3745736989.4983 -3.4174914 9.8998089 -200 45 -200 45 -200 45
3746737106.1844 -3.421551 9.9077635 -200 45 -200 45 -200 45
3747737222.8705 -3.4163337 9.8920479 -200 45 -200 45 -200 45
3748737339.5566 -3.4145114 9.8722887 -200 45 -200 45 -200 45
3749737456.2427 -3.4144535 9.8653908 -200 45 -200 45 -200 45
3750737572.9288 -3.4169466 9.8555861 -200 45 -200 45 -200 45
3751737689.6149 -3.4199073 9.8664045 -200 45 -200 45 -200 45
3752737806.3011 -3.4212627 9.845911 -200 45 -200 45 -200 45
3753737922.9872 -3.4259398 9.8475952 -200 45 -200 45 -200 45
3754738039.6733 -3.4289243 9.8672485 -200 45 -200 45 -200 45
3755738156.3594 -3.4363954 9.8651094 -200 45 -200 45 -200 45
3756738273.0455 -3.4358678 9.8551912 -200 45 -200 45 -200 45
3757738389.7316 -3.4363954 9.8310051 -200 45 -200 45 -200 45
3758738506.4177 -3.435585 9.8083639 -200 45 -200 45 -200 45
3759738623.1039 -3.4376087 9.8162489 -200 45 -200 45 -200 45
3760738739.79 -3.444979 9.8254223 -200 45 -200 45 -200 45
3761738856.4761 -3.4457657 9.8250332 -200 45 -200 45 -200 45
3762738973.1622 -3.4506862 9.8208866 -200 45 -200 45 -200 45
3763739089.8483 -3.4466636 9.8074188 -200 45 -200 45 -200 45
3764739206.5344 -3.4460301 9.7812977 -200 45 -200 45 -200 45
3765739323.2205 -3.4439275 9.7635479 -200 45 -200 45 -200 45
3766739439.9067 -3.4483311 9.7554226 -200 45 -200 45 -200 45
3767739556.5928 -3.4530475 9.7533636 -200 45 -200 45 -200 45
3768739673.2789 -3.4546223 9.7356663 -200 45 -200 45 -200 45
3769739789.965 -3.462877 9.753624 -200 45 -200 45 -200 45
3770739906.6511 -3.4635961 9.7401943 -200 45 -200 45 -200 45
3771740023.3372 -3.4713109 9.7526655 -200 45 -200 45 -200 45
3772740140.0233 -3.4725487 9.726944 -200 45 -200 45 -200 45
3773740256.7095 -3.4733567 9.7206011 -200 45 -200 45 -200 45
3774740373.3956 -3.4726195 9.7060452 -200 45 -200 45 -200 45
3775740490.0817 -3.475167 9.6964817 -200 45 -200 45 -200 45
3776740606.7678 -3.4860234 9.7051535 -200 45 -200 45 -200 45
3777740723.4539 -3.4886358 9.7044792 -200 45 -200 45 -200 45
3778740840.14 -3.4922693 9.7006845 -200 45 -200 45 -200 45
3779740956.8261 -3.4899869 9.6758804 -200 45 -200 45 -200 45
3780741073.5123 -3.4912429 9.664156 -200 45 -200 45 -200 45
3781741190.1984 -3.4899597 9.6368914 -200 45 -200 45 -200 45
3782741306.8845 -3.4924774 9.6457453 -200 45 -200 45 -200 45
3783741423.5706 -3.496145 9.6691723 -200 45 -200 45 -200 45
3784741540.2567 -3.4986277 9.6373501 -200 45 -200 45 -200 45
3785741656.9428 -3.5077283 9.6383705 -200 45 -200 45 -200 45
3786741773.6289 -3.507962 9.6330767 -200 45 -200 45 -200 45
3787741890.3151 -3.5146725 9.6205683 -200 45 -200 45 -200 45
3788742007.0012 -3.5152457 9.6132813 -200 45 -200 45 -200 45
3789742123.6873 -3.5164814 9.5848284 -200 45 -200 45 -200 45
3790742240.3734 -3.5164664 9.5486336 -200 45 -200 45 -200 45
3791742357.0595 -3.523334 9.5488195 -200 45 -200 45 -200 45
3792742473.7456 -3.5301898 9.5232248 -200 45 -200 45 -200 45
3793742590.4317 -3.5349135 9.5273924 -200 45 -200 45 -200 45
3794742707.1179 -3.539072 9.5037432 -200 45 -200 45 -200 45
3795742823.804 -3.5381875 9.4616032 -200 45 -200 45 -200 45
3796742940.4901 -3.5400751 9.4556675 -200 45 -200 45 -200 45
3797743057.1762 -3.5416167 9.4112549 -200 45 -200 45 -200 45
3798743173.8623 -3.5489483 9.4098816 -200 45 -200 45 -200 45
3799743290.5484 -3.553551 9.4015656 -200 45 -200 45 -200 45
3800743407.2345 -3.5581284 9.3703928 -200 45 -200 45 -200 45
3801743523.9207 -3.5673707 9.3491592 -200 45 -200 45 -200 45
3802743640.6068 -3.5731344 9.3537416 -200 45 -200 45 -200 45
3803743757.2929 -3.5808039 9.3314333 -200 45 -200 45 -200 45
3804743873.979 -3.5822241 9.296279 -200 45 -200 45 -200 45
3805743990.6651 -3.5871239 9.2590084 -200 45 -200 45 -200 45
3806744107.3512 -3.588397 9.240943 -200 45 -200 45 -200 45
3807744224.0373 -3.598443 9.2032928 -200 45 -200 45 -200 45
3808744340.7235 -3.6062462 9.194684 -200 45 -200 45 -200 45
3809744457.4096 -3.6140976 9.1855335 -200 45 -200 45 -200 45
3810744574.0957 -3.6199389 9.1573315 -200 45 -200 45 -200 45
3811744690.7818 -3.6208022 9.1125193 -200 45 -200 45 -200 45
3812744807.4679 -3.6247876 9.0838394 -200 45 -200 45 -200 45
3813744924.154 -3.6277428 9.0306921 -200 45 -200 45 -200 45
3814745040.8401 -3.6372123 9.0100183 -200 45 -200 45 -200 45
3815745157.5263 -3.644964 8.9726734 -200 45 -200 45 -200 45
3816745274.2124 -3.6545129 8.9265881 -200 45 -200 45 -200 45
3817745390.8985 -3.6666996 8.9039402 -200 45 -200 45 -200 45
3818745507.5846 -3.6756353 8.866601 -200 45 -200 45 -200 45
3819745624.2707 -3.6888483 8.8417597 -200 45 -200 45 -200 45
3820745740.9568 -3.6950312 8.7768345 -200 45 -200 45 -200 45
3821745857.6429 -3.7045462 8.7268667 -200 45 -200 45 -200 45
3822745974.3291 -3.7109458 8.6669025 -200 45 -200 45 -200 45
3823746091.0152 -3.7253239 8.6106863 -200 45 -200 45 -200 45
3824746207.7013 -3.7410719 8.5524845 -200 45 -200 45 -200 45
3825746324.3874 -3.7565448 8.5107298 -200 45 -200 45 -200 45
3826746441.0735 -3.77071 8.45506 -200 45 -200 45 -200 45
3827746557.7596 -3.7818563 8.3806553 -200 45 -200 45 -200 45
3828746674.4457 -3.7984307 8.3128452 -200 45 -200 45 -200 45
3829746791.1319 -3.8130491 8.2349234 -200 45 -200 45 -200 45
3830746907.818 -3.8351822 8.1711712 -200 45 -200 45 -200 45
3831747024.5041 -3.8574128 8.1125574 -200 45 -200 45 -200 45
3832747141.1902 -3.8844361 8.0568056 -200 45 -200 45 -200 45
3833747257.8763 -3.9134872 8.0083961 -200 45 -200 45 -200 45
3834747374.5624 -3.9437706 7.9473391 -200 45 -200 45 -200 45
3835747491.2485 -3.9727359 7.9088416 -200 45 -200 45 -200 45
3836747607.9347 -4.0063314 7.8430996 -200 45 -200 45 -200 45
3837747724.6208 -4.0412488 7.8094993 -200 45 -200 45 -200 45
3838747841.3069 -4.0759625 7.7727213 -200 45 -200 45 -200 45
3839747957.993 -4.117507 7.7384048 -200 45 -200 45 -200 45
3840748074.6791 -4.1630235 7.7459254 -200 45 -200 45 -200 45
3841748191.3652 -4.2113466 7.7360988 -200 45 -200 45 -200 45
3842748308.0513 -4.2623644 7.7588415 -200 45 -200 45 -200 45
3843748424.7375 -4.3118219 7.7779369 -200 45 -200 45 -200 45
3844748541.4236 -4.3670955 7.8424282 -200 45 -200 45 -200 45
3845748658.1097 -4.4296274 7.9163227 -200 45 -200 45 -200 45
3846748774.7958 -4.5000086 8.0688334 -200 45 -200 45 -200 45
3847748891.4819 -4.5754571 8.2540464 -200 45 -200 45 -200 45
3848749008.168 -4.6536632 8.5251579 -200 45 -200 45 -200 45
3849749124.8541 -4.7384219 8.87784 -200 45 -200 45 -200 45
3850749241.5403 -4.8219199 9.3592033 -200 45 -200 45 -200 45
3851749358.2264 -4.9027419 9.9448738 -200 45 -200 45 -200 45
3852749474.9125 -4.9727454 10.641392 -200 45 -200 45 -200 45
3853749591.5986 -5.0229921 11.499479 -200 45 -200 45 -200 45
3854749708.2847 -5.0476413 12.438467 -200 45 -200 45 -200 45
3855749824.9708 -5.04776 13.473439 -200 45 -200 45 -200 45
3856749941.6569 -5.013917 14.487601 -200 45 -200 45 -200 45
3857750058.3431 -4.9483876 15.387835 -200 45 -200 45 -200 45
3858750175.0292 -4.8548841 16.117369 -200 45 -200 45 -200 45
3859750291.7153 -4.7423925 16.625141 -200 45 -200 45 -200 45
3860750408.4014 -4.6361384 16.949015 -200 45 -200 45 -200 45
3861750525.0875 -4.5377483 17.105749 -200 45 -200 45 -200 45
3862750641.7736 -4.4629283 17.164696 -200 45 -200 45 -200 45
3863750758.4597 -4.4001756 17.148846 -200 45 -200 45 -200 45
3864750875.1459 -4.3622437 17.154713 -200 45 -200 45 -200 45
3865750991.832 -4.3321738 17.255974 -200 45 -200 45 -200 45
3866751108.5181 -4.3026648 17.4279 -200 45 -200 45 -200 45
3867751225.2042 -4.2652416 17.670765 -200 45 -200 45 -200 45
3868751341.8903 -4.208672 17.895981 -200 45 -200 45 -200 45
3869751458.5764 -4.1427298 18.063007 -200 45 -200 45 -200 45
3870751575.2625 -4.0657334 18.129387 -200 45 -200 45 -200 45
3871751691.9487 -3.999042 18.106213 -200 45 -200 45 -200 45
3872751808.6348 -3.9403079 18.041433 -200 45 -200 45 -200 45
3873751925.3209 -3.8900115 17.917158 -200 45 -200 45 -200 45
3874752042.007 -3.8467484 17.786865 -200 45 -200 45 -200 45
3875752158.6931 -3.8004451 17.611637 -200 45 -200 45 -200 45
3876752275.3792 -3.7677476 17.465927 -200 45 -200 45 -200 45
3877752392.0653 -3.7344301 17.293924 -200 45 -200 45 -200 45
3878752508.7515 -3.714431 17.162943 -200 45 -200 45 -200 45
3879752625.4376 -3.6925321 17.025248 -200 45 -200 45 -200 45
3880752742.1237 -3.6753974 16.91053 -200 45 -200 45 -200 45
3881752858.8098 -3.66642 16.802349 -200 45 -200 45 -200 45
3882752975.4959 -3.6563468 16.715788 -200 45 -200 45 -200 45
3883753092.182 -3.6526968 16.623676 -200 45 -200 45 -200 45
3884753208.8681 -3.6395903 16.559954 -200 45 -200 45 -200 45
3885753325.5543 -3.6318083 16.521324 -200 45 -200 45 -200 45
3886753442.2404 -3.6205826 16.491224 -200 45 -200 45 -200 45
3887753558.9265 -3.6107185 16.499037 -200 45 -200 45 -200 45
3888753675.6126 -3.6001563 16.51082 -200 45 -200 45 -200 45
3889753792.2987 -3.5847983 16.538858 -200 45 -200 45 -200 45
3890753908.9848 -3.5654356 16.528608 -200 45 -200 45 -200 45
3891754025.6709 -3.5370169 16.508181 -200 45 -200 45 -200 45
3892754142.3571 -3.5137017 16.466568 -200 45 -200 45 -200 45
3893754259.0432 -3.4886174 16.416613 -200 45 -200 45 -200 45
3894754375.7293 -3.4684153 16.366409 -200 45 -200 45 -200 45
3895754492.4154 -3.4456153 16.288544 -200 45 -200 45 -200 45
3896754609.1015 -3.4273255 16.202894 -200 45 -200 45 -200 45
3897754725.7876 -3.4130359 16.113802 -200 45 -200 45 -200 45
3898754842.4737 -3.3950291 16.000101 -200 45 -200 45 -200 45
3899754959.1599 -3.3830769 15.882173 -200 45 -200 45 -200 45
3900755075.846 -3.3632762 15.746773 -200 45 -200 45 -200 45
3901755192.5321 -3.3553569 15.601716 -200 45 -200 45 -200 45
3902755309.2182 -3.3434801 15.473826 -200 45 -200 45 -200 45
3903755425.9043 -3.34057 15.361046 -200 45 -200 45 -200 45
3904755542.5904 -3.3357773 15.267254 -200 45 -200 45 -200 45
3905755659.2765 -3.3375905 15.177266 -200 45 -200 45 -200 45
3906755775.9627 -3.3262446 15.074214 -200 45 -200 45 -200 45
3907755892.6488 -3.3155072 14.951322 -200 45 -200 45 -200 45
3908756009.3349 -3.3097565 14.851829 -200 45 -200 45 -200 45
3909756126.021 -3.3061399 14.732998 -200 45 -200 45 -200 45
3910756242.7071 -3.3090351 14.630651 -200 45 -200 45 -200 45
3911756359.3932 -3.3057659 14.52151 -200 45 -200 45 -200 45
3912756476.0793 -3.3120165 14.44371 -200 45 -200 45 -200 45
3913756592.7655 -3.3147576 14.368303 -200 45 -200 45 -200 45
3914756709.4516 -3.320092 14.288935 -200 45 -200 45 -200 45
3915756826.1377 -3.3241775 14.206053 -200 45 -200 45 -200 45
3916756942.8238 -3.3236918 14.133998 -200 45 -200 45 -200 45
3917757059.5099 -3.3270895 14.059596 -200 45 -200 45 -200 45
3918757176.196 -3.3277729 13.986639 -200 45 -200 45 -200 45
3919757292.8821 -3.3332019 13.941033 -200 45 -200 45 -200 45
3920757409.5683 -3.3381147 13.901793 -200 45 -200 45 -200 45
3921757526.2544 -3.3451245 13.858452 -200 45 -200 45 -200 45
3922757642.9405 -3.3418581 13.805755 -200 45 -200 45 -200 45
3923757759.6266 -3.3401957 13.747355 -200 45 -200 45 -200 45
3924757876.3127 -3.3401995 13.688418 -200 45 -200 45 -200 45
3925757992.9988 -3.339092 13.645451 -200 45 -200 45 -200 45
3926758109.6849 -3.346252 13.616176 -200 45 -200 45 -200 45
3927758226.3711 -3.3459368 13.552665 -200 45 -200 45 -200 45
3928758343.0572 -3.3530457 13.514123 -200 45 -200 45 -200 45
3929758459.7433 -3.3559968 13.492097 -200 45 -200 45 -200 45
3930758576.4294 -3.3605342 13.470281 -200 45 -200 45 -200 45
3931758693.1155 -3.3694556 13.424881 -200 45 -200 45 -200 45
3932758809.8016 -3.3666635 13.35808 -200 45 -200 45 -200 45
3933758926.4877 -3.3677521 13.32755 -200 45 -200 45 -200 45
3934759043.1739 -3.3680954 13.289437 -200 45 -200 45 -200 45
3935759159.86 -3.3761754 13.256359 -200 45 -200 45 -200 45
3936759276.5461 -3.3795137 13.230799 -200 45 -200 45 -200 45
3937759393.2322 -3.3852425 13.207783 -200 45 -200 45 -200 45
3938759509.9183 -3.3869174 13.172405 -200 45 -200 45 -200 45
3939759626.6044 -3.3842933 13.123952 -200 45 -200 45 -200 45
3940759743.2905 -3.3844266 13.105662 -200 45 -200 45 -200 45
3941759859.9767 -3.3871059 13.047515 -200 45 -200 45 -200 45
3942759976.6628 -3.393477 13.029541 -200 45 -200 45 -200 45
3943760093.3489 -3.3930514 12.994596 -200 45 -200 45 -200 45
3944760210.035 -3.4024615 12.965533 -200 45 -200 45 -200 45
3945760326.7211 -3.4032962 12.940991 -200 45 -200 45 -200 45
3946760443.4072 -3.4112489 12.930571 -200 45 -200 45 -200 45
3947760560.0933 -3.4153869 12.89598 -200 45 -200 45 -200 45
3948760676.7795 -3.417573 12.859759 -200 45 -200 45 -200 45
3949760793.4656 -3.4204245 12.834773 -200 45 -200 45 -200 45
3950760910.1517 -3.4235415 12.807869 -200 45 -200 45 -200 45
3951761026.8378 -3.4288428 12.774672 -200 45 -200 45 -200 45
3952761143.5239 -3.4326169 12.750312 -200 45 -200 45 -200 45
3953761260.21 -3.4385126 12.745518 -200 45 -200 45 -200 45
3954761376.8961 -3.4405813 12.709066 -200 45 -200 45 -200 45
3955761493.5823 -3.4376109 12.677713 -200 45 -200 45 -200 45
3956761610.2684 -3.441426 12.645754 -200 45 -200 45 -200 45
3957761726.9545 -3.4443946 12.622144 -200 45 -200 45 -200 45
3958761843.6406 -3.4512775 12.612283 -200 45 -200 45 -200 45
3959761960.3267 -3.4545934 12.582026 -200 45 -200 45 -200 45
3960762077.0128 -3.4608018 12.546569 -200 45 -200 45 -200 45
3961762193.6989 -3.4670525 12.544167 -200 45 -200 45 -200 45
3962762310.3851 -3.4734457 12.540444 -200 45 -200 45 -200 45
3963762427.0712 -3.4770439 12.5038 -200 45 -200 45 -200 45
3964762543.7573 -3.4794204 12.470492 -200 45 -200 45 -200 45
3965762660.4434 -3.4823742 12.430439 -200 45 -200 45 -200 45
3966762777.1295 -3.4852793 12.411148 -200 45 -200 45 -200 45
3967762893.8156 -3.4968777 12.397436 -200 45 -200 45 -200 45
3968763010.5018 -3.500782 12.365713 -200 45 -200 45 -200 45
3969763127.1879 -3.5082767 12.362148 -200 45 -200 45 -200 45
3970763243.874 -3.5098801 12.320145 -200 45 -200 45 -200 45
3971763360.5601 -3.5133317 12.29472 -200 45 -200 45 -200 45
3972763477.2462 -3.5157669 12.254427 -200 45 -200 45 -200 45
3973763593.9323 -3.5228786 12.210181 -200 45 -200 45 -200 45
3974763710.6184 -3.5336907 12.190354 -200 45 -200 45 -200 45
3975763827.3046 -3.5394213 12.166904 -200 45 -200 45 -200 45
3976763943.9907 -3.5482979 12.145886 -200 45 -200 45 -200 45
3977764060.6768 -3.5580516 12.121116 -200 45 -200 45 -200 45
3978764177.3629 -3.5706396 12.101643 -200 45 -200 45 -200 45
3979764294.049 -3.5783899 12.080295 -200 45 -200 45 -200 45
3980764410.7351 -3.5839531 12.029723 -200 45 -200 45 -200 45
3981764527.4212 -3.5917315 12.002641 -200 45 -200 45 -200 45
3982764644.1074 -3.6001141 11.986504 -200 45 -200 45 -200 45
3983764760.7935 -3.6155846 11.968605 -200 45 -200 45 -200 45
3984764877.4796 -3.6258435 11.950456 -200 45 -200 45 -200 45
3985764994.1657 -3.6421292 11.929809 -200 45 -200 45 -200 45
3986765110.8518 -3.6488373 11.883776 -200 45 -200 45 -200 45
3987765227.5379 -3.6632636 11.851747 -200 45 -200 45 -200 45
3988765344.224 -3.6771109 11.808647 -200 45 -200 45 -200 45
3989765460.9102 -3.6946208 11.781176 -200 45 -200 45 -200 45
3990765577.5963 -3.7160487 11.76668 -200 45 -200 45 -200 45
3991765694.2824 -3.7381868 11.746569 -200 45 -200 45 -200 45
3992765810.9685 -3.7665215 11.774758 -200 45 -200 45 -200 45
3993765927.6546 -3.7934234 11.800396 -200 45 -200 45 -200 45
3994766044.3407 -3.8257809 11.851068 -200 45 -200 45 -200 45
3995766161.0268 -3.8580225 11.937809 -200 45 -200 45 -200 45
3996766277.713 -3.8882835 12.034794 -200 45 -200 45 -200 45
3997766394.3991 -3.9195099 12.185362 -200 45 -200 45 -200 45
3998766511.0852 -3.9471998 12.378803 -200 45 -200 45 -200 45
3999766627.7713 -3.973911 12.631322 -200 45 -200 45 -200 45
4000766744.4574 -3.9942946 12.906199 -200 45 -200 45 -200 45
4001766861.1435 -4.0090051 13.224066 -200 45 -200 45 -200 45
4002766977.8296 -4.0050635 13.525371 -200 45 -200 45 -200 45
4003767094.5158 -3.991513 13.783697 -200 45 -200 45 -200 45
4004767211.2019 -3.9724071 14.044427 -200 45 -200 45 -200 45
4005767327.888 -3.9546242 14.264225 -200 45 -200 45 -200 45
4006767444.5741 -3.9354658 14.432074 -200 45 -200 45 -200 45
4007767561.2602 -3.9122572 14.569726 -200 45 -200 45 -200 45
4008767677.9463 -3.8946848 14.698077 -200 45 -200 45 -200 45
4009767794.6324 -3.8769262 14.806346 -200 45 -200 45 -200 45
4010767911.3186 -3.8602889 14.91345 -200 45 -200 45 -200 45
4011768028.0047 -3.8414543 14.972996 -200 45 -200 45 -200 45
4012768144.6908 -3.8226714 15.037428 -200 45 -200 45 -200 45
4013768261.3769 -3.7990189 15.089599 -200 45 -200 45 -200 45
4014768378.063 -3.7784591 15.132733 -200 45 -200 45 -200 45
4015768494.7491 -3.764848 15.159897 -200 45 -200 45 -200 45
4016768611.4352 -3.7443304 15.200214 -200 45 -200 45 -200 45
4017768728.1214 -3.7284427 15.203897 -200 45 -200 45 -200 45
4018768844.8075 -3.7075453 15.19216 -200 45 -200 45 -200 45
4019768961.4936 -3.6874413 15.178352 -200 45 -200 45 -200 45
4020769078.1797 -3.6671784 15.121896 -200 45 -200 45 -200 45
4021769194.8658 -3.6566191 15.081398 -200 45 -200 45 -200 45
4022769311.5519 -3.6490767 15.033805 -200 45 -200 45 -200 45
4023769428.238 -3.6384764 14.998274 -200 45 -200 45 -200 45
4024769544.9242 -3.6384311 14.978941 -200 45 -200 45 -200 45
4025769661.6103 -3.6326094 14.947946 -200 45 -200 45 -200 45
4026769778.2964 -3.6306636 14.954613 -200 45 -200 45 -200 45
4027769894.9825 -3.6235979 14.942245 -200 45 -200 45 -200 45
4028770011.6686 -3.6172779 14.923892 -200 45 -200 45 -200 45
4029770128.3547 -3.6070278 14.895783 -200 45 -200 45 -200 45
4030770245.0408 -3.6009932 14.884864 -200 45 -200 45 -200 45
4031770361.727 -3.5950103 14.895487 -200 45 -200 45 -200 45
4032770478.4131 -3.5873029 14.869725 -200 45 -200 45 -200 45
4033770595.0992 -3.5831478 14.862563 -200 45 -200 45 -200 45
4034770711.7853 -3.5710351 14.818464 -200 45 -200 45 -200 45
4035770828.4714 -3.5601711 14.777041 -200 45 -200 45 -200 45
4036770945.1575 -3.549588 14.72998 -200 45 -200 45 -200 45
4037771061.8436 -3.5431025 14.695651 -200 45 -200 45 -200 45
4038771178.5298 -3.5347009 14.64244 -200 45 -200 45 -200 45
4039771295.2159 -3.5267291 14.573495 -200 45 -200 45 -200 45
4040771411.902 -3.5271161 14.531132 -200 45 -200 45 -200 45
4041771528.5881 -3.5219588 14.446762 -200 45 -200 45 -200 45
4042771645.2742 -3.5237293 14.390325 -200 45 -200 45 -200 45
4043771761.9603 -3.5222466 14.302655 -200 45 -200 45 -200 45
4044771878.6464 -3.5192807 14.211055 -200 45 -200 45 -200 45
4045771995.3326 -3.5198212 14.127013 -200 45 -200 45 -200 45
4046772112.0187 -3.5210922 14.069104 -200 45 -200 45 -200 45
4047772228.7048 -3.5296662 14.010479 -200 45 -200 45 -200 45
4048772345.3909 -3.5358229 13.937603 -200 45 -200 45 -200 45
4049772462.077 -3.5426304 13.889792 -200 45 -200 45 -200 45
4050772578.7631 -3.5423832 13.826494 -200 45 -200 45 -200 45
4051772695.4492 -3.5458868 13.746984 -200 45 -200 45 -200 45
4052772812.1354 -3.5508881 13.680636 -200 45 -200 45 -200 45
4053772928.8215 -3.5577805 13.615525 -200 45 -200 45 -200 45
4054773045.5076 -3.571152 13.5634 -200 45 -200 45 -200 45
4055773162.1937 -3.5793986 13.50506 -200 45 -200 45 -200 45
4056773278.8798 -3.5938129 13.465828 -200 45 -200 45 -200 45
4057773395.5659 -3.6083813 13.42461 -200 45 -200 45 -200 45
4058773512.252 -3.6242974 13.376761 -200 45 -200 45 -200 45
4059773628.9382 -3.6390018 13.336497 -200 45 -200 45 -200 45
4060773745.6243 -3.6524076 13.292935 -200 45 -200 45 -200 45
4061773862.3104 -3.669595 13.250381 -200 45 -200 45 -200 45
4062773978.9965 -3.6904182 13.241097 -200 45 -200 45 -200 45
4063774095.6826 -3.7174928 13.225266 -200 45 -200 45 -200 45
4064774212.3687 -3.7428992 13.228614 -200 45 -200 45 -200 45
4065774329.0548 -3.7737823 13.25706 -200 45 -200 45 -200 45
4066774445.741 -3.7993271 13.307344 -200 45 -200 45 -200 45
4067774562.4271 -3.8297136 13.377596 -200 45 -200 45 -200 45
4068774679.1132 -3.8594201 13.540792 -200 45 -200 45 -200 45
4069774795.7993 -3.8915398 13.720269 -200 45 -200 45 -200 45
4070774912.4854 -3.9203598 13.987049 -200 45 -200 45 -200 45
4071775029.1715 -3.9393446 14.274461 -200 45 -200 45 -200 45
4072775145.8576 -3.9536831 14.630345 -200 45 -200 45 -200 45
4073775262.5438 -3.9538045 14.979826 -200 45 -200 45 -200 45
4074775379.2299 -3.9428072 15.347007 -200 45 -200 45 -200 45
4075775495.916 -3.9152305 15.655982 -200 45 -200 45 -200 45
4076775612.6021 -3.8811038 15.916276 -200 45 -200 45 -200 45
4077775729.2882 -3.8370452 16.113293 -200 45 -200 45 -200 45
4078775845.9743 -3.7936478 16.253597 -200 45 -200 45 -200 45
4079775962.6604 -3.7570963 16.317122 -200 45 -200 45 -200 45
4080776079.3466 -3.7165744 16.323885 -200 45 -200 45 -200 45
4081776196.0327 -3.6845281 16.306417 -200 45 -200 45 -200 45
4082776312.7188 -3.6475213 16.230278 -200 45 -200 45 -200 45
4083776429.4049 -3.6189239 16.145939 -200 45 -200 45 -200 45
4084776546.091 -3.5973175 16.033945 -200 45 -200 45 -200 45
4085776662.7771 -3.5828745 15.95521 -200 45 -200 45 -200 45
4086776779.4632 -3.5730875 15.862725 -200 45 -200 45 -200 45
4087776896.1494 -3.5622222 15.777408 -200 45 -200 45 -200 45
4088777012.8355 -3.5583532 15.722546 -200 45 -200 45 -200 45
4089777129.5216 -3.5534992 15.64817 -200 45 -200 45 -200 45
4090777246.2077 -3.5547698 15.617822 -200 45 -200 45 -200 45
4091777362.8938 -3.549547 15.534117 -200 45 -200 45 -200 45
4092777479.5799 -3.5465033 15.472805 -200 45 -200 45 -200 45
4093777596.266 -3.5427115 15.433825 -200 45 -200 45 -200 45
4094777712.9522 -3.540554 15.42045 -200 45 -200 45 -200 45
4095777829.6383 -3.5425954 15.382279 -200 45 -200 45 -200 45
4096777946.3244 -3.5410454 15.356915 -200 45 -200 45 -200 45
4097778063.0105 -3.5407808 15.34022 -200 45 -200 45 -200 45
4098778179.6966 -3.5354459 15.3101 -200 45 -200 45 -200 45
4099778296.3827 -3.5334656 15.297742 -200 45 -200 45 -200 45
4100778413.0688 -3.5274699 15.284613 -200 45 -200 45 -200 45
4101778529.755 -3.5286794 15.255777 -200 45 -200 45 -200 45
4102778646.4411 -3.5271976 15.276869 -200 45 -200 45 -200 45
4103778763.1272 -3.5269923 15.257853 -200 45 -200 45 -200 45
4104778879.8133 -3.5252337 15.267753 -200 45 -200 45 -200 45
4105778996.4994 -3.5235403 15.284772 -200 45 -200 45 -200 45
4106779113.1855 -3.5193205 15.311024 -200 45 -200 45 -200 45
4107779229.8716 -3.5142257 15.30093 -200 45 -200 45 -200 45
4108779346.5578 -3.5066452 15.278049 -200 45 -200 45 -200 45
4109779463.2439 -3.4966023 15.242681 -200 45 -200 45 -200 45
4110779579.93 -3.4907677 15.217208 -200 45 -200 45 -200 45
4111779696.6161 -3.4897797 15.189052 -200 45 -200 45 -200 45
4112779813.3022 -3.4835329 15.17459 -200 45 -200 45 -200 45
4113779929.9883 -3.4837883 15.124088 -200 45 -200 45 -200 45
4114780046.6744 -3.4767177 15.070153 -200 45 -200 45 -200 45
4115780163.3606 -3.4701135 15.005555 -200 45 -200 45 -200 45
4116780280.0467 -3.467387 14.959161 -200 45 -200 45 -200 45
4117780396.7328 -3.4669042 14.926824 -200 45 -200 45 -200 45
4118780513.4189 -3.4687157 14.876268 -200 45 -200 45 -200 45
4119780630.105 -3.4709101 14.859046 -200 45 -200 45 -200 45
4120780746.7911 -3.4751759 14.830687 -200 45 -200 45 -200 45
4121780863.4772 -3.4767618 14.812865 -200 45 -200 45 -200 45
4122780980.1634 -3.4801872 14.798153 -200 45 -200 45 -200 45
4123781096.8495 -3.4807336 14.739039 -200 45 -200 45 -200 45
4124781213.5356 -3.4807725 14.721244 -200 45 -200 45 -200 45
4125781330.2217 -3.4800367 14.698299 -200 45 -200 45 -200 45
4126781446.9078 -3.4827523 14.676357 -200 45 -200 45 -200 45
4127781563.5939 -3.4867592 14.665907 -200 45 -200 45 -200 45
4128781680.28 -3.4912934 14.646321 -200 45 -200 45 -200 45
4129781796.9662 -3.4960299 14.642381 -200 45 -200 45 -200 45
4130781913.6523 -3.4908745 14.610256 -200 45 -200 45 -200 45
4131782030.3384 -3.4909167 14.595913 -200 45 -200 45 -200 45
4132782147.0245 -3.4873788 14.565042 -200 45 -200 45 -200 45
4133782263.7106 -3.4929993 14.567084 -200 45 -200 45 -200 45
4134782380.3967 -3.4947793 14.553525 -200 45 -200 45 -200 45
4135782497.0828 -3.4979463 14.529442 -200 45 -200 45 -200 45
4136782613.769 -3.5006766 14.543505 -200 45 -200 45 -200 45
4137782730.4551 -3.5034828 14.538929 -200 45 -200 45 -200 45
4138782847.1412 -3.5084541 14.548059 -200 45 -200 45 -200 45
4139782963.8273 -3.5068274 14.52395 -200 45 -200 45 -200 45
4140783080.5134 -3.5091412 14.491942 -200 45 -200 45 -200 45
4141783197.1995 -3.5082521 14.4627 -200 45 -200 45 -200 45
4142783313.8856 -3.5118654 14.47091 -200 45 -200 45 -200 45
4143783430.5718 -3.5153074 14.468045 -200 45 -200 45 -200 45
4144783547.2579 -3.5201297 14.464794 -200 45 -200 45 -200 45
4145783663.944 -3.5231688 14.459678 -200 45 -200 45 -200 45
4146783780.6301 -3.5181205 14.434614 -200 45 -200 45 -200 45
4147783897.3162 -3.5154521 14.419209 -200 45 -200 45 -200 45
4148784014.0023 -3.5146513 14.395107 -200 45 -200 45 -200 45
4149784130.6884 -3.5190382 14.390051 -200 45 -200 45 -200 45
4150784247.3746 -3.5234816 14.392734 -200 45 -200 45 -200 45
4151784364.0607 -3.524673 14.383095 -200 45 -200 45 -200 45
4152784480.7468 -3.5295584 14.393847 -200 45 -200 45 -200 45
4153784597.4329 -3.5321941 14.38673 -200 45 -200 45 -200 45
4154784714.119 -3.5383337 14.392917 -200 45 -200 45 -200 45
4155784830.8051 -3.5392146 14.362102 -200 45 -200 45 -200 45
4156784947.4912 -3.5403223 14.358417 -200 45 -200 45 -200 45
4157785064.1774 -3.5368917 14.341237 -200 45 -200 45 -200 45
4158785180.8635 -3.5412462 14.340336 -200 45 -200 45 -200 45
4159785297.5496 -3.5481997 14.339826 -200 45 -200 45 -200 45
4160785414.2357 -3.5496459 14.350149 -200 45 -200 45 -200 45
4161785530.9218 -3.5511856 14.350964 -200 45 -200 45 -200 45
4162785647.6079 -3.5525074 14.330794 -200 45 -200 45 -200 45
4163785764.294 -3.5482385 14.333447 -200 45 -200 45 -200 45
4164785880.9802 -3.549305 14.301484 -200 45 -200 45 -200 45
4165785997.6663 -3.5502598 14.321598 -200 45 -200 45 -200 45
4166786114.3524 -3.5536242 14.31134 -200 45 -200 45 -200 45
4167786231.0385 -3.5575655 14.302419 -200 45 -200 45 -200 45
4168786347.7246 -3.564683 14.318295 -200 45 -200 45 -200 45
4169786464.4107 -3.5658309 14.328298 -200 45 -200 45 -200 45
4170786581.0968 -3.5725017 14.343688 -200 45 -200 45 -200 45
4171786697.783 -3.5732994 14.313496 -200 45 -200 45 -200 45
4172786814.4691 -3.5756316 14.304328 -200 45 -200 45 -200 45
4173786931.1552 -3.573925 14.311137 -200 45 -200 45 -200 45
4174787047.8413 -3.5766306 14.30902 -200 45 -200 45 -200 45
4175787164.5274 -3.5836322 14.31996 -200 45 -200 45 -200 45
4176787281.2135 -3.5869784 14.350942 -200 45 -200 45 -200 45
4177787397.8997 -3.5915222 14.339535 -200 45 -200 45 -200 45
4178787514.5858 -3.5880976 14.347514 -200 45 -200 45 -200 45
4179787631.2719 -3.5868762 14.350084 -200 45 -200 45 -200 45
4180787747.958 -3.5878313 14.343265 -200 45 -200 45 -200 45
4181787864.6441 -3.5898545 14.354543 -200 45 -200 45 -200 45
4182787981.3302 -3.5904515 14.367849 -200 45 -200 45 -200 45
4183788098.0163 -3.5899646 14.386134 -200 45 -200 45 -200 45
4184788214.7025 -3.5929263 14.397196 -200 45 -200 45 -200 45
4185788331.3886 -3.5951972 14.425507 -200 45 -200 45 -200 45
4186788448.0747 -3.6002371 14.432402 -200 45 -200 45 -200 45
4187788564.7608 -3.5961673 14.396145 -200 45 -200 45 -200 45
4188788681.4469 -3.5974631 14.40151 -200 45 -200 45 -200 45
4189788798.133 -3.5941136 14.400978 -200 45 -200 45 -200 45
4190788914.8191 -3.5956764 14.398281 -200 45 -200 45 -200 45
4191789031.5053 -3.5984762 14.406764 -200 45 -200 45 -200 45
4192789148.1914 -3.6016934 14.42407 -200 45 -200 45 -200 45
4193789264.8775 -3.6025836 14.405461 -200 45 -200 45 -200 45
4194789381.5636 -3.596417 14.406537 -200 45 -200 45 -200 45
4195789498.2497 -3.5943267 14.390951 -200 45 -200 45 -200 45
4196789614.9358 -3.592036 14.380203 -200 45 -200 45 -200 45
4197789731.6219 -3.5955396 14.375667 -200 45 -200 45 -200 45
4198789848.3081 -3.59499 14.368034 -200 45 -200 45 -200 45
4199789964.9942 -3.5987356 14.371012 -200 45 -200 45 -200 45
4200790081.6803 -3.6061995 14.384315 -200 45 -200 45 -200 45
4201790198.3664 -3.6070833 14.392923 -200 45 -200 45 -200 45
4202790315.0525 -3.6128764 14.385369 -200 45 -200 45 -200 45
4203790431.7386 -3.609859 14.374619 -200 45 -200 45 -200 45
4204790548.4247 -3.6115074 14.373882 -200 45 -200 45 -200 45
4205790665.1109 -3.6094766 14.366402 -200 45 -200 45 -200 45
4206790781.797 -3.6123316 14.363691 -200 45 -200 45 -200 45
4207790898.4831 -3.6158597 14.364057 -200 45 -200 45 -200 45
4208791015.1692 -3.620069 14.381988 -200 45 -200 45 -200 45
4209791131.8553 -3.6203959 14.376288 -200 45 -200 45 -200 45
4210791248.5414 -3.6165807 14.355541 -200 45 -200 45 -200 45
4211791365.2275 -3.6149273 14.340211 -200 45 -200 45 -200 45
4212791481.9137 -3.6134427 14.329609 -200 45 -200 45 -200 45
4213791598.5998 -3.6190941 14.332831 -200 45 -200 45 -200 45
4214791715.2859 -3.6201677 14.322756 -200 45 -200 45 -200 45
4215791831.972 -3.6247814 14.325984 -200 45 -200 45 -200 45
4216791948.6581 -3.6275613 14.33753 -200 45 -200 45 -200 45
4217792065.3442 -3.6299093 14.351521 -200 45 -200 45 -200 45
4218792182.0303 -3.6340158 14.352221 -200 45 -200 45 -200 45
4219792298.7165 -3.6354449 14.343498 -200 45 -200 45 -200 45
4220792415.4026 -3.635498 14.330215 -200 45 -200 45 -200 45
4221792532.0887 -3.6378455 14.307138 -200 45 -200 45 -200 45
4222792648.7748 -3.6398199 14.313259 -200 45 -200 45 -200 45
4223792765.4609 -3.6443155 14.318594 -200 45 -200 45 -200 45
4224792882.147 -3.6487148 14.333765 -200 45 -200 45 -200 45
4225792998.8331 -3.6517971 14.328239 -200 45 -200 45 -200 45
4226793115.5193 -3.6491046 14.310375 -200 45 -200 45 -200 45
4227793232.2054 -3.6485472 14.308912 -200 45 -200 45 -200 45
4228793348.8915 -3.6470087 14.291423 -200 45 -200 45 -200 45
4229793465.5776 -3.6562803 14.30093 -200 45 -200 45 -200 45
4230793582.2637 -3.653378 14.305404 -200 45 -200 45 -200 45
4231793698.9498 -3.6603239 14.287564 -200 45 -200 45 -200 45
4232793815.6359 -3.6655951 14.297952 -200 45 -200 45 -200 45
4233793932.3221 -3.6678665 14.303935 -200 45 -200 45 -200 45
4234794049.0082 -3.6761231 14.314269 -200 45 -200 45 -200 45
4235794165.6943 -3.6732111 14.300075 -200 45 -200 45 -200 45
4236794282.3804 -3.6769838 14.283276 -200 45 -200 45 -200 45
4237794399.0665 -3.6778324 14.288326 -200 45 -200 45 -200 45
4238794515.7526 -3.6830306 14.279542 -200 45 -200 45 -200 45
4239794632.4387 -3.6898904 14.275586 -200 45 -200 45 -200 45
4240794749.1249 -3.6950502 14.306368 -200 45 -200 45 -200 45
4241794865.811 -3.6960263 14.286674 -200 45 -200 45 -200 45
4242794982.4971 -3.6962676 14.267253 -200 45 -200 45 -200 45
4243795099.1832 -3.6990132 14.25009 -200 45 -200 45 -200 45
4244795215.8693 -3.7018218 14.232652 -200 45 -200 45 -200 45
4245795332.5554 -3.7081287 14.25844 -200 45 -200 45 -200 45
4246795449.2415 -3.7125988 14.234963 -200 45 -200 45 -200 45
4247795565.9277 -3.7183001 14.249309 -200 45 -200 45 -200 45
4248795682.6138 -3.726217 14.262641 -200 45 -200 45 -200 45
4249795799.2999 -3.7356069 14.261618 -200 45 -200 45 -200 45
4250795915.986 -3.7440915 14.267027 -200 45 -200 45 -200 45
4251796032.6721 -3.7474153 14.243484 -200 45 -200 45 -200 45
4252796149.3582 -3.7539706 14.24783 -200 45 -200 45 -200 45
4253796266.0443 -3.757884 14.254254 -200 45 -200 45 -200 45
4254796382.7305 -3.7697177 14.26082 -200 45 -200 45 -200 45
4255796499.4166 -3.7779126 14.253175 -200 45 -200 45 -200 45
4256796616.1027 -3.7923186 14.281812 -200 45 -200 45 -200 45
4257796732.7888 -3.7966492 14.290818 -200 45 -200 45 -200 45
4258796849.4749 -3.8010235 14.292789 -200 45 -200 45 -200 45
4259796966.161 -3.8107405 14.294616 -200 45 -200 45 -200 45
4260797082.8471 -3.817651 14.314263 -200 45 -200 45 -200 45
4261797199.5333 -3.8320711 14.343097 -200 45 -200 45 -200 45
4262797316.2194 -3.8431256 14.352847 -200 45 -200 45 -200 45
4263797432.9055 -3.8569221 14.404009 -200 45 -200 45 -200 45
4264797549.5916 -3.8771095 14.450056 -200 45 -200 45 -200 45
4265797666.2777 -3.8912723 14.50738 -200 45 -200 45 -200 45
4266797782.9638 -3.9080048 14.571275 -200 45 -200 45 -200 45
4267797899.6499 -3.9226892 14.640753 -200 45 -200 45 -200 45
4268798016.3361 -3.9379935 14.74501 -200 45 -200 45 -200 45
4269798133.0222 -3.9524157 14.868832 -200 45 -200 45 -200 45
4270798249.7083 -3.9685292 15.043528 -200 45 -200 45 -200 45
4271798366.3944 -3.9790444 15.240821 -200 45 -200 45 -200 45
4272798483.0805 -3.9877312 15.462981 -200 45 -200 45 -200 45
4273798599.7666 -3.9868672 15.671124 -200 45 -200 45 -200 45
4274798716.4527 -3.976053 15.88116 -200 45 -200 45 -200 45
4275798833.1389 -3.958564 16.086882 -200 45 -200 45 -200 45
4276798949.825 -3.9384546 16.256899 -200 45 -200 45 -200 45
4277799066.5111 -3.9191365 16.414589 -200 45 -200 45 -200 45
4278799183.1972 -3.8940058 16.50651 -200 45 -200 45 -200 45
4279799299.8833 -3.8686843 16.597305 -200 45 -200 45 -200 45
4280799416.5694 -3.8482814 16.664391 -200 45 -200 45 -200 45
4281799533.2555 -3.8262858 16.696924 -200 45 -200 45 -200 45
4282799649.9417 -3.8063138 16.712999 -200 45 -200 45 -200 45
4283799766.6278 -3.7831817 16.688694 -200 45 -200 45 -200 45
4284799883.3139 -3.7662477 16.658875 -200 45 -200 45 -200 45
4285800000 -3.7491448 16.622879 -200 45 -200 45 -200 45
4286800116.6861 -3.7378037 16.595947 -200 45 -200 45 -200 45
4287800233.3722 -3.7262414 16.557596 -200 45 -200 45 -200 45
4288800350.0583 -3.7204704 16.51634 -200 45 -200 45 -200 45
4289800466.7445 -3.7099185 16.474735 -200 45 -200 45 -200 45
4290800583.4306 -3.6976452 16.42205 -200 45 -200 45 -200 45
4291800700.1167 -3.6906297 16.365185 -200 45 -200 45 -200 45
4292800816.8028 -3.6847959 16.338942 -200 45 -200 45 -200 45
4293800933.4889 -3.682899 16.314486 -200 45 -200 45 -200 45
4294801050.175 -3.6787322 16.277683 -200 45 -200 45 -200 45
4295801166.8611 -3.6771545 16.261274 -200 45 -200 45 -200 45
4296801283.5473 -3.6772172 16.25786 -200 45 -200 45 -200 45
4297801400.2334 -3.6754408 16.259708 -200 45 -200 45 -200 45
4298801516.9195 -3.6722734 16.234663 -200 45 -200 45 -200 45
4299801633.6056 -3.6664529 16.207777 -200 45 -200 45 -200 45
4300801750.2917 -3.6607978 16.190376 -200 45 -200 45 -200 45
4301801866.9778 -3.6544373 16.17366 -200 45 -200 45 -200 45
4302801983.6639 -3.6520271 16.150255 -200 45 -200 45 -200 45
4303802100.3501 -3.6492279 16.13884 -200 45 -200 45 -200 45
4304802217.0362 -3.6507084 16.115471 -200 45 -200 45 -200 45
4305802333.7223 -3.6432085 16.09688 -200 45 -200 45 -200 45
4306802450.4084 -3.6366751 16.043119 -200 45 -200 45 -200 45
4307802567.0945 -3.6313024 16.000416 -200 45 -200 45 -200 45
4308802683.7806 -3.6279931 15.961533 -200 45 -200 45 -200 45
4309802800.4667 -3.6298313 15.941257 -200 45 -200 45 -200 45
4310802917.1529 -3.6254714 15.909613 -200 45 -200 45 -200 45
4311803033.839 -3.6310046 15.879812 -200 45 -200 45 -200 45
4312803150.5251 -3.6304543 15.880516 -200 45 -200 45 -200 45
4313803267.2112 -3.6323636 15.853619 -200 45 -200 45 -200 45
4314803383.8973 -3.6331015 15.818415 -200 45 -200 45 -200 45
4315803500.5834 -3.6322019 15.789733 -200 45 -200 45 -200 45
4316803617.2695 -3.6319568 15.768402 -200 45 -200 45 -200 45
4317803733.9557 -3.6322687 15.757144 -200 45 -200 45 -200 45
4318803850.6418 -3.6339109 15.735333 -200 45 -200 45 -200 45
4319803967.3279 -3.6379535 15.727523 -200 45 -200 45 -200 45
4320804084.014 -3.6409576 15.721515 -200 45 -200 45 -200 45
4321804200.7001 -3.6397846 15.694593 -200 45 -200 45 -200 45
4322804317.3862 -3.6358175 15.658064 -200 45 -200 45 -200 45
4323804434.0723 -3.6367836 15.644728 -200 45 -200 45 -200 45
4324804550.7585 -3.6349635 15.635735 -200 45 -200 45 -200 45
4325804667.4446 -3.6391957 15.632134 -200 45 -200 45 -200 45
4326804784.1307 -3.6401017 15.600468 -200 45 -200 45 -200 45
4327804900.8168 -3.6446035 15.606911 -200 45 -200 45 -200 45
4328805017.5029 -3.6456566 15.606146 -200 45 -200 45 -200 45
4329805134.189 -3.6468966 15.604578 -200 45 -200 45 -200 45
4330805250.8751 -3.649703 15.600631 -200 45 -200 45 -200 45
4331805367.5613 -3.6516356 15.573849 -200 45 -200 45 -200 45
4332805484.2474 -3.6481719 15.566473 -200 45 -200 45 -200 45
4333805600.9335 -3.6490664 15.550195 -200 45 -200 45 -200 45
4334805717.6196 -3.654228 15.557293 -200 45 -200 45 -200 45
4335805834.3057 -3.6570573 15.546933 -200 45 -200 45 -200 45
4336805950.9918 -3.6618564 15.563387 -200 45 -200 45 -200 45
4337806067.6779 -3.6597242 15.549454 -200 45 -200 45 -200 45
4338806184.3641 -3.6568501 15.53803 -200 45 -200 45 -200 45
4339806301.0502 -3.6566579 15.517934 -200 45 -200 45 -200 45
4340806417.7363 -3.6561539 15.519076 -200 45 -200 45 -200 45
4341806534.4224 -3.6611347 15.521304 -200 45 -200 45 -200 45
4342806651.1085 -3.6612098 15.507492 -200 45 -200 45 -200 45
4343806767.7946 -3.6653075 15.512089 -200 45 -200 45 -200 45
4344806884.4807 -3.6676824 15.528924 -200 45 -200 45 -200 45
4345807001.1669 -3.6741192 15.543259 -200 45 -200 45 -200 45
4346807117.853 -3.675077 15.529588 -200 45 -200 45 -200 45
4347807234.5391 -3.6737072 15.511836 -200 45 -200 45 -200 45
4348807351.2252 -3.6765068 15.509369 -200 45 -200 45 -200 45
4349807467.9113 -3.6754634 15.526239 -200 45 -200 45 -200 45
4350807584.5974 -3.6778584 15.521915 -200 45 -200 45 -200 45
4351807701.2835 -3.6807017 15.517321 -200 45 -200 45 -200 45
4352807817.9697 -3.6840672 15.532348 -200 45 -200 45 -200 45
4353807934.6558 -3.684504 15.535102 -200 45 -200 45 -200 45
4354808051.3419 -3.6802132 15.532035 -200 45 -200 45 -200 45
4355808168.028 -3.677618 15.515888 -200 45 -200 45 -200 45
4356808284.7141 -3.680022 15.504645 -200 45 -200 45 -200 45
4357808401.4002 -3.6804609 15.508175 -200 45 -200 45 -200 45
4358808518.0863 -3.6822782 15.516493 -200 45 -200 45 -200 45
4359808634.7725 -3.6884291 15.512525 -200 45 -200 45 -200 45
4360808751.4586 -3.6896064 15.520425 -200 45 -200 45 -200 45
4361808868.1447 -3.6931491 15.520519 -200 45 -200 45 -200 45
4362808984.8308 -3.693083 15.522345 -200 45 -200 45 -200 45
4363809101.5169 -3.6926596 15.510665 -200 45 -200 45 -200 45
4364809218.203 -3.6933625 15.494529 -200 45 -200 45 -200 45
4365809334.8891 -3.69489 15.481435 -200 45 -200 45 -200 45
4366809451.5753 -3.6950777 15.492486 -200 45 -200 45 -200 45
4367809568.2614 -3.699333 15.497595 -200 45 -200 45 -200 45
4368809684.9475 -3.7043204 15.518142 -200 45 -200 45 -200 45
4369809801.6336 -3.7033329 15.491175 -200 45 -200 45 -200 45
4370809918.3197 -3.7005765 15.490985 -200 45 -200 45 -200 45
4371810035.0058 -3.6988821 15.472319 -200 45 -200 45 -200 45
4372810151.6919 -3.7040572 15.467616 -200 45 -200 45 -200 45
4373810268.3781 -3.7067683 15.471885 -200 45 -200 45 -200 45
4374810385.0642 -3.7076101 15.454857 -200 45 -200 45 -200 45
4375810501.7503 -3.7134752 15.457393 -200 45 -200 45 -200 45
4376810618.4364 -3.7183669 15.468058 -200 45 -200 45 -200 45
4377810735.1225 -3.7230582 15.478903 -200 45 -200 45 -200 45
4378810851.8086 -3.7231014 15.452314 -200 45 -200 45 -200 45
4379810968.4947 -3.7230778 15.439144 -200 45 -200 45 -200 45
4380811085.1809 -3.7239237 15.435098 -200 45 -200 45 -200 45
4381811201.867 -3.7268226 15.436405 -200 45 -200 45 -200 45
4382811318.5531 -3.7353129 15.421453 -200 45 -200 45 -200 45
4383811435.2392 -3.7384093 15.427028 -200 45 -200 45 -200 45
4384811551.9253 -3.7446241 15.437302 -200 45 -200 45 -200 45
4385811668.6114 -3.7431302 15.420582 -200 45 -200 45 -200 45
4386811785.2976 -3.7430115 15.411519 -200 45 -200 45 -200 45
4387811901.9837 -3.7448437 15.396242 -200 45 -200 45 -200 45
4388812018.6698 -3.7496307 15.39016 -200 45 -200 45 -200 45
4389812135.3559 -3.7587044 15.409967 -200 45 -200 45 -200 45
4390812252.042 -3.7600453 15.393406 -200 45 -200 45 -200 45
4391812368.7281 -3.7688503 15.407068 -200 45 -200 45 -200 45
4392812485.4142 -3.7756488 15.41292 -200 45 -200 45 -200 45
4393812602.1004 -3.7879376 15.405626 -200 45 -200 45 -200 45
4394812718.7865 -3.7930241 15.422743 -200 45 -200 45 -200 45
4395812835.4726 -3.8000247 15.442414 -200 45 -200 45 -200 45
4396812952.1587 -3.8095124 15.459408 -200 45 -200 45 -200 45
4397813068.8448 -3.817121 15.481925 -200 45 -200 45 -200 45
4398813185.5309 -3.8301048 15.549938 -200 45 -200 45 -200 45
4399813302.217 -3.8394821 15.605688 -200 45 -200 45 -200 45
4400813418.9032 -3.8502152 15.702192 -200 45 -200 45 -200 45
4401813535.5893 -3.8511474 15.767449 -200 45 -200 45 -200 45
4402813652.2754 -3.8502865 15.870691 -200 45 -200 45 -200 45
4403813768.9615 -3.8467495 15.967505 -200 45 -200 45 -200 45
4404813885.6476 -3.8447845 16.065388 -200 45 -200 45 -200 45
4405814002.3337 -3.8375227 16.163536 -200 45 -200 45 -200 45
4406814119.0198 -3.8292785 16.240936 -200 45 -200 45 -200 45
4407814235.706 -3.8189285 16.300259 -200 45 -200 45 -200 45
4408814352.3921 -3.8088758 16.330109 -200 45 -200 45 -200 45
4409814469.0782 -3.8015084 16.367058 -200 45 -200 45 -200 45
4410814585.7643 -3.792011 16.376781 -200 45 -200 45 -200 45
4411814702.4504 -3.7824168 16.35461 -200 45 -200 45 -200 45
4412814819.1365 -3.7720447 16.331289 -200 45 -200 45 -200 45
4413814935.8226 -3.7675848 16.31477 -200 45 -200 45 -200 45
4414815052.5088 -3.7648473 16.311985 -200 45 -200 45 -200 45
4415815169.1949 -3.7617538 16.292042 -200 45 -200 45 -200 45
4416815285.881 -3.7603178 16.280134 -200 45 -200 45 -200 45
4417815402.5671 -3.75454 16.263628 -200 45 -200 45 -200 45
4418815519.2532 -3.7476611 16.227066 -200 45 -200 45 -200 45
4419815635.9393 -3.7451847 16.210428 -200 45 -200 45 -200 45
4420815752.6254 -3.744175 16.198574 -200 45 -200 45 -200 45
4421815869.3116 -3.7477565 16.188438 -200 45 -200 45 -200 45
4422815985.9977 -3.7457044 16.170736 -200 45 -200 45 -200 45
4423816102.6838 -3.7485991 16.173361 -200 45 -200 45 -200 45
4424816219.3699 -3.7496705 16.181023 -200 45 -200 45 -200 45
4425816336.056 -3.7542799 16.180359 -200 45 -200 45 -200 45
4426816452.7421 -3.7513227 16.189903 -200 45 -200 45 -200 45
4427816569.4282 -3.7483497 16.172747 -200 45 -200 45 -200 45
4428816686.1144 -3.7486887 16.166073 -200 45 -200 45 -200 45
4429816802.8005 -3.7447598 16.190838 -200 45 -200 45 -200 45
4430816919.4866 -3.7472358 16.199236 -200 45 -200 45 -200 45
4431817036.1727 -3.7466967 16.201082 -200 45 -200 45 -200 45
4432817152.8588 -3.7441721 16.207533 -200 45 -200 45 -200 45
4433817269.5449 -3.7394099 16.193884 -200 45 -200 45 -200 45
4434817386.231 -3.732152 16.163754 -200 45 -200 45 -200 45
4435817502.9172 -3.7293921 16.159512 -200 45 -200 45 -200 45
4436817619.6033 -3.7271957 16.144876 -200 45 -200 45 -200 45
4437817736.2894 -3.7286544 16.141256 -200 45 -200 45 -200 45
4438817852.9755 -3.7254431 16.113264 -200 45 -200 45 -200 45
4439817969.6616 -3.7300498 16.113968 -200 45 -200 45 -200 45
4440818086.3477 -3.7287071 16.112175 -200 45 -200 45 -200 45
4441818203.0338 -3.7317879 16.087723 -200 45 -200 45 -200 45
4442818319.72 -3.7323108 16.067806 -200 45 -200 45 -200 45
4443818436.4061 -3.7300415 16.030222 -200 45 -200 45 -200 45
4444818553.0922 -3.72928 16.008003 -200 45 -200 45 -200 45
4445818669.7783 -3.7314126 15.998583 -200 45 -200 45 -200 45
4446818786.4644 -3.7366183 15.999797 -200 45 -200 45 -200 45
4447818903.1505 -3.7380428 15.991389 -200 45 -200 45 -200 45
4448819019.8366 -3.7414465 15.992245 -200 45 -200 45 -200 45
4449819136.5228 -3.7352033 15.95837 -200 45 -200 45 -200 45
4450819253.2089 -3.7341864 15.946477 -200 45 -200 45 -200 45
4451819369.895 -3.7326868 15.924809 -200 45 -200 45 -200 45
4452819486.5811 -3.7370968 15.924809 -200 45 -200 45 -200 45
4453819603.2672 -3.7397401 15.916439 -200 45 -200 45 -200 45
4454819719.9533 -3.7433074 15.906469 -200 45 -200 45 -200 45
4455819836.6394 -3.7474613 15.906775 -200 45 -200 45 -200 45
4456819953.3256 -3.7500007 15.903867 -200 45 -200 45 -200 45
4457820070.0117 -3.756129 15.909755 -200 45 -200 45 -200 45
4458820186.6978 -3.7550046 15.894695 -200 45 -200 45 -200 45
4459820303.3839 -3.7588797 15.871 -200 45 -200 45 -200 45
4460820420.07 -3.7550933 15.859079 -200 45 -200 45 -200 45
4461820536.7561 -3.7623727 15.871784 -200 45 -200 45 -200 45
4462820653.4422 -3.7661903 15.876961 -200 45 -200 45 -200 45
4463820770.1284 -3.7705958 15.881419 -200 45 -200 45 -200 45
4464820886.8145 -3.7734962 15.888426 -200 45 -200 45 -200 45
4465821003.5006 -3.7696579 15.880527 -200 45 -200 45 -200 45
4466821120.1867 -3.7702849 15.86334 -200 45 -200 45 -200 45
4467821236.8728 -3.7709789 15.85151 -200 45 -200 45 -200 45
4468821353.5589 -3.7758422 15.859917 -200 45 -200 45 -200 45
4469821470.245 -3.778795 15.860932 -200 45 -200 45 -200 45
4470821586.9312 -3.7817714 15.861514 -200 45 -200 45 -200 45
4471821703.6173 -3.7879794 15.883873 -200 45 -200 45 -200 45
4472821820.3034 -3.7899892 15.89356 -200 45 -200 45 -200 45
4473821936.9895 -3.7933817 15.924919 -200 45 -200 45 -200 45
4474822053.6756 -3.7961557 15.907385 -200 45 -200 45 -200 45
4475822170.3617 -3.7947822 15.912226 -200 45 -200 45 -200 45
4476822287.0478 -3.7936718 15.9147 -200 45 -200 45 -200 45
4477822403.734 -3.7949986 15.909493 -200 45 -200 45 -200 45
4478822520.4201 -3.8017907 15.932894 -200 45 -200 45 -200 45
4479822637.1062 -3.803055 15.938966 -200 45 -200 45 -200 45
4480822753.7923 -3.8054383 15.952138 -200 45 -200 45 -200 45
4481822870.4784 -3.8029547 15.929781 -200 45 -200 45 -200 45
4482822987.1645 -3.8018336 15.941653 -200 45 -200 45 -200 45
4483823103.8506 -3.7970996 15.914581 -200 45 -200 45 -200 45
4484823220.5368 -3.8028519 15.922111 -200 45 -200 45 -200 45
4485823337.2229 -3.8056822 15.90969 -200 45 -200 45 -200 45
4486823453.909 -3.8071682 15.911447 -200 45 -200 45 -200 45
4487823570.5951 -3.8117323 15.903355 -200 45 -200 45 -200 45
4488823687.2812 -3.8150027 15.902608 -200 45 -200 45 -200 45
4489823803.9673 -3.8199461 15.90659 -200 45 -200 45 -200 45
4490823920.6534 -3.8224699 15.883076 -200 45 -200 45 -200 45
4491824037.3396 -3.823473 15.876853 -200 45 -200 45 -200 45
4492824154.0257 -3.8224695 15.862356 -200 45 -200 45 -200 45
4493824270.7118 -3.8271959 15.867447 -200 45 -200 45 -200 45
4494824387.3979 -3.8344245 15.867102 -200 45 -200 45 -200 45
4495824504.084 -3.8377512 15.858438 -200 45 -200 45 -200 45
4496824620.7701 -3.8436263 15.850127 -200 45 -200 45 -200 45
4497824737.4562 -3.8413758 15.850926 -200 45 -200 45 -200 45
4498824854.1424 -3.842797 15.837232 -200 45 -200 45 -200 45
4499824970.8285 -3.8451898 15.811528 -200 45 -200 45 -200 45
4500825087.5146 -3.8506463 15.826976 -200 45 -200 45 -200 45
4501825204.2007 -3.8571479 15.834851 -200 45 -200 45 -200 45
4502825320.8868 -3.8612385 15.817719 -200 45 -200 45 -200 45
4503825437.5729 -3.8710096 15.832253 -200 45 -200 45 -200 45
4504825554.259 -3.8757634 15.84913 -200 45 -200 45 -200 45
4505825670.9452 -3.8850946 15.851566 -200 45 -200 45 -200 45
4506825787.6313 -3.8860211 15.86584 -200 45 -200 45 -200 45
4507825904.3174 -3.8915904 15.854992 -200 45 -200 45 -200 45
4508826021.0035 -3.895237 15.867264 -200 45 -200 45 -200 45
4509826137.6896 -3.9016879 15.896256 -200 45 -200 45 -200 45
4510826254.3757 -3.909936 15.914136 -200 45 -200 45 -200 45
4511826371.0618 -3.9177217 15.947112 -200 45 -200 45 -200 45
4512826487.748 -3.9219849 15.99439 -200 45 -200 45 -200 45
4513826604.4341 -3.9200678 15.982786 -200 45 -200 45 -200 45
4514826721.1202 -3.9209769 16.019449 -200 45 -200 45 -200 45
4515826837.8063 -3.9188142 16.046314 -200 45 -200 45 -200 45
4516826954.4924 -3.9240413 16.07737 -200 45 -200 45 -200 45
4517827071.1785 -3.9234734 16.083473 -200 45 -200 45 -200 45
4518827187.8646 -3.9258616 16.094423 -200 45 -200 45 -200 45
4519827304.5508 -3.9285457 16.123333 -200 45 -200 45 -200 45
4520827421.2369 -3.9289401 16.134277 -200 45 -200 45 -200 45
4521827537.923 -3.9340243 16.133747 -200 45 -200 45 -200 45
4522827654.6091 -3.9333553 16.113852 -200 45 -200 45 -200 45
4523827771.2952 -3.9324245 16.090956 -200 45 -200 45 -200 45
4524827887.9813 -3.9339132 16.079161 -200 45 -200 45 -200 45
4525828004.6674 -3.9368277 16.074518 -200 45 -200 45 -200 45
4526828121.3536 -3.9432943 16.064035 -200 45 -200 45 -200 45
4527828238.0397 -3.951113 16.038805 -200 45 -200 45 -200 45
4528828354.7258 -3.958317 16.020781 -200 45 -200 45 -200 45
4529828471.4119 -3.961693 15.995023 -200 45 -200 45 -200 45
4530828588.098 -3.9675035 15.979808 -200 45 -200 45 -200 45
4531828704.7841 -3.9761884 15.943018 -200 45 -200 45 -200 45
4532828821.4702 -3.9913456 15.944036 -200 45 -200 45 -200 45
4533828938.1564 -4.0039039 15.940183 -200 45 -200 45 -200 45
4534829054.8425 -4.0182605 15.947088 -200 45 -200 45 -200 45
4535829171.5286 -4.0366549 15.974614 -200 45 -200 45 -200 45
4536829288.2147 -4.0578632 16.011261 -200 45 -200 45 -200 45
4537829404.9008 -4.0775113 16.046719 -200 45 -200 45 -200 45
4538829521.5869 -4.0933976 16.111233 -200 45 -200 45 -200 45
4539829638.273 -4.1164031 16.202843 -200 45 -200 45 -200 45
4540829754.9592 -4.1331 16.287199 -200 45 -200 45 -200 45
4541829871.6453 -4.1573896 16.456553 -200 45 -200 45 -200 45
4542829988.3314 -4.174325 16.642601 -200 45 -200 45 -200 45
4543830105.0175 -4.1911392 16.867504 -200 45 -200 45 -200 45
4544830221.7036 -4.1967602 17.093269 -200 45 -200 45 -200 45
4545830338.3897 -4.1919966 17.320349 -200 45 -200 45 -200 45
4546830455.0758 -4.1832809 17.549841 -200 45 -200 45 -200 45
4547830571.762 -4.167398 17.790203 -200 45 -200 45 -200 45
4548830688.4481 -4.1474528 17.984434 -200 45 -200 45 -200 45
4549830805.1342 -4.1244702 18.134947 -200 45 -200 45 -200 45
4550830921.8203 -4.0988793 18.272562 -200 45 -200 45 -200 45
4551831038.5064 -4.0739756 18.364733 -200 45 -200 45 -200 45
4552831155.1925 -4.0496092 18.423876 -200 45 -200 45 -200 45
4553831271.8786 -4.0265307 18.44677 -200 45 -200 45 -200 45
4554831388.5648 -4.0027895 18.447321 -200 45 -200 45 -200 45
4555831505.2509 -3.9837492 18.421015 -200 45 -200 45 -200 45
4556831621.937 -3.9649725 18.394815 -200 45 -200 45 -200 45
4557831738.6231 -3.9513991 18.366392 -200 45 -200 45 -200 45
4558831855.3092 -3.9390492 18.342541 -200 45 -200 45 -200 45
4559831971.9953 -3.9306712 18.322151 -200 45 -200 45 -200 45
4560832088.6814 -3.9171956 18.285004 -200 45 -200 45 -200 45
4561832205.3676 -3.904314 18.251101 -200 45 -200 45 -200 45
4562832322.0537 -3.8967903 18.188107 -200 45 -200 45 -200 45
4563832438.7398 -3.8903544 18.14687 -200 45 -200 45 -200 45
4564832555.4259 -3.8865166 18.115324 -200 45 -200 45 -200 45
4565832672.112 -3.8847358 18.081533 -200 45 -200 45 -200 45
4566832788.7981 -3.8816016 18.060181 -200 45 -200 45 -200 45
4567832905.4842 -3.8826985 18.052576 -200 45 -200 45 -200 45
4568833022.1704 -3.8811941 18.046 -200 45 -200 45 -200 45
4569833138.8565 -3.885421 18.048264 -200 45 -200 45 -200 45
4570833255.5426 -3.8823543 18.022987 -200 45 -200 45 -200 45
4571833372.2287 -3.8788106 18.040781 -200 45 -200 45 -200 45
4572833488.9148 -3.8755808 18.039835 -200 45 -200 45 -200 45
4573833605.6009 -3.8757222 18.054312 -200 45 -200 45 -200 45
4574833722.287 -3.8754556 18.089577 -200 45 -200 45 -200 45
4575833838.9732 -3.8736401 18.112959 -200 45 -200 45 -200 45
4576833955.6593 -3.870142 18.129217 -200 45 -200 45 -200 45
4577834072.3454 -3.8572676 18.133307 -200 45 -200 45 -200 45
4578834189.0315 -3.8509412 18.144423 -200 45 -200 45 -200 45
4579834305.7176 -3.8409688 18.146999 -200 45 -200 45 -200 45
4580834422.4037 -3.8414402 18.156107 -200 45 -200 45 -200 45
4581834539.0898 -3.8290479 18.167303 -200 45 -200 45 -200 45
4582834655.776 -3.8236351 18.163635 -200 45 -200 45 -200 45
4583834772.4621 -3.8184667 18.142363 -200 45 -200 45 -200 45
4584834889.1482 -3.8102951 18.138456 -200 45 -200 45 -200 45
4585835005.8343 -3.8085365 18.113592 -200 45 -200 45 -200 45
4586835122.5204 -3.799228 18.076509 -200 45 -200 45 -200 45
4587835239.2065 -3.7949474 18.0326 -200 45 -200 45 -200 45
4588835355.8926 -3.7862909 17.993637 -200 45 -200 45 -200 45
4589835472.5788 -3.7832894 17.953712 -200 45 -200 45 -200 45
4590835589.2649 -3.7824705 17.919683 -200 45 -200 45 -200 45
4591835705.951 -3.7831588 17.901323 -200 45 -200 45 -200 45
4592835822.6371 -3.7827702 17.872265 -200 45 -200 45 -200 45
4593835939.3232 -3.7728033 17.806969 -200 45 -200 45 -200 45
4594836056.0093 -3.7721059 17.785465 -200 45 -200 45 -200 45
4595836172.6954 -3.771059 17.751129 -200 45 -200 45 -200 45
4596836289.3816 -3.7756524 17.711136 -200 45 -200 45 -200 45
4597836406.0677 -3.7759738 17.6726 -200 45 -200 45 -200 45
4598836522.7538 -3.7781093 17.668686 -200 45 -200 45 -200 45
4599836639.4399 -3.779752 17.631214 -200 45 -200 45 -200 45
4600836756.126 -3.7850161 17.639387 -200 45 -200 45 -200 45
4601836872.8121 -3.7881639 17.613256 -200 45 -200 45 -200 45
4602836989.4983 -3.7859879 17.578539 -200 45 -200 45 -200 45
4603837106.1844 -3.7870955 17.552326 -200 45 -200 45 -200 45
4604837222.8705 -3.7864306 17.541071 -200 45 -200 45 -200 45
4605837339.5566 -3.7893088 17.53561 -200 45 -200 45 -200 45
4606837456.2427 -3.7951317 17.511656 -200 45 -200 45 -200 45
4607837572.9288 -3.7991273 17.514795 -200 45 -200 45 -200 45
4608837689.6149 -3.799248 17.497419 -200 45 -200 45 -200 45
4609837806.3011 -3.7948463 17.460285 -200 45 -200 45 -200 45
4610837922.9872 -3.7944996 17.452377 -200 45 -200 45 -200 45
4611838039.6733 -3.7947288 17.435205 -200 45 -200 45 -200 45
4612838156.3594 -3.7993031 17.431471 -200 45 -200 45 -200 45
4613838273.0455 -3.8005881 17.423935 -200 45 -200 45 -200 45
4614838389.7316 -3.8041754 17.416916 -200 45 -200 45 -200 45
4615838506.4177 -3.8068936 17.404789 -200 45 -200 45 -200 45
4616838623.1039 -3.8078129 17.416109 -200 45 -200 45 -200 45
4617838739.79 -3.8140233 17.419018 -200 45 -200 45 -200 45
4618838856.4761 -3.8132536 17.374678 -200 45 -200 45 -200 45
4619838973.1622 -3.8148201 17.381248 -200 45 -200 45 -200 45
4620839089.8483 -3.8144245 17.383183 -200 45 -200 45 -200 45
4621839206.5344 -3.8164079 17.390924 -200 45 -200 45 -200 45
4622839323.2205 -3.8220146 17.390881 -200 45 -200 45 -200 45
4623839439.9067 -3.8282332 17.406076 -200 45 -200 45 -200 45
4624839556.5928 -3.8256681 17.406055 -200 45 -200 45 -200 45
4625839673.2789 -3.8208592 17.381859 -200 45 -200 45 -200 45
4626839789.965 -3.8219056 17.382366 -200 45 -200 45 -200 45
4627839906.6511 -3.8230572 17.36503 -200 45 -200 45 -200 45
4628840023.3372 -3.8259902 17.380083 -200 45 -200 45 -200 45
4629840140.0233 -3.8250277 17.367197 -200 45 -200 45 -200 45
4630840256.7095 -3.8260581 17.369654 -200 45 -200 45 -200 45
4631840373.3956 -3.8328581 17.373386 -200 45 -200 45 -200 45
4632840490.0817 -3.8337245 17.39295 -200 45 -200 45 -200 45
4633840606.7678 -3.8375463 17.384134 -200 45 -200 45 -200 45
4634840723.4539 -3.8382835 17.371592 -200 45 -200 45 -200 45
4635840840.14 -3.8380215 17.364405 -200 45 -200 45 -200 45
4636840956.8261 -3.8368425 17.353031 -200 45 -200 45 -200 45
4637841073.5123 -3.8393967 17.353197 -200 45 -200 45 -200 45
4638841190.1984 -3.8413546 17.357189 -200 45 -200 45 -200 45
4639841306.8845 -3.8443058 17.384508 -200 45 -200 45 -200 45
4640841423.5706 -3.8438234 17.361357 -200 45 -200 45 -200 45
4641841540.2567 -3.8396006 17.342043 -200 45 -200 45 -200 45
4642841656.9428 -3.8386376 17.334135 -200 45 -200 45 -200 45
4643841773.6289 -3.8374796 17.327381 -200 45 -200 45 -200 45
4644841890.3151 -3.8423424 17.333221 -200 45 -200 45 -200 45
4645842007.0012 -3.8436038 17.330509 -200 45 -200 45 -200 45
4646842123.6873 -3.845624 17.320976 -200 45 -200 45 -200 45
4647842240.3734 -3.8471909 17.332077 -200 45 -200 45 -200 45
4648842357.0595 -3.8531601 17.342644 -200 45 -200 45 -200 45
4649842473.7456 -3.8548813 17.344193 -200 45 -200 45 -200 45
4650842590.4317 -3.8541985 17.339083 -200 45 -200 45 -200 45
4651842707.1179 -3.8546443 17.331411 -200 45 -200 45 -200 45
4652842823.804 -3.8527768 17.307449 -200 45 -200 45 -200 45
4653842940.4901 -3.8592103 17.315668 -200 45 -200 45 -200 45
4654843057.1762 -3.8609538 17.325033 -200 45 -200 45 -200 45
4655843173.8623 -3.8666847 17.335287 -200 45 -200 45 -200 45
4656843290.5484 -3.8629353 17.331053 -200 45 -200 45 -200 45
4657843407.2345 -3.8584151 17.315599 -200 45 -200 45 -200 45
4658843523.9207 -3.8599138 17.30027 -200 45 -200 45 -200 45
4659843640.6068 -3.860584 17.299816 -200 45 -200 45 -200 45
4660843757.2929 -3.8613002 17.31151 -200 45 -200 45 -200 45
4661843873.979 -3.8631384 17.309237 -200 45 -200 45 -200 45
4662843990.6651 -3.8685913 17.312368 -200 45 -200 45 -200 45
4663844107.3512 -3.8713224 17.330624 -200 45 -200 45 -200 45
4664844224.0373 -3.8758729 17.349649 -200 45 -200 45 -200 45
4665844340.7235 -3.8771 17.347578 -200 45 -200 45 -200 45
4666844457.4096 -3.8804622 17.322348 -200 45 -200 45 -200 45
4667844574.0957 -3.8802872 17.327188 -200 45 -200 45 -200 45
4668844690.7818 -3.8787184 17.339937 -200 45 -200 45 -200 45
4669844807.4679 -3.8845859 17.34746 -200 45 -200 45 -200 45
4670844924.154 -3.8845 17.348339 -200 45 -200 45 -200 45
4671845040.8401 -3.8896923 17.367918 -200 45 -200 45 -200 45
4672845157.5263 -3.8870718 17.355606 -200 45 -200 45 -200 45
4673845274.2124 -3.8840775 17.353497 -200 45 -200 45 -200 45
4674845390.8985 -3.8838952 17.350725 -200 45 -200 45 -200 45
4675845507.5846 -3.8823874 17.33522 -200 45 -200 45 -200 45
4676845624.2707 -3.8887591 17.362957 -200 45 -200 45 -200 45
4677845740.9568 -3.886477 17.344353 -200 45 -200 45 -200 45
4678845857.6429 -3.8907928 17.368025 -200 45 -200 45 -200 45
4679845974.3291 -3.8946466 17.369066 -200 45 -200 45 -200 45
4680846091.0152 -3.8979297 17.4032 -200 45 -200 45 -200 45
4681846207.7013 -3.9016421 17.397821 -200 45 -200 45 -200 45
4682846324.3874 -3.8994279 17.382784 -200 45 -200 45 -200 45
4683846441.0735 -3.9012372 17.383282 -200 45 -200 45 -200 45
4684846557.7596 -3.901026 17.395058 -200 45 -200 45 -200 45
4685846674.4457 -3.9061387 17.404291 -200 45 -200 45 -200 45
4686846791.1319 -3.9105589 17.405361 -200 45 -200 45 -200 45
4687846907.818 -3.9132452 17.432486 -200 45 -200 45 -200 45
4688847024.5041 -3.9168425 17.411013 -200 45 -200 45 -200 45
4689847141.1902 -3.9102666 17.408098 -200 45 -200 45 -200 45
4690847257.8763 -3.9110405 17.430944 -200 45 -200 45 -200 45
4691847374.5624 -3.9143019 17.420809 -200 45 -200 45 -200 45
4692847491.2485 -3.9171429 17.463749 -200 45 -200 45 -200 45
4693847607.9347 -3.9196229 17.459293 -200 45 -200 45 -200 45
4694847724.6208 -3.9260745 17.487387 -200 45 -200 45 -200 45
4695847841.3069 -3.9277604 17.50511 -200 45 -200 45 -200 45
4696847957.993 -3.9349985 17.544449 -200 45 -200 45 -200 45
4697848074.6791 -3.9356561 17.561579 -200 45 -200 45 -200 45
4698848191.3652 -3.9364045 17.554317 -200 45 -200 45 -200 45
4699848308.0513 -3.9364839 17.587904 -200 45 -200 45 -200 45
4700848424.7375 -3.9359527 17.623354 -200 45 -200 45 -200 45
4701848541.4236 -3.9409087 17.6535 -200 45 -200 45 -200 45
4702848658.1097 -3.9424295 17.683411 -200 45 -200 45 -200 45
4703848774.7958 -3.9409781 17.721361 -200 45 -200 45 -200 45
4704848891.4819 -3.9372971 17.749327 -200 45 -200 45 -200 45
4705849008.168 -3.9313567 17.758293 -200 45 -200 45 -200 45
4706849124.8541 -3.926863 17.770905 -200 45 -200 45 -200 45
4707849241.5403 -3.9218452 17.771957 -200 45 -200 45 -200 45
4708849358.2264 -3.9223175 17.798939 -200 45 -200 45 -200 45
4709849474.9125 -3.9176705 17.802338 -200 45 -200 45 -200 45
4710849591.5986 -3.9202201 17.839516 -200 45 -200 45 -200 45
4711849708.2847 -3.9188735 17.838902 -200 45 -200 45 -200 45
4712849824.9708 -3.9222088 17.841097 -200 45 -200 45 -200 45
4713849941.6569 -3.9188359 17.835018 -200 45 -200 45 -200 45
4714850058.3431 -3.9175749 17.830359 -200 45 -200 45 -200 45
4715850175.0292 -3.9137313 17.829376 -200 45 -200 45 -200 45
4716850291.7153 -3.9133556 17.818214 -200 45 -200 45 -200 45
4717850408.4014 -3.9169002 17.815376 -200 45 -200 45 -200 45
4718850525.0875 -3.9148486 17.832159 -200 45 -200 45 -200 45
4719850641.7736 -3.9206407 17.836226 -200 45 -200 45 -200 45
4720850758.4597 -3.9150655 17.814251 -200 45 -200 45 -200 45
4721850875.1459 -3.9088368 17.808861 -200 45 -200 45 -200 45
4722850991.832 -3.9077435 17.78747 -200 45 -200 45 -200 45
4723851108.5181 -3.9091349 17.785276 -200 45 -200 45 -200 45
4724851225.2042 -3.9105103 17.796225 -200 45 -200 45 -200 45
4725851341.8903 -3.9105022 17.787584 -200 45 -200 45 -200 45
4726851458.5764 -3.9117763 17.78945 -200 45 -200 45 -200 45
4727851575.2625 -3.9130797 17.791309 -200 45 -200 45 -200 45
4728851691.9487 -3.91675 17.804033 -200 45 -200 45 -200 45
4729851808.6348 -3.9175508 17.78908 -200 45 -200 45 -200 45
4730851925.3209 -3.9142008 17.788792 -200 45 -200 45 -200 45
4731852042.007 -3.9127858 17.767719 -200 45 -200 45 -200 45
4732852158.6931 -3.9138093 17.771889 -200 45 -200 45 -200 45
4733852275.3792 -3.917393 17.772013 -200 45 -200 45 -200 45
4734852392.0653 -3.9190562 17.763237 -200 45 -200 45 -200 45
4735852508.7515 -3.9229665 17.776529 -200 45 -200 45 -200 45
4736852625.4376 -3.9192624 17.767733 -200 45 -200 45 -200 45
4737852742.1237 -3.9149857 17.746714 -200 45 -200 45 -200 45
4738852858.8098 -3.9142528 17.734489 -200 45 -200 45 -200 45
4739852975.4959 -3.9145188 17.738901 -200 45 -200 45 -200 45
4740853092.182 -3.9182405 17.736183 -200 45 -200 45 -200 45
4741853208.8681 -3.917717 17.722845 -200 45 -200 45 -200 45
4742853325.5543 -3.9246767 17.73687 -200 45 -200 45 -200 45
4743853442.2404 -3.9259939 17.736956 -200 45 -200 45 -200 45
4744853558.9265 -3.9313424 17.748253 -200 45 -200 45 -200 45
4745853675.6126 -3.9311864 17.745354 -200 45 -200 45 -200 45
4746853792.2987 -3.9317698 17.726725 -200 45 -200 45 -200 45
4747853908.9848 -3.9303136 17.725231 -200 45 -200 45 -200 45
4748854025.6709 -3.9314933 17.724773 -200 45 -200 45 -200 45
4749854142.3571 -3.9373047 17.723572 -200 45 -200 45 -200 45
4750854259.0432 -3.9385192 17.738453 -200 45 -200 45 -200 45
4751854375.7293 -3.9412649 17.746599 -200 45 -200 45 -200 45
4752854492.4154 -3.939656 17.729273 -200 45 -200 45 -200 45
4753854609.1015 -3.9361737 17.720459 -200 45 -200 45 -200 45
4754854725.7876 -3.9352288 17.710783 -200 45 -200 45 -200 45
4755854842.4737 -3.9356484 17.717215 -200 45 -200 45 -200 45
4756854959.1599 -3.9418342 17.71188 -200 45 -200 45 -200 45
4757855075.846 -3.9406674 17.716024 -200 45 -200 45 -200 45
4758855192.5321 -3.9462621 17.718956 -200 45 -200 45 -200 45
4759855309.2182 -3.9478214 17.719265 -200 45 -200 45 -200 45
4760855425.9043 -3.9527955 17.737379 -200 45 -200 45 -200 45
4761855542.5904 -3.951453 17.736193 -200 45 -200 45 -200 45
4762855659.2765 -3.9525177 17.716465 -200 45 -200 45 -200 45
4763855775.9627 -3.9523704 17.719856 -200 45 -200 45 -200 45
4764855892.6488 -3.9537928 17.721558 -200 45 -200 45 -200 45
4765856009.3349 -3.958858 17.731394 -200 45 -200 45 -200 45
4766856126.021 -3.9596961 17.724186 -200 45 -200 45 -200 45
4767856242.7071 -3.9628971 17.749048 -200 45 -200 45 -200 45
4768856359.3932 -3.9621348 17.743195 -200 45 -200 45 -200 45
4769856476.0793 -3.9582758 17.725246 -200 45 -200 45 -200 45
4770856592.7655 -3.9564102 17.726576 -200 45 -200 45 -200 45
4771856709.4516 -3.9599895 17.725863 -200 45 -200 45 -200 45
4772856826.1377 -3.9630299 17.728537 -200 45 -200 45 -200 45
4773856942.8238 -3.962775 17.719488 -200 45 -200 45 -200 45
4774857059.5099 -3.9690611 17.727032 -200 45 -200 45 -200 45
4775857176.196 -3.9708574 17.748081 -200 45 -200 45 -200 45
4776857292.8821 -3.9750996 17.769573 -200 45 -200 45 -200 45
4777857409.5683 -3.9756324 17.754744 -200 45 -200 45 -200 45
4778857526.2544 -3.9741406 17.752588 -200 45 -200 45 -200 45
4779857642.9405 -3.9750857 17.744535 -200 45 -200 45 -200 45
4780857759.6266 -3.9770625 17.750181 -200 45 -200 45 -200 45
4781857876.3127 -3.9826009 17.763649 -200 45 -200 45 -200 45
4782857992.9988 -3.9825282 17.77673 -200 45 -200 45 -200 45
4783858109.6849 -3.9877472 17.772772 -200 45 -200 45 -200 45
4784858226.3711 -3.9853973 17.777203 -200 45 -200 45 -200 45
4785858343.0572 -3.9817641 17.768391 -200 45 -200 45 -200 45
4786858459.7433 -3.9797952 17.745726 -200 45 -200 45 -200 45
4787858576.4294 -3.981801 17.75741 -200 45 -200 45 -200 45
4788858693.1155 -3.9844341 17.766371 -200 45 -200 45 -200 45
4789858809.8016 -3.9868901 17.760405 -200 45 -200 45 -200 45
4790858926.4877 -3.9922454 17.783833 -200 45 -200 45 -200 45
4791859043.1739 -3.9933238 17.781973 -200 45 -200 45 -200 45
4792859159.86 -3.995558 17.802094 -200 45 -200 45 -200 45
4793859276.5461 -3.9970808 17.794035 -200 45 -200 45 -200 45
4794859393.2322 -3.9981887 17.789288 -200 45 -200 45 -200 45
4795859509.9183 -3.997483 17.799995 -200 45 -200 45 -200 45
4796859626.6044 -4.001955 17.809175 -200 45 -200 45 -200 45
4797859743.2905 -4.0069299 17.830477 -200 45 -200 45 -200 45
4798859859.9767 -4.0097642 17.850142 -200 45 -200 45 -200 45
4799859976.6628 -4.0131321 17.868473 -200 45 -200 45 -200 45
4800860093.3489 -4.0101843 17.866655 -200 45 -200 45 -200 45
4801860210.035 -4.0087438 17.877827 -200 45 -200 45 -200 45
4802860326.7211 -4.0085659 17.897408 -200 45 -200 45 -200 45
4803860443.4072 -4.010323 17.909315 -200 45 -200 45 -200 45
4804860560.0933 -4.012857 17.93791 -200 45 -200 45 -200 45
4805860676.7795 -4.0121484 17.958994 -200 45 -200 45 -200 45
4806860793.4656 -4.0168581 17.986521 -200 45 -200 45 -200 45
4807860910.1517 -4.0140858 18.007891 -200 45 -200 45 -200 45
4808861026.8378 -4.0166297 18.026861 -200 45 -200 45 -200 45
4809861143.5239 -4.0128984 18.033075 -200 45 -200 45 -200 45
4810861260.21 -4.0107813 18.019764 -200 45 -200 45 -200 45
4811861376.8961 -4.0068278 18.049063 -200 45 -200 45 -200 45
4812861493.5823 -4.0098424 18.0341 -200 45 -200 45 -200 45
4813861610.2684 -4.011806 18.04841 -200 45 -200 45 -200 45
4814861726.9545 -4.0088291 18.054688 -200 45 -200 45 -200 45
4815861843.6406 -4.0133038 18.065048 -200 45 -200 45 -200 45
4816861960.3267 -4.0077314 18.043537 -200 45 -200 45 -200 45
4817862077.0128 -4.0044036 18.016577 -200 45 -200 45 -200 45
4818862193.6989 -4.000761 18.01412 -200 45 -200 45 -200 45
4819862310.3851 -4.0017247 18.030651 -200 45 -200 45 -200 45
4820862427.0712 -4.0059857 18.031233 -200 45 -200 45 -200 45
4821862543.7573 -4.0077519 18.025093 -200 45 -200 45 -200 45
4822862660.4434 -4.0102344 18.044218 -200 45 -200 45 -200 45
4823862777.1295 -4.0112901 18.052971 -200 45 -200 45 -200 45
4824862893.8156 -4.0152192 18.061144 -200 45 -200 45 -200 45
4825863010.5018 -4.0144343 18.0406 -200 45 -200 45 -200 45
4826863127.1879 -4.0155144 18.038774 -200 45 -200 45 -200 45
4827863243.874 -4.0142813 18.045271 -200 45 -200 45 -200 45
4828863360.5601 -4.0144429 18.047085 -200 45 -200 45 -200 45
4829863477.2462 -4.0205345 18.068087 -200 45 -200 45 -200 45
4830863593.9323 -4.0239096 18.08474 -200 45 -200 45 -200 45
4831863710.6184 -4.0224257 18.067425 -200 45 -200 45 -200 45
4832863827.3046 -4.0202165 18.042181 -200 45 -200 45 -200 45
4833863943.9907 -4.0208569 18.050259 -200 45 -200 45 -200 45
4834864060.6768 -4.0172138 18.040283 -200 45 -200 45 -200 45
4835864177.3629 -4.0215516 18.04372 -200 45 -200 45 -200 45
4836864294.049 -4.0234504 18.053038 -200 45 -200 45 -200 45
4837864410.7351 -4.0228143 18.044582 -200 45 -200 45 -200 45
4838864527.4212 -4.0305257 18.064516 -200 45 -200 45 -200 45
4839864644.1074 -4.0314674 18.074339 -200 45 -200 45 -200 45
4840864760.7935 -4.0369749 18.076227 -200 45 -200 45 -200 45
4841864877.4796 -4.0376101 18.060236 -200 45 -200 45 -200 45
4842864994.1657 -4.0375981 18.060511 -200 45 -200 45 -200 45
4843865110.8518 -4.0334768 18.048586 -200 45 -200 45 -200 45
4844865227.5379 -4.0381212 18.055359 -200 45 -200 45 -200 45
4845865344.224 -4.0427384 18.061012 -200 45 -200 45 -200 45
4846865460.9102 -4.045485 18.083195 -200 45 -200 45 -200 45
4847865577.5963 -4.0456204 18.083246 -200 45 -200 45 -200 45
4848865694.2824 -4.0427346 18.080585 -200 45 -200 45 -200 45
4849865810.9685 -4.0416679 18.060564 -200 45 -200 45 -200 45
4850865927.6546 -4.0385399 18.063272 -200 45 -200 45 -200 45
4851866044.3407 -4.0424442 18.052788 -200 45 -200 45 -200 45
4852866161.0268 -4.0453472 18.067858 -200 45 -200 45 -200 45
4853866277.713 -4.04705 18.052422 -200 45 -200 45 -200 45
4854866394.3991 -4.0536923 18.089539 -200 45 -200 45 -200 45
4855866511.0852 -4.0562301 18.081852 -200 45 -200 45 -200 45
4856866627.7713 -4.0585642 18.085783 -200 45 -200 45 -200 45
4857866744.4574 -4.061728 18.085333 -200 45 -200 45 -200 45
4858866861.1435 -4.0610695 18.08473 -200 45 -200 45 -200 45
4859866977.8296 -4.0598092 18.071411 -200 45 -200 45 -200 45
4860867094.5158 -4.0628476 18.060291 -200 45 -200 45 -200 45
4861867211.2019 -4.0684824 18.075193 -200 45 -200 45 -200 45
4862867327.888 -4.0716243 18.08971 -200 45 -200 45 -200 45
4863867444.5741 -4.0742688 18.09761 -200 45 -200 45 -200 45
4864867561.2602 -4.0683546 18.071098 -200 45 -200 45 -200 45
4865867677.9463 -4.0695529 18.082367 -200 45 -200 45 -200 45
4866867794.6324 -4.071321 18.071974 -200 45 -200 45 -200 45
4867867911.3186 -4.0737309 18.077965 -200 45 -200 45 -200 45
4868868028.0047 -4.0765896 18.067492 -200 45 -200 45 -200 45
4869868144.6908 -4.0764246 18.068571 -200 45 -200 45 -200 45
4870868261.3769 -4.0826678 18.087381 -200 45 -200 45 -200 45
4871868378.063 -4.086329 18.097166 -200 45 -200 45 -200 45
4872868494.7491 -4.0912271 18.119694 -200 45 -200 45 -200 45
4873868611.4352 -4.0915103 18.10058 -200 45 -200 45 -200 45
4874868728.1214 -4.0933652 18.087931 -200 45 -200 45 -200 45
4875868844.8075 -4.0922265 18.099987 -200 45 -200 45 -200 45
4876868961.4936 -4.0967693 18.113373 -200 45 -200 45 -200 45
4877869078.1797 -4.1013312 18.099138 -200 45 -200 45 -200 45
4878869194.8658 -4.1068521 18.119917 -200 45 -200 45 -200 45
4879869311.5519 -4.1073194 18.114714 -200 45 -200 45 -200 45
4880869428.238 -4.1045685 18.113552 -200 45 -200 45 -200 45
4881869544.9242 -4.1054592 18.103003 -200 45 -200 45 -200 45
4882869661.6103 -4.1051903 18.097183 -200 45 -200 45 -200 45
4883869778.2964 -4.1096845 18.107723 -200 45 -200 45 -200 45
4884869894.9825 -4.1120524 18.114504 -200 45 -200 45 -200 45
4885870011.6686 -4.1157436 18.114429 -200 45 -200 45 -200 45
4886870128.3547 -4.1237087 18.143843 -200 45 -200 45 -200 45
4887870245.0408 -4.1235867 18.150482 -200 45 -200 45 -200 45
4888870361.727 -4.131238 18.163809 -200 45 -200 45 -200 45
4889870478.4131 -4.1335788 18.16576 -200 45 -200 45 -200 45
4890870595.0992 -4.1340036 18.158342 -200 45 -200 45 -200 45
4891870711.7853 -4.1361237 18.176136 -200 45 -200 45 -200 45
4892870828.4714 -4.1400146 18.183361 -200 45 -200 45 -200 45
4893870945.1575 -4.1493502 18.214516 -200 45 -200 45 -200 45
4894871061.8436 -4.1531649 18.23488 -200 45 -200 45 -200 45
4895871178.5298 -4.156352 18.243961 -200 45 -200 45 -200 45
4896871295.2159 -4.1521282 18.271339 -200 45 -200 45 -200 45
4897871411.902 -4.1565557 18.283651 -200 45 -200 45 -200 45
4898871528.5881 -4.1551747 18.310171 -200 45 -200 45 -200 45
4899871645.2742 -4.1617208 18.335579 -200 45 -200 45 -200 45
4900871761.9603 -4.1633492 18.37327 -200 45 -200 45 -200 45
4901871878.6464 -4.1648293 18.41868 -200 45 -200 45 -200 45
4902871995.3326 -4.1688004 18.449013 -200 45 -200 45 -200 45
4903872112.0187 -4.1705866 18.48661 -200 45 -200 45 -200 45
4904872228.7048 -4.1731324 18.533714 -200 45 -200 45 -200 45
4905872345.3909 -4.1681185 18.541801 -200 45 -200 45 -200 45
4906872462.077 -4.1655617 18.562729 -200 45 -200 45 -200 45
4907872578.7631 -4.1625156 18.603849 -200 45 -200 45 -200 45
4908872695.4492 -4.1603684 18.615473 -200 45 -200 45 -200 45
4909872812.1354 -4.1600552 18.651037 -200 45 -200 45 -200 45
4910872928.8215 -4.1604238 18.680981 -200 45 -200 45 -200 45
4911873045.5076 -4.154038 18.701975 -200 45 -200 45 -200 45
4912873162.1937 -4.1470661 18.697298 -200 45 -200 45 -200 45
4913873278.8798 -4.143198 18.695589 -200 45 -200 45 -200 45
4914873395.5659 -4.1367736 18.68989 -200 45 -200 45 -200 45
4915873512.252 -4.1356387 18.709835 -200 45 -200 45 -200 45
4916873628.9382 -4.1348729 18.699106 -200 45 -200 45 -200 45
4917873745.6243 -4.1342335 18.697664 -200 45 -200 45 -200 45
4918873862.3104 -4.1358414 18.721823 -200 45 -200 45 -200 45
4919873978.9965 -4.1348624 18.725752 -200 45 -200 45 -200 45
4920874095.6826 -4.1368098 18.716396 -200 45 -200 45 -200 45
4921874212.3687 -4.1353951 18.689259 -200 45 -200 45 -200 45
4922874329.0548 -4.1318264 18.70071 -200 45 -200 45 -200 45
4923874445.741 -4.1295719 18.686989 -200 45 -200 45 -200 45
4924874562.4271 -4.1312714 18.681074 -200 45 -200 45 -200 45
4925874679.1132 -4.1356812 18.698431 -200 45 -200 45 -200 45
4926874795.7993 -4.1365004 18.70645 -200 45 -200 45 -200 45
4927874912.4854 -4.1356821 18.685749 -200 45 -200 45 -200 45
4928875029.1715 -4.1309667 18.670101 -200 45 -200 45 -200 45
4929875145.8576 -4.1322889 18.674145 -200 45 -200 45 -200 45
4930875262.5438 -4.1305008 18.66128 -200 45 -200 45 -200 45
4931875379.2299 -4.1309028 18.657429 -200 45 -200 45 -200 45
4932875495.916 -4.1328702 18.646645 -200 45 -200 45 -200 45
4933875612.6021 -4.1365047 18.657207 -200 45 -200 45 -200 45
4934875729.2882 -4.1381965 18.681812 -200 45 -200 45 -200 45
4935875845.9743 -4.1398373 18.693344 -200 45 -200 45 -200 45
4936875962.6604 -4.143301 18.685839 -200 45 -200 45 -200 45
4937876079.3466 -4.1422706 18.677288 -200 45 -200 45 -200 45
4938876196.0327 -4.1432099 18.66959 -200 45 -200 45 -200 45
4939876312.7188 -4.1427217 18.663588 -200 45 -200 45 -200 45
4940876429.4049 -4.1459222 18.671677 -200 45 -200 45 -200 45
4941876546.091 -4.1501904 18.691343 -200 45 -200 45 -200 45
4942876662.7771 -4.1524606 18.704262 -200 45 -200 45 -200 45
4943876779.4632 -4.1521797 18.678015 -200 45 -200 45 -200 45
4944876896.1494 -4.1473651 18.679474 -200 45 -200 45 -200 45
4945877012.8355 -4.146821 18.674175 -200 45 -200 45 -200 45
4946877129.5216 -4.1489167 18.65176 -200 45 -200 45 -200 45
4947877246.2077 -4.1507301 18.668163 -200 45 -200 45 -200 45
4948877362.8938 -4.1530371 18.678673 -200 45 -200 45 -200 45
4949877479.5799 -4.1521378 18.680496 -200 45 -200 45 -200 45
4950877596.266 -4.1554766 18.686136 -200 45 -200 45 -200 45
4951877712.9522 -4.1560664 18.719946 -200 45 -200 45 -200 45
4952877829.6383 -4.1589656 18.708221 -200 45 -200 45 -200 45
4953877946.3244 -4.1597228 18.692123 -200 45 -200 45 -200 45
4954878063.0105 -4.1609678 18.678265 -200 45 -200 45 -200 45
4955878179.6966 -4.1604896 18.672905 -200 45 -200 45 -200 45
4956878296.3827 -4.1632824 18.691267 -200 45 -200 45 -200 45
4957878413.0688 -4.1656485 18.673422 -200 45 -200 45 -200 45
4958878529.755 -4.1678605 18.698519 -200 45 -200 45 -200 45
4959878646.4411 -4.169476 18.69095 -200 45 -200 45 -200 45
4960878763.1272 -4.1632895 18.655502 -200 45 -200 45 -200 45
4961878879.8133 -4.1631722 18.651823 -200 45 -200 45 -200 45
4962878996.4994 -4.1632104 18.659008 -200 45 -200 45 -200 45
4963879113.1855 -4.1699767 18.644257 -200 45 -200 45 -200 45
4964879229.8716 -4.1680722 18.62993 -200 45 -200 45 -200 45
4965879346.5578 -4.1749172 18.644203 -200 45 -200 45 -200 45
4966879463.2439 -4.1779151 18.643108 -200 45 -200 45 -200 45
4967879579.93 -4.1822171 18.661303 -200 45 -200 45 -200 45
4968879696.6161 -4.1861734 18.660126 -200 45 -200 45 -200 45
4969879813.3022 -4.1845484 18.641052 -200 45 -200 45 -200 45
4970879929.9883 -4.1850014 18.641106 -200 45 -200 45 -200 45
4971880046.6744 -4.185679 18.625269 -200 45 -200 45 -200 45
4972880163.3606 -4.1905303 18.631092 -200 45 -200 45 -200 45
4973880280.0467 -4.1949525 18.644377 -200 45 -200 45 -200 45
4974880396.7328 -4.1994576 18.661392 -200 45 -200 45 -200 45
4975880513.4189 -4.2000618 18.631649 -200 45 -200 45 -200 45
4976880630.105 -4.1934133 18.625193 -200 45 -200 45 -200 45
4977880746.7911 -4.1980062 18.61797 -200 45 -200 45 -200 45
4978880863.4772 -4.1970892 18.620209 -200 45 -200 45 -200 45
4979880980.1634 -4.2007508 18.599649 -200 45 -200 45 -200 45
4980881096.8495 -4.2040663 18.607704 -200 45 -200 45 -200 45
4981881213.5356 -4.2079635 18.607613 -200 45 -200 45 -200 45
4982881330.2217 -4.2116666 18.604967 -200 45 -200 45 -200 45
4983881446.9078 -4.2172308 18.620264 -200 45 -200 45 -200 45
4984881563.5939 -4.221673 18.61195 -200 45 -200 45 -200 45
4985881680.28 -4.2225494 18.594217 -200 45 -200 45 -200 45
4986881796.9662 -4.2228556 18.581518 -200 45 -200 45 -200 45
4987881913.6523 -4.2245193 18.568718 -200 45 -200 45 -200 45
4988882030.3384 -4.2301035 18.568655 -200 45 -200 45 -200 45
4989882147.0245 -4.2334399 18.569374 -200 45 -200 45 -200 45
4990882263.7106 -4.2403135 18.591988 -200 45 -200 45 -200 45
4991882380.3967 -4.2403445 18.574562 -200 45 -200 45 -200 45
4992882497.0828 -4.237124 18.56477 -200 45 -200 45 -200 45
4993882613.769 -4.239543 18.548857 -200 45 -200 45 -200 45
4994882730.4551 -4.2412376 18.543413 -200 45 -200 45 -200 45
4995882847.1412 -4.2482152 18.526115 -200 45 -200 45 -200 45
4996882963.8273 -4.251265 18.511051 -200 45 -200 45 -200 45
4997883080.5134 -4.2553687 18.52969 -200 45 -200 45 -200 45
4998883197.1995 -4.261405 18.532429 -200 45 -200 45 -200 45
4999883313.8856 -4.2692137 18.530823 -200 45 -200 45 -200 45
5000883430.5718 -4.2720242 18.517563 -200 45 -200 45 -200 45
5001883547.2579 -4.2754622 18.512922 -200 45 -200 45 -200 45
5002883663.944 -4.2766533 18.505028 -200 45 -200 45 -200 45
5003883780.6301 -4.2842679 18.506491 -200 45 -200 45 -200 45
5004883897.3162 -4.2899561 18.508448 -200 45 -200 45 -200 45
5005884014.0023 -4.2968197 18.512775 -200 45 -200 45 -200 45
5006884130.6884 -4.3009863 18.519007 -200 45 -200 45 -200 45
5007884247.3746 -4.3002076 18.498034 -200 45 -200 45 -200 45
5008884364.0607 -4.304081 18.489727 -200 45 -200 45 -200 45
5009884480.7468 -4.3068738 18.487789 -200 45 -200 45 -200 45
5010884597.4329 -4.3154173 18.491074 -200 45 -200 45 -200 45
5011884714.119 -4.3200769 18.494802 -200 45 -200 45 -200 45
5012884830.8051 -4.3298101 18.49156 -200 45 -200 45 -200 45
5013884947.4912 -4.3375449 18.519819 -200 45 -200 45 -200 45
5014885064.1774 -4.3435202 18.52392 -200 45 -200 45 -200 45
5015885180.8635 -4.34939 18.542995 -200 45 -200 45 -200 45
5016885297.5496 -4.3560686 18.516006 -200 45 -200 45 -200 45
5017885414.2357 -4.3615265 18.532547 -200 45 -200 45 -200 45
5018885530.9218 -4.3678174 18.556732 -200 45 -200 45 -200 45
5019885647.6079 -4.3790793 18.562551 -200 45 -200 45 -200 45
5020885764.294 -4.3878551 18.59697 -200 45 -200 45 -200 45
5021885880.9802 -4.3978515 18.635605 -200 45 -200 45 -200 45
5022885997.6663 -4.4028864 18.624752 -200 45 -200 45 -200 45
5023886114.3524 -4.4077525 18.655993 -200 45 -200 45 -200 45
5024886231.0385 -4.4130917 18.678501 -200 45 -200 45 -200 45
5025886347.7246 -4.4222159 18.711739 -200 45 -200 45 -200 45
5026886464.4107 -4.433691 18.761347 -200 45 -200 45 -200 45
5027886581.0968 -4.4429607 18.795504 -200 45 -200 45 -200 45
5028886697.783 -4.4548993 18.868267 -200 45 -200 45 -200 45
5029886814.4691 -4.4653349 18.935238 -200 45 -200 45 -200 45
5030886931.1552 -4.4744716 18.997896 -200 45 -200 45 -200 45
5031887047.8413 -4.4839702 19.085825 -200 45 -200 45 -200 45
5032887164.5274 -4.4907851 19.170366 -200 45 -200 45 -200 45
5033887281.2135 -4.496376 19.237803 -200 45 -200 45 -200 45
5034887397.8997 -4.5021296 19.375422 -200 45 -200 45 -200 45
5035887514.5858 -4.5068069 19.48772 -200 45 -200 45 -200 45
5036887631.2719 -4.5091972 19.610388 -200 45 -200 45 -200 45
5037887747.958 -4.5093741 19.742807 -200 45 -200 45 -200 45
5038887864.6441 -4.5004768 19.837666 -200 45 -200 45 -200 45
5039887981.3302 -4.4919615 19.95002 -200 45 -200 45 -200 45
5040888098.0163 -4.4837775 20.042337 -200 45 -200 45 -200 45
5041888214.7025 -4.47335 20.128069 -200 45 -200 45 -200 45
5042888331.3886 -4.4639177 20.21538 -200 45 -200 45 -200 45
5043888448.0747 -4.4493833 20.274992 -200 45 -200 45 -200 45
5044888564.7608 -4.4388518 20.335096 -200 45 -200 45 -200 45
5045888681.4469 -4.4271979 20.35553 -200 45 -200 45 -200 45
5046888798.133 -4.4182291 20.399021 -200 45 -200 45 -200 45
5047888914.8191 -4.4045272 20.409916 -200 45 -200 45 -200 45
5048889031.5053 -4.3945594 20.403851 -200 45 -200 45 -200 45
5049889148.1914 -4.3815637 20.388037 -200 45 -200 45 -200 45
5050889264.8775 -4.3738785 20.370707 -200 45 -200 45 -200 45
5051889381.5636 -4.370358 20.366299 -200 45 -200 45 -200 45
5052889498.2497 -4.3650637 20.36257 -200 45 -200 45 -200 45
5053889614.9358 -4.3622279 20.341177 -200 45 -200 45 -200 45
5054889731.6219 -4.3528714 20.296522 -200 45 -200 45 -200 45
5055889848.3081 -4.3453746 20.264681 -200 45 -200 45 -200 45
5056889964.9942 -4.3391733 20.229801 -200 45 -200 45 -200 45
5057890081.6803 -4.3425403 20.205816 -200 45 -200 45 -200 45
5058890198.3664 -4.3403277 20.182444 -200 45 -200 45 -200 45
5059890315.0525 -4.3429012 20.152929 -200 45 -200 45 -200 45
5060890431.7386 -4.3469296 20.150396 -200 45 -200 45 -200 45
5061890548.4247 -4.3519011 20.121588 -200 45 -200 45 -200 45
5062890665.1109 -4.3576212 20.115522 -200 45 -200 45 -200 45
5063890781.797 -4.3570514 20.10762 -200 45 -200 45 -200 45
5064890898.4831 -4.3668475 20.08268 -200 45 -200 45 -200 45
5065891015.1692 -4.3676038 20.084089 -200 45 -200 45 -200 45
5066891131.8553 -4.3762121 20.09186 -200 45 -200 45 -200 45
5067891248.5414 -4.3848591 20.132786 -200 45 -200 45 -200 45
5068891365.2275 -4.3932457 20.151596 -200 45 -200 45 -200 45
5069891481.9137 -4.3957963 20.1929 -200 45 -200 45 -200 45
5070891598.5998 -4.3972282 20.212473 -200 45 -200 45 -200 45
5071891715.2859 -4.3992991 20.272827 -200 45 -200 45 -200 45
5072891831.972 -4.4005318 20.335686 -200 45 -200 45 -200 45
5073891948.6581 -4.4029818 20.394022 -200 45 -200 45 -200 45
5074892065.3442 -4.4008236 20.442101 -200 45 -200 45 -200 45
5075892182.0303 -4.4037466 20.513855 -200 45 -200 45 -200 45
5076892298.7165 -4.3994379 20.583878 -200 45 -200 45 -200 45
5077892415.4026 -4.3962517 20.637825 -200 45 -200 45 -200 45
5078892532.0887 -4.3890867 20.683556 -200 45 -200 45 -200 45
5079892648.7748 -4.3835883 20.735329 -200 45 -200 45 -200 45
5080892765.4609 -4.3766055 20.76144 -200 45 -200 45 -200 45
5081892882.147 -4.3665175 20.795834 -200 45 -200 45 -200 45
5082892998.8331 -4.362185 20.821404 -200 45 -200 45 -200 45
5083893115.5193 -4.3549318 20.850449 -200 45 -200 45 -200 45
5084893232.2054 -4.3478975 20.861298 -200 45 -200 45 -200 45
5085893348.8915 -4.3376284 20.862364 -200 45 -200 45 -200 45
5086893465.5776 -4.3252854 20.850998 -200 45 -200 45 -200 45
5087893582.2637 -4.3152418 20.825291 -200 45 -200 45 -200 45
5088893698.9498 -4.3097382 20.801201 -200 45 -200 45 -200 45
5089893815.6359 -4.3039932 20.784241 -200 45 -200 45 -200 45
5090893932.3221 -4.2954779 20.770195 -200 45 -200 45 -200 45
5091894049.0082 -4.2959642 20.736431 -200 45 -200 45 -200 45
5092894165.6943 -4.2944789 20.710484 -200 45 -200 45 -200 45
5093894282.3804 -4.2907429 20.687273 -200 45 -200 45 -200 45
5094894399.0665 -4.2877703 20.660982 -200 45 -200 45 -200 45
5095894515.7526 -4.2834334 20.604448 -200 45 -200 45 -200 45
5096894632.4387 -4.2815437 20.571323 -200 45 -200 45 -200 45
5097894749.1249 -4.28265 20.547312 -200 45 -200 45 -200 45
5098894865.811 -4.2858553 20.524878 -200 45 -200 45 -200 45
5099894982.4971 -4.2837868 20.488762 -200 45 -200 45 -200 45
5100895099.1832 -4.2872682 20.47402 -200 45 -200 45 -200 45
5101895215.8693 -4.2802796 20.427004 -200 45 -200 45 -200 45
5102895332.5554 -4.2813668 20.407326 -200 45 -200 45 -200 45
5103895449.2415 -4.2802091 20.35536 -200 45 -200 45 -200 45
5104895565.9277 -4.2814221 20.356209 -200 45 -200 45 -200 45
5105895682.6138 -4.2844748 20.310467 -200 45 -200 45 -200 45
5106895799.2999 -4.2850599 20.303137 -200 45 -200 45 -200 45
5107895915.986 -4.2889824 20.302174 -200 45 -200 45 -200 45
5108896032.6721 -4.2912259 20.283991 -200 45 -200 45 -200 45
5109896149.3582 -4.2954164 20.267267 -200 45 -200 45 -200 45
5110896266.0443 -4.2963414 20.230219 -200 45 -200 45 -200 45
5111896382.7305 -4.2971315 20.199862 -200 45 -200 45 -200 45
5112896499.4166 -4.2983389 20.170486 -200 45 -200 45 -200 45
5113896616.1027 -4.301631 20.157076 -200 45 -200 45 -200 45
5114896732.7888 -4.3079143 20.148188 -200 45 -200 45 -200 45
5115896849.4749 -4.3122368 20.120525 -200 45 -200 45 -200 45
5116896966.161 -4.3146853 20.105125 -200 45 -200 45 -200 45
5117897082.8471 -4.3135195 20.05456 -200 45 -200 45 -200 45
5118897199.5333 -4.3164935 20.03858 -200 45 -200 45 -200 45
5119897316.2194 -4.3192883 20.011776 -200 45 -200 45 -200 45
5120897432.9055 -4.3251238 19.993193 -200 45 -200 45 -200 45
5121897549.5916 -4.3302336 19.967646 -200 45 -200 45 -200 45
5122897666.2777 -4.338912 19.950804 -200 45 -200 45 -200 45
5123897782.9638 -4.3486276 19.959074 -200 45 -200 45 -200 45
5124897899.6499 -4.3553777 19.950695 -200 45 -200 45 -200 45
5125898016.3361 -4.3683586 19.952032 -200 45 -200 45 -200 45
5126898133.0222 -4.3763433 19.935034 -200 45 -200 45 -200 45
5127898249.7083 -4.3828897 19.945684 -200 45 -200 45 -200 45
5128898366.3944 -4.3895087 19.961828 -200 45 -200 45 -200 45
5129898483.0805 -4.4049144 20.014164 -200 45 -200 45 -200 45
5130898599.7666 -4.414701 20.03476 -200 45 -200 45 -200 45
5131898716.4527 -4.4258385 20.116974 -200 45 -200 45 -200 45
5132898833.1389 -4.4288149 20.152145 -200 45 -200 45 -200 45
5133898949.825 -4.4286699 20.211876 -200 45 -200 45 -200 45
5134899066.5111 -4.4311404 20.287148 -200 45 -200 45 -200 45
5135899183.1972 -4.4283152 20.35713 -200 45 -200 45 -200 45
5136899299.8833 -4.4290824 20.435759 -200 45 -200 45 -200 45
5137899416.5694 -4.4247122 20.496822 -200 45 -200 45 -200 45
5138899533.2555 -4.4232211 20.567598 -200 45 -200 45 -200 45
5139899649.9417 -4.4202313 20.632515 -200 45 -200 45 -200 45
5140899766.6278 -4.4154048 20.690805 -200 45 -200 45 -200 45
5141899883.3139 -4.4090624 20.710001 -200 45 -200 45 -200 45
5142900000 -4.3995256 20.705734 -200 45 -200 45 -200 45
5143900116.6861 -4.3910365 20.734119 -200 45 -200 45 -200 45
5144900233.3722 -4.3820829 20.751675 -200 45 -200 45 -200 45
5145900350.0583 -4.3821487 20.761362 -200 45 -200 45 -200 45
5146900466.7445 -4.3756757 20.749132 -200 45 -200 45 -200 45
5147900583.4306 -4.3713222 20.756235 -200 45 -200 45 -200 45
5148900700.1167 -4.3625951 20.725155 -200 45 -200 45 -200 45
5149900816.8028 -4.3553066 20.70573 -200 45 -200 45 -200 45
5150900933.4889 -4.3499832 20.676758 -200 45 -200 45 -200 45
5151901050.175 -4.3466902 20.652864 -200 45 -200 45 -200 45
5152901166.8611 -4.3452306 20.629625 -200 45 -200 45 -200 45
5153901283.5473 -4.3444948 20.618601 -200 45 -200 45 -200 45
5154901400.2334 -4.3462114 20.603241 -200 45 -200 45 -200 45
5155901516.9195 -4.3434186 20.580029 -200 45 -200 45 -200 45
5156901633.6056 -4.3455057 20.571609 -200 45 -200 45 -200 45
5157901750.2917 -4.3454189 20.533106 -200 45 -200 45 -200 45
5158901866.9778 -4.3432155 20.501886 -200 45 -200 45 -200 45
5159901983.6639 -4.342814 20.486799 -200 45 -200 45 -200 45
5160902100.3501 -4.339304 20.466162 -200 45 -200 45 -200 45
5161902217.0362 -4.3468809 20.442701 -200 45 -200 45 -200 45
5162902333.7223 -4.3480358 20.434938 -200 45 -200 45 -200 45
5163902450.4084 -4.3511839 20.426298 -200 45 -200 45 -200 45
5164902567.0945 -4.3457727 20.391684 -200 45 -200 45 -200 45
5165902683.7806 -4.3417878 20.363802 -200 45 -200 45 -200 45
5166902800.4667 -4.3414159 20.325907 -200 45 -200 45 -200 45
5167902917.1529 -4.3426261 20.310629 -200 45 -200 45 -200 45
5168903033.839 -4.3483019 20.281742 -200 45 -200 45 -200 45
5169903150.5251 -4.3497105 20.265783 -200 45 -200 45 -200 45
5170903267.2112 -4.3549585 20.229757 -200 45 -200 45 -200 45
5171903383.8973 -4.3583517 20.22773 -200 45 -200 45 -200 45
5172903500.5834 -4.3624897 20.211376 -200 45 -200 45 -200 45
5173903617.2695 -4.362658 20.150005 -200 45 -200 45 -200 45
5174903733.9557 -4.3640308 20.115444 -200 45 -200 45 -200 45
5175903850.6418 -4.3679314 20.095528 -200 45 -200 45 -200 45
5176903967.3279 -4.373631 20.078007 -200 45 -200 45 -200 45
5177904084.014 -4.3803806 20.041563 -200 45 -200 45 -200 45
5178904200.7001 -4.3875833 20.035463 -200 45 -200 45 -200 45
5179904317.3862 -4.3901701 20.018421 -200 45 -200 45 -200 45
5180904434.0723 -4.388041 19.978279 -200 45 -200 45 -200 45
5181904550.7585 -4.394278 19.942486 -200 45 -200 45 -200 45
5182904667.4446 -4.3959761 19.910408 -200 45 -200 45 -200 45
5183904784.1307 -4.4068456 19.897301 -200 45 -200 45 -200 45
5184904900.8168 -4.410677 19.871159 -200 45 -200 45 -200 45
5185905017.5029 -4.4224195 19.856571 -200 45 -200 45 -200 45
5186905134.189 -4.4291897 19.828838 -200 45 -200 45 -200 45
5187905250.8751 -4.4390798 19.816265 -200 45 -200 45 -200 45
5188905367.5613 -4.4468493 19.806545 -200 45 -200 45 -200 45
5189905484.2474 -4.4531655 19.773201 -200 45 -200 45 -200 45
5190905600.9335 -4.4586382 19.746019 -200 45 -200 45 -200 45
5191905717.6196 -4.4646039 19.719479 -200 45 -200 45 -200 45
5192905834.3057 -4.4788895 19.711044 -200 45 -200 45 -200 45
5193905950.9918 -4.4883623 19.69018 -200 45 -200 45 -200 45
5194906067.6779 -4.5028453 19.680765 -200 45 -200 45 -200 45
5195906184.3641 -4.5075555 19.673601 -200 45 -200 45 -200 45
5196906301.0502 -4.5136561 19.642673 -200 45 -200 45 -200 45
5197906417.7363 -4.5228977 19.600199 -200 45 -200 45 -200 45
5198906534.4224 -4.5365806 19.610416 -200 45 -200 45 -200 45
5199906651.1085 -4.5503001 19.589363 -200 45 -200 45 -200 45
5200906767.7946 -4.561862 19.586802 -200 45 -200 45 -200 45
5201906884.4807 -4.5795479 19.580788 -200 45 -200 45 -200 45
5202907001.1669 -4.5960631 19.582106 -200 45 -200 45 -200 45
5203907117.853 -4.6184611 19.601334 -200 45 -200 45 -200 45
5204907234.5391 -4.6359859 19.608597 -200 45 -200 45 -200 45
5205907351.2252 -4.6503034 19.608757 -200 45 -200 45 -200 45
5206907467.9113 -4.6696486 19.634098 -200 45 -200 45 -200 45
5207907584.5974 -4.6923575 19.670914 -200 45 -200 45 -200 45
5208907701.2835 -4.7207928 19.73439 -200 45 -200 45 -200 45
5209907817.9697 -4.7444515 19.817959 -200 45 -200 45 -200 45
5210907934.6558 -4.7718596 19.92164 -200 45 -200 45 -200 45
5211908051.3419 -4.7906475 20.045837 -200 45 -200 45 -200 45
5212908168.028 -4.8104591 20.200611 -200 45 -200 45 -200 45
5213908284.7141 -4.8305874 20.384594 -200 45 -200 45 -200 45
5214908401.4002 -4.8468175 20.576433 -200 45 -200 45 -200 45
5215908518.0863 -4.8626137 20.814098 -200 45 -200 45 -200 45
5216908634.7725 -4.8706646 21.070358 -200 45 -200 45 -200 45
5217908751.4586 -4.8736043 21.33902 -200 45 -200 45 -200 45
5218908868.1447 -4.8690653 21.598194 -200 45 -200 45 -200 45
5219908984.8308 -4.8616648 21.839577 -200 45 -200 45 -200 45
5220909101.5169 -4.842793 22.078243 -200 45 -200 45 -200 45
5221909218.203 -4.822772 22.259802 -200 45 -200 45 -200 45
5222909334.8891 -4.7953725 22.406179 -200 45 -200 45 -200 45
5223909451.5753 -4.7719455 22.564312 -200 45 -200 45 -200 45
5224909568.2614 -4.7471137 22.675905 -200 45 -200 45 -200 45
5225909684.9475 -4.721776 22.744606 -200 45 -200 45 -200 45
5226909801.6336 -4.6954355 22.798058 -200 45 -200 45 -200 45
5227909918.3197 -4.6648092 22.816307 -200 45 -200 45 -200 45
5228910035.0058 -4.6413741 22.812012 -200 45 -200 45 -200 45
5229910151.6919 -4.6161175 22.796183 -200 45 -200 45 -200 45
5230910268.3781 -4.5998383 22.758461 -200 45 -200 45 -200 45
5231910385.0642 -4.5818682 22.714329 -200 45 -200 45 -200 45
5232910501.7503 -4.5647268 22.708715 -200 45 -200 45 -200 45
5233910618.4364 -4.5537701 22.632956 -200 45 -200 45 -200 45
5234910735.1225 -4.5420904 22.587301 -200 45 -200 45 -200 45
5235910851.8086 -4.5347095 22.522148 -200 45 -200 45 -200 45
5236910968.4947 -4.5267715 22.458906 -200 45 -200 45 -200 45
5237911085.1809 -4.5223103 22.388689 -200 45 -200 45 -200 45
5238911201.867 -4.5139437 22.323036 -200 45 -200 45 -200 45
5239911318.5531 -4.5129714 22.267649 -200 45 -200 45 -200 45
5240911435.2392 -4.5136094 22.22768 -200 45 -200 45 -200 45
5241911551.9253 -4.5136018 22.197298 -200 45 -200 45 -200 45
5242911668.6114 -4.5112886 22.158905 -200 45 -200 45 -200 45
5243911785.2976 -4.5056348 22.088507 -200 45 -200 45 -200 45
5244911901.9837 -4.5007753 22.063503 -200 45 -200 45 -200 45
5245912018.6698 -4.5033517 22.021439 -200 45 -200 45 -200 45
5246912135.3559 -4.5041504 22.018137 -200 45 -200 45 -200 45
5247912252.042 -4.5070162 21.997906 -200 45 -200 45 -200 45
5248912368.7281 -4.5052853 21.981325 -200 45 -200 45 -200 45
5249912485.4142 -4.5091019 21.982725 -200 45 -200 45 -200 45
5250912602.1004 -4.5078802 21.96492 -200 45 -200 45 -200 45
5251912718.7865 -4.5075741 21.932749 -200 45 -200 45 -200 45
5252912835.4726 -4.5034924 21.907343 -200 45 -200 45 -200 45
5253912952.1587 -4.4982715 21.883003 -200 45 -200 45 -200 45
5254913068.8448 -4.4984245 21.858355 -200 45 -200 45 -200 45
5255913185.5309 -4.5000763 21.824099 -200 45 -200 45 -200 45
5256913302.217 -4.5012374 21.773504 -200 45 -200 45 -200 45
5257913418.9032 -4.5075555 21.745409 -200 45 -200 45 -200 45
5258913535.5893 -4.5015397 21.718842 -200 45 -200 45 -200 45
5259913652.2754 -4.4973106 21.668312 -200 45 -200 45 -200 45
5260913768.9615 -4.4971194 21.617165 -200 45 -200 45 -200 45
5261913885.6476 -4.5034304 21.589447 -200 45 -200 45 -200 45
5262914002.3337 -4.5073271 21.535303 -200 45 -200 45 -200 45
5263914119.0198 -4.513463 21.49818 -200 45 -200 45 -200 45
5264914235.706 -4.5227146 21.444252 -200 45 -200 45 -200 45
5265914352.3921 -4.5287223 21.410276 -200 45 -200 45 -200 45
5266914469.0782 -4.5394216 21.386347 -200 45 -200 45 -200 45
5267914585.7643 -4.5469222 21.333899 -200 45 -200 45 -200 45
5268914702.4504 -4.5529399 21.293257 -200 45 -200 45 -200 45
5269914819.1365 -4.5596642 21.265259 -200 45 -200 45 -200 45
5270914935.8226 -4.5712571 21.239645 -200 45 -200 45 -200 45
5271915052.5088 -4.5906572 21.235392 -200 45 -200 45 -200 45
5272915169.1949 -4.605423 21.234074 -200 45 -200 45 -200 45
5273915285.881 -4.6204109 21.223415 -200 45 -200 45 -200 45
5274915402.5671 -4.6306233 21.221584 -200 45 -200 45 -200 45
5275915519.2532 -4.6412044 21.220123 -200 45 -200 45 -200 45
5276915635.9393 -4.6533403 21.255333 -200 45 -200 45 -200 45
5277915752.6254 -4.6716089 21.273668 -200 45 -200 45 -200 45
5278915869.3116 -4.6884084 21.330143 -200 45 -200 45 -200 45
5279915985.9977 -4.7066712 21.381508 -200 45 -200 45 -200 45
5280916102.6838 -4.7256627 21.478407 -200 45 -200 45 -200 45
5281916219.3699 -4.7423682 21.560112 -200 45 -200 45 -200 45
5282916336.056 -4.7557731 21.67502 -200 45 -200 45 -200 45
5283916452.7421 -4.7686825 21.774765 -200 45 -200 45 -200 45
5284916569.4282 -4.7790246 21.927084 -200 45 -200 45 -200 45
5285916686.1144 -4.7834816 22.062042 -200 45 -200 45 -200 45
5286916802.8005 -4.7902603 22.206383 -200 45 -200 45 -200 45
5287916919.4866 -4.7972078 22.366428 -200 45 -200 45 -200 45
5288917036.1727 -4.7981219 22.535107 -200 45 -200 45 -200 45
5289917152.8588 -4.7914653 22.678617 -200 45 -200 45 -200 45
5290917269.5449 -4.775188 22.787289 -200 45 -200 45 -200 45
5291917386.231 -4.7615943 22.91778 -200 45 -200 45 -200 45
5292917502.9172 -4.750124 23.008101 -200 45 -200 45 -200 45
5293917619.6033 -4.739717 23.101465 -200 45 -200 45 -200 45
5294917736.2894 -4.7257366 23.177721 -200 45 -200 45 -200 45
5295917852.9755 -4.71347 23.251942 -200 45 -200 45 -200 45
5296917969.6616 -4.7037325 23.304993 -200 45 -200 45 -200 45
5297918086.3477 -4.6908083 23.353014 -200 45 -200 45 -200 45
5298918203.0338 -4.6780396 23.375036 -200 45 -200 45 -200 45
5299918319.72 -4.6644268 23.371857 -200 45 -200 45 -200 45
5300918436.4061 -4.6508994 23.366869 -200 45 -200 45 -200 45
5301918553.0922 -4.6401877 23.378572 -200 45 -200 45 -200 45
5302918669.7783 -4.6322775 23.355757 -200 45 -200 45 -200 45
5303918786.4644 -4.6216149 23.347731 -200 45 -200 45 -200 45
5304918903.1505 -4.6211929 23.32196 -200 45 -200 45 -200 45
5305919019.8366 -4.6099696 23.306181 -200 45 -200 45 -200 45
5306919136.5228 -4.6031232 23.25148 -200 45 -200 45 -200 45
5307919253.2089 -4.5940695 23.220968 -200 45 -200 45 -200 45
5308919369.895 -4.5911641 23.199623 -200 45 -200 45 -200 45
5309919486.5811 -4.591661 23.183289 -200 45 -200 45 -200 45
5310919603.2672 -4.5898161 23.15509 -200 45 -200 45 -200 45
5311919719.9533 -4.5922399 23.130733 -200 45 -200 45 -200 45
5312919836.6394 -4.5952559 23.116962 -200 45 -200 45 -200 45
5313919953.3256 -4.5983195 23.112122 -200 45 -200 45 -200 45
5314920070.0117 -4.5979614 23.074154 -200 45 -200 45 -200 45
5315920186.6978 -4.5965805 23.056686 -200 45 -200 45 -200 45
5316920303.3839 -4.5976925 23.046749 -200 45 -200 45 -200 45
5317920420.07 -4.5986247 23.049965 -200 45 -200 45 -200 45
5318920536.7561 -4.604526 23.051741 -200 45 -200 45 -200 45
5319920653.4422 -4.6098905 23.030699 -200 45 -200 45 -200 45
5320920770.1284 -4.6158595 23.053988 -200 45 -200 45 -200 45
5321920886.8145 -4.6116791 23.037868 -200 45 -200 45 -200 45
5322921003.5006 -4.6143999 23.028866 -200 45 -200 45 -200 45
5323921120.1867 -4.6152306 23.023136 -200 45 -200 45 -200 45
5324921236.8728 -4.6214724 23.035233 -200 45 -200 45 -200 45
5325921353.5589 -4.6296387 23.047754 -200 45 -200 45 -200 45
5326921470.245 -4.6329665 23.061232 -200 45 -200 45 -200 45
5327921586.9312 -4.6434379 23.07313 -200 45 -200 45 -200 45
5328921703.6173 -4.6521378 23.117542 -200 45 -200 45 -200 45
5329921820.3034 -4.6566072 23.167839 -200 45 -200 45 -200 45
5330921936.9895 -4.6623397 23.178257 -200 45 -200 45 -200 45
5331922053.6756 -4.6658292 23.229366 -200 45 -200 45 -200 45
5332922170.3617 -4.6704435 23.276808 -200 45 -200 45 -200 45
5333922287.0478 -4.6758113 23.354795 -200 45 -200 45 -200 45
5334922403.734 -4.6816812 23.444365 -200 45 -200 45 -200 45
5335922520.4201 -4.6873879 23.533972 -200 45 -200 45 -200 45
5336922637.1062 -4.6859283 23.619425 -200 45 -200 45 -200 45
5337922753.7923 -4.6789308 23.693478 -200 45 -200 45 -200 45
5338922870.4784 -4.6709366 23.785395 -200 45 -200 45 -200 45
5339922987.1645 -4.6617727 23.856548 -200 45 -200 45 -200 45
5340923103.8506 -4.6586852 23.931747 -200 45 -200 45 -200 45
5341923220.5368 -4.6452231 24.014133 -200 45 -200 45 -200 45
5342923337.2229 -4.6377606 24.065411 -200 45 -200 45 -200 45
5343923453.909 -4.6314816 24.125059 -200 45 -200 45 -200 45
5344923570.5951 -4.6173396 24.179331 -200 45 -200 45 -200 45
5345923687.2812 -4.6061544 24.210768 -200 45 -200 45 -200 45
5346923803.9673 -4.5897837 24.230312 -200 45 -200 45 -200 45
5347923920.6534 -4.5760932 24.222391 -200 45 -200 45 -200 45
5348924037.3396 -4.5608273 24.21488 -200 45 -200 45 -200 45
5349924154.0257 -4.5521135 24.208805 -200 45 -200 45 -200 45
5350924270.7118 -4.5433145 24.214975 -200 45 -200 45 -200 45
5351924387.3979 -4.534831 24.169989 -200 45 -200 45 -200 45
5352924504.084 -4.5247498 24.140503 -200 45 -200 45 -200 45
5353924620.7701 -4.504848 24.087616 -200 45 -200 45 -200 45
5354924737.4562 -4.4989524 24.04438 -200 45 -200 45 -200 45
5355924854.1424 -4.4906735 23.976511 -200 45 -200 45 -200 45
5356924970.8285 -4.4881353 23.953989 -200 45 -200 45 -200 45
5357925087.5146 -4.4802222 23.898048 -200 45 -200 45 -200 45
5358925204.2007 -4.4781027 23.850458 -200 45 -200 45 -200 45
5359925320.8868 -4.4771323 23.821981 -200 45 -200 45 -200 45
5360925437.5729 -4.4750204 23.787834 -200 45 -200 45 -200 45
5361925554.259 -4.4721298 23.726898 -200 45 -200 45 -200 45
5362925670.9452 -4.4684582 23.672829 -200 45 -200 45 -200 45
5363925787.6313 -4.4650593 23.635403 -200 45 -200 45 -200 45
5364925904.3174 -4.4609504 23.589075 -200 45 -200 45 -200 45
5365926021.0035 -4.4647384 23.558588 -200 45 -200 45 -200 45
5366926137.6896 -4.46382 23.527365 -200 45 -200 45 -200 45
5367926254.3757 -4.4681854 23.493538 -200 45 -200 45 -200 45
5368926371.0618 -4.4632449 23.446869 -200 45 -200 45 -200 45
5369926487.748 -4.4568086 23.39229 -200 45 -200 45 -200 45
5370926604.4341 -4.4549813 23.350603 -200 45 -200 45 -200 45
5371926721.1202 -4.4513798 23.279539 -200 45 -200 45 -200 45
5372926837.8063 -4.4547873 23.27224 -200 45 -200 45 -200 45
5373926954.4924 -4.45257 23.20158 -200 45 -200 45 -200 45
5374927071.1785 -4.4565125 23.171423 -200 45 -200 45 -200 45
5375927187.8646 -4.4603395 23.11735 -200 45 -200 45 -200 45
5376927304.5508 -4.4630246 23.081917 -200 45 -200 45 -200 45
5377927421.2369 -4.4622889 23.028357 -200 45 -200 45 -200 45
5378927537.923 -4.4653873 22.948637 -200 45 -200 45 -200 45
5379927654.6091 -4.4689951 22.896076 -200 45 -200 45 -200 45
5380927771.2952 -4.4716282 22.845076 -200 45 -200 45 -200 45
5381927887.9813 -4.4827561 22.795401 -200 45 -200 45 -200 45
5382928004.6674 -4.4875889 22.75429 -200 45 -200 45 -200 45
5383928121.3536 -4.4957418 22.720417 -200 45 -200 45 -200 45
5384928238.0397 -4.4988909 22.667845 -200 45 -200 45 -200 45
5385928354.7258 -4.5048189 22.618362 -200 45 -200 45 -200 45
5386928471.4119 -4.5074005 22.563906 -200 45 -200 45 -200 45
5387928588.098 -4.5189786 22.521818 -200 45 -200 45 -200 45
5388928704.7841 -4.5299282 22.485802 -200 45 -200 45 -200 45
5389928821.4702 -4.5350232 22.453758 -200 45 -200 45 -200 45
5390928938.1564 -4.5496478 22.438475 -200 45 -200 45 -200 45
5391929054.8425 -4.5594816 22.405825 -200 45 -200 45 -200 45
5392929171.5286 -4.5747404 22.382988 -200 45 -200 45 -200 45
5393929288.2147 -4.5814967 22.357737 -200 45 -200 45 -200 45
5394929404.9008 -4.5902004 22.322145 -200 45 -200 45 -200 45
5395929521.5869 -4.5974884 22.293787 -200 45 -200 45 -200 45
5396929638.273 -4.6156478 22.270088 -200 45 -200 45 -200 45
5397929754.9592 -4.6308517 22.278473 -200 45 -200 45 -200 45
5398929871.6453 -4.6460629 22.252653 -200 45 -200 45 -200 45
5399929988.3314 -4.6567621 22.248667 -200 45 -200 45 -200 45
5400930105.0175 -4.6660442 22.206446 -200 45 -200 45 -200 45
5401930221.7036 -4.6818438 22.192495 -200 45 -200 45 -200 45
5402930338.3897 -4.6962876 22.179697 -200 45 -200 45 -200 45
5403930455.0758 -4.7120223 22.184917 -200 45 -200 45 -200 45
5404930571.762 -4.7296133 22.184069 -200 45 -200 45 -200 45
5405930688.4481 -4.7505183 22.211376 -200 45 -200 45 -200 45
5406930805.1342 -4.7741671 22.23632 -200 45 -200 45 -200 45
5407930921.8203 -4.7947721 22.257355 -200 45 -200 45 -200 45
5408931038.5064 -4.8141351 22.293982 -200 45 -200 45 -200 45
5409931155.1925 -4.8339357 22.318182 -200 45 -200 45 -200 45
5410931271.8786 -4.8578839 22.390348 -200 45 -200 45 -200 45
5411931388.5648 -4.8781638 22.415089 -200 45 -200 45 -200 45
5412931505.2509 -4.9045796 22.518721 -200 45 -200 45 -200 45
5413931621.937 -4.9304175 22.594458 -200 45 -200 45 -200 45
5414931738.6231 -4.9576421 22.723019 -200 45 -200 45 -200 45
5415931855.3092 -4.9806523 22.834955 -200 45 -200 45 -200 45
5416931971.9953 -4.9991708 22.954081 -200 45 -200 45 -200 45
5417932088.6814 -5.0208516 23.122065 -200 45 -200 45 -200 45
5418932205.3676 -5.0451789 23.305553 -200 45 -200 45 -200 45
5419932322.0537 -5.0653539 23.520161 -200 45 -200 45 -200 45
5420932438.7398 -5.0855937 23.764883 -200 45 -200 45 -200 45
5421932555.4259 -5.1054883 24.012211 -200 45 -200 45 -200 45
5422932672.112 -5.1193733 24.294306 -200 45 -200 45 -200 45
5423932788.7981 -5.1266131 24.616535 -200 45 -200 45 -200 45
5424932905.4842 -5.1308937 24.904995 -200 45 -200 45 -200 45
5425933022.1704 -5.1261258 25.209482 -200 45 -200 45 -200 45
5426933138.8565 -5.1123824 25.521196 -200 45 -200 45 -200 45
5427933255.5426 -5.0954022 25.821392 -200 45 -200 45 -200 45
5428933372.2287 -5.0782351 26.121086 -200 45 -200 45 -200 45
5429933488.9148 -5.0528526 26.372688 -200 45 -200 45 -200 45
5430933605.6009 -5.0251751 26.610277 -200 45 -200 45 -200 45
5431933722.287 -4.9871397 26.78742 -200 45 -200 45 -200 45
5432933838.9732 -4.9469762 26.948261 -200 45 -200 45 -200 45
5433933955.6593 -4.9098482 27.062485 -200 45 -200 45 -200 45
5434934072.3454 -4.8747172 27.151215 -200 45 -200 45 -200 45
5435934189.0315 -4.8420887 27.224451 -200 45 -200 45 -200 45
5436934305.7176 -4.8102369 27.246469 -200 45 -200 45 -200 45
5437934422.4037 -4.7851763 27.267925 -200 45 -200 45 -200 45
5438934539.0898 -4.7535629 27.283251 -200 45 -200 45 -200 45
5439934655.776 -4.7314167 27.267567 -200 45 -200 45 -200 45
5440934772.4621 -4.7052755 27.241718 -200 45 -200 45 -200 45
5441934889.1482 -4.6824484 27.177326 -200 45 -200 45 -200 45
5442935005.8343 -4.6657209 27.157881 -200 45 -200 45 -200 45
5443935122.5204 -4.6477957 27.122324 -200 45 -200 45 -200 45
5444935239.2065 -4.6359224 27.082363 -200 45 -200 45 -200 45
5445935355.8926 -4.624228 27.052383 -200 45 -200 45 -200 45
5446935472.5788 -4.6134558 27.031548 -200 45 -200 45 -200 45
5447935589.2649 -4.5953207 26.968918 -200 45 -200 45 -200 45
5448935705.951 -4.5850945 26.931654 -200 45 -200 45 -200 45
5449935822.6371 -4.5706735 26.908314 -200 45 -200 45 -200 45
5450935939.3232 -4.564208 26.890018 -200 45 -200 45 -200 45
5451936056.0093 -4.557435 26.870216 -200 45 -200 45 -200 45
5452936172.6954 -4.5503411 26.852308 -200 45 -200 45 -200 45
5453936289.3816 -4.5457973 26.864727 -200 45 -200 45 -200 45
5454936406.0677 -4.5377564 26.859537 -200 45 -200 45 -200 45
5455936522.7538 -4.5320158 26.856009 -200 45 -200 45 -200 45
5456936639.4399 -4.5205269 26.853964 -200 45 -200 45 -200 45
5457936756.126 -4.5112982 26.854649 -200 45 -200 45 -200 45
5458936872.8121 -4.497179 26.851904 -200 45 -200 45 -200 45
5459936989.4983 -4.4897923 26.876661 -200 45 -200 45 -200 45
5460937106.1844 -4.4812231 26.873178 -200 45 -200 45 -200 45
5461937222.8705 -4.473587 26.852068 -200 45 -200 45 -200 45
5462937339.5566 -4.4592791 26.859343 -200 45 -200 45 -200 45
5463937456.2427 -4.443264 26.822121 -200 45 -200 45 -200 45
5464937572.9288 -4.4303083 26.807316 -200 45 -200 45 -200 45
5465937689.6149 -4.415494 26.768496 -200 45 -200 45 -200 45
5466937806.3011 -4.4095159 26.754999 -200 45 -200 45 -200 45
5467937922.9872 -4.3975873 26.715391 -200 45 -200 45 -200 45
5468938039.6733 -4.3859773 26.685219 -200 45 -200 45 -200 45
5469938156.3594 -4.3783393 26.655966 -200 45 -200 45 -200 45
5470938273.0455 -4.3669348 26.643858 -200 45 -200 45 -200 45
5471938389.7316 -4.3593168 26.556469 -200 45 -200 45 -200 45
5472938506.4177 -4.3485661 26.510271 -200 45 -200 45 -200 45
5473938623.1039 -4.3355136 26.449884 -200 45 -200 45 -200 45
5474938739.79 -4.3251767 26.395193 -200 45 -200 45 -200 45
5475938856.4761 -4.3220797 26.335817 -200 45 -200 45 -200 45
5476938973.1622 -4.3166671 26.275108 -200 45 -200 45 -200 45
5477939089.8483 -4.3134985 26.22772 -200 45 -200 45 -200 45
5478939206.5344 -4.3072643 26.151756 -200 45 -200 45 -200 45
5479939323.2205 -4.296927 26.072718 -200 45 -200 45 -200 45
5480939439.9067 -4.2924895 26.009136 -200 45 -200 45 -200 45
5481939556.5928 -4.289062 25.939266 -200 45 -200 45 -200 45
5482939673.2789 -4.286355 25.898851 -200 45 -200 45 -200 45
5483939789.965 -4.282979 25.834173 -200 45 -200 45 -200 45
5484939906.6511 -4.2856579 25.786402 -200 45 -200 45 -200 45
5485940023.3372 -4.284893 25.75395 -200 45 -200 45 -200 45
5486940140.0233 -4.284523 25.695732 -200 45 -200 45 -200 45
5487940256.7095 -4.2831278 25.654404 -200 45 -200 45 -200 45
5488940373.3956 -4.2815185 25.586887 -200 45 -200 45 -200 45
5489940490.0817 -4.2779312 25.555147 -200 45 -200 45 -200 45
5490940606.7678 -4.2770863 25.516867 -200 45 -200 45 -200 45
5491940723.4539 -4.2791133 25.482042 -200 45 -200 45 -200 45
5492940840.14 -4.2812572 25.450644 -200 45 -200 45 -200 45
5493940956.8261 -4.2817569 25.412121 -200 45 -200 45 -200 45
5494941073.5123 -4.2776284 25.367065 -200 45 -200 45 -200 45
5495941190.1984 -4.2731781 25.313807 -200 45 -200 45 -200 45
5496941306.8845 -4.2716484 25.269428 -200 45 -200 45 -200 45
5497941423.5706 -4.2732134 25.237139 -200 45 -200 45 -200 45
5498941540.2567 -4.2743268 25.194769 -200 45 -200 45 -200 45
5499941656.9428 -4.2734609 25.165468 -200 45 -200 45 -200 45
5500941773.6289 -4.2792101 25.144756 -200 45 -200 45 -200 45
5501941890.3151 -4.2792454 25.114367 -200 45 -200 45 -200 45
5502942007.0012 -4.2822828 25.0965 -200 45 -200 45 -200 45
5503942123.6873 -4.2830491 25.046421 -200 45 -200 45 -200 45
5504942240.3734 -4.2832413 25.001631 -200 45 -200 45 -200 45
5505942357.0595 -4.2802639 24.974438 -200 45 -200 45 -200 45
5506942473.7456 -4.2839103 24.949072 -200 45 -200 45 -200 45
5507942590.4317 -4.2912202 24.932169 -200 45 -200 45 -200 45
5508942707.1179 -4.2935557 24.926523 -200 45 -200 45 -200 45
5509942823.804 -4.2934613 24.879171 -200 45 -200 45 -200 45
5510942940.4901 -4.289866 24.864218 -200 45 -200 45 -200 45
5511943057.1762 -4.2907906 24.847193 -200 45 -200 45 -200 45
5512943173.8623 -4.2901802 24.803286 -200 45 -200 45 -200 45
5513943290.5484 -4.2940488 24.785294 -200 45 -200 45 -200 45
5514943407.2345 -4.2990761 24.774658 -200 45 -200 45 -200 45
5515943523.9207 -4.3008375 24.746862 -200 45 -200 45 -200 45
5516943640.6068 -4.3055511 24.747219 -200 45 -200 45 -200 45
5517943757.2929 -4.306181 24.737457 -200 45 -200 45 -200 45
5518943873.979 -4.3106599 24.732876 -200 45 -200 45 -200 45
5519943990.6651 -4.3126044 24.694868 -200 45 -200 45 -200 45
5520944107.3512 -4.315722 24.672844 -200 45 -200 45 -200 45
5521944224.0373 -4.3132458 24.662966 -200 45 -200 45 -200 45
5522944340.7235 -4.31636 24.647476 -200 45 -200 45 -200 45
5523944457.4096 -4.3210602 24.653662 -200 45 -200 45 -200 45
5524944574.0957 -4.3247209 24.654858 -200 45 -200 45 -200 45
5525944690.7818 -4.3287587 24.625505 -200 45 -200 45 -200 45
5526944807.4679 -4.3228602 24.610346 -200 45 -200 45 -200 45
5527944924.154 -4.3219776 24.597172 -200 45 -200 45 -200 45
5528945040.8401 -4.3210411 24.582392 -200 45 -200 45 -200 45
5529945157.5263 -4.3265305 24.568697 -200 45 -200 45 -200 45
5530945274.2124 -4.3303647 24.568098 -200 45 -200 45 -200 45
5531945390.8985 -4.3329687 24.552114 -200 45 -200 45 -200 45
5532945507.5846 -4.3382945 24.558155 -200 45 -200 45 -200 45
5533945624.2707 -4.341444 24.562563 -200 45 -200 45 -200 45
5534945740.9568 -4.3424106 24.528711 -200 45 -200 45 -200 45
5535945857.6429 -4.3428674 24.528603 -200 45 -200 45 -200 45
5536945974.3291 -4.3415241 24.513519 -200 45 -200 45 -200 45
5537946091.0152 -4.3440909 24.506899 -200 45 -200 45 -200 45
5538946207.7013 -4.3478489 24.508413 -200 45 -200 45 -200 45
5539946324.3874 -4.3515759 24.496407 -200 45 -200 45 -200 45
5540946441.0735 -4.3550673 24.512503 -200 45 -200 45 -200 45
5541946557.7596 -4.3546624 24.486549 -200 45 -200 45 -200 45
5542946674.4457 -4.3518457 24.460632 -200 45 -200 45 -200 45
5543946791.1319 -4.351378 24.465065 -200 45 -200 45 -200 45
5544946907.818 -4.3540788 24.450312 -200 45 -200 45 -200 45
5545947024.5041 -4.358067 24.4513 -200 45 -200 45 -200 45
5546947141.1902 -4.3585215 24.430311 -200 45 -200 45 -200 45
5547947257.8763 -4.3630848 24.442131 -200 45 -200 45 -200 45
5548947374.5624 -4.3633289 24.436543 -200 45 -200 45 -200 45
5549947491.2485 -4.3702149 24.442528 -200 45 -200 45 -200 45
5550947607.9347 -4.3744864 24.429386 -200 45 -200 45 -200 45
5551947724.6208 -4.3740845 24.405128 -200 45 -200 45 -200 45
5552947841.3069 -4.3720589 24.397978 -200 45 -200 45 -200 45
5553947957.993 -4.375844 24.410532 -200 45 -200 45 -200 45
5554948074.6791 -4.3832183 24.412699 -200 45 -200 45 -200 45
5555948191.3652 -4.3858638 24.415194 -200 45 -200 45 -200 45
5556948308.0513 -4.3894267 24.415791 -200 45 -200 45 -200 45
5557948424.7375 -4.382678 24.404057 -200 45 -200 45 -200 45
5558948541.4236 -4.3829093 24.381168 -200 45 -200 45 -200 45
5559948658.1097 -4.3819652 24.371733 -200 45 -200 45 -200 45
5560948774.7958 -4.3865485 24.38413 -200 45 -200 45 -200 45
5561948891.4819 -4.3896089 24.375042 -200 45 -200 45 -200 45
5562949008.168 -4.3913698 24.378317 -200 45 -200 45 -200 45
5563949124.8541 -4.3972239 24.379189 -200 45 -200 45 -200 45
5564949241.5403 -4.3983912 24.37005 -200 45 -200 45 -200 45
5565949358.2264 -4.4018493 24.38213 -200 45 -200 45 -200 45
5566949474.9125 -4.402081 24.36466 -200 45 -200 45 -200 45
5567949591.5986 -4.4053631 24.353811 -200 45 -200 45 -200 45
5568949708.2847 -4.4034333 24.364511 -200 45 -200 45 -200 45
5569949824.9708 -4.4077063 24.360077 -200 45 -200 45 -200 45
5570949941.6569 -4.4135981 24.369057 -200 45 -200 45 -200 45
5571950058.3431 -4.4164314 24.357941 -200 45 -200 45 -200 45
5572950175.0292 -4.4175649 24.372292 -200 45 -200 45 -200 45
5573950291.7153 -4.4130731 24.350203 -200 45 -200 45 -200 45
5574950408.4014 -4.414084 24.337004 -200 45 -200 45 -200 45
5575950525.0875 -4.4135547 24.330904 -200 45 -200 45 -200 45
5576950641.7736 -4.417098 24.34437 -200 45 -200 45 -200 45
5577950758.4597 -4.4183106 24.336304 -200 45 -200 45 -200 45
5578950875.1459 -4.4206681 24.341578 -200 45 -200 45 -200 45
5579950991.832 -4.4281912 24.340984 -200 45 -200 45 -200 45
5580951108.5181 -4.4276829 24.361048 -200 45 -200 45 -200 45
5581951225.2042 -4.4318914 24.338232 -200 45 -200 45 -200 45
5582951341.8903 -4.4308128 24.3333 -200 45 -200 45 -200 45
5583951458.5764 -4.4302654 24.342413 -200 45 -200 45 -200 45
5584951575.2625 -4.4334207 24.324594 -200 45 -200 45 -200 45
5585951691.9487 -4.4389253 24.347479 -200 45 -200 45 -200 45
5586951808.6348 -4.4395781 24.335455 -200 45 -200 45 -200 45
5587951925.3209 -4.4432774 24.339136 -200 45 -200 45 -200 45
5588952042.007 -4.4426017 24.342018 -200 45 -200 45 -200 45
5589952158.6931 -4.4384241 24.311317 -200 45 -200 45 -200 45
5590952275.3792 -4.4369421 24.321768 -200 45 -200 45 -200 45
5591952392.0653 -4.4395342 24.301805 -200 45 -200 45 -200 45
5592952508.7515 -4.4451351 24.308372 -200 45 -200 45 -200 45
5593952625.4376 -4.4433265 24.317553 -200 45 -200 45 -200 45
5594952742.1237 -4.4476705 24.304445 -200 45 -200 45 -200 45
5595952858.8098 -4.4498663 24.306532 -200 45 -200 45 -200 45
5596952975.4959 -4.454711 24.337605 -200 45 -200 45 -200 45
5597953092.182 -4.4538813 24.321899 -200 45 -200 45 -200 45
5598953208.8681 -4.4553246 24.293558 -200 45 -200 45 -200 45
5599953325.5543 -4.4560761 24.30864 -200 45 -200 45 -200 45
5600953442.2404 -4.4563608 24.314753 -200 45 -200 45 -200 45
5601953558.9265 -4.4632554 24.326387 -200 45 -200 45 -200 45
5602953675.6126 -4.4638038 24.318241 -200 45 -200 45 -200 45
5603953792.2987 -4.4671216 24.342041 -200 45 -200 45 -200 45
5604953908.9848 -4.4653649 24.324297 -200 45 -200 45 -200 45
5605954025.6709 -4.4610906 24.312061 -200 45 -200 45 -200 45
5606954142.3571 -4.4610496 24.318985 -200 45 -200 45 -200 45
5607954259.0432 -4.4645224 24.322275 -200 45 -200 45 -200 45
5608954375.7293 -4.4692078 24.326546 -200 45 -200 45 -200 45
5609954492.4154 -4.4666481 24.33707 -200 45 -200 45 -200 45
5610954609.1015 -4.4726734 24.343718 -200 45 -200 45 -200 45
5611954725.7876 -4.4741693 24.345772 -200 45 -200 45 -200 45
5612954842.4737 -4.4795303 24.36179 -200 45 -200 45 -200 45
5613954959.1599 -4.476047 24.367832 -200 45 -200 45 -200 45
5614955075.846 -4.4782434 24.339085 -200 45 -200 45 -200 45
5615955192.5321 -4.4757085 24.366858 -200 45 -200 45 -200 45
5616955309.2182 -4.4783659 24.36698 -200 45 -200 45 -200 45
5617955425.9043 -4.4830689 24.370564 -200 45 -200 45 -200 45
5618955542.5904 -4.4851108 24.376104 -200 45 -200 45 -200 45
5619955659.2765 -4.4836035 24.391661 -200 45 -200 45 -200 45
5620955775.9627 -4.4808464 24.381506 -200 45 -200 45 -200 45
5621955892.6488 -4.4788184 24.381485 -200 45 -200 45 -200 45
5622956009.3349 -4.4773068 24.351456 -200 45 -200 45 -200 45
5623956126.021 -4.481194 24.372595 -200 45 -200 45 -200 45
5624956242.7071 -4.4847546 24.380211 -200 45 -200 45 -200 45
5625956359.3932 -4.4849558 24.375795 -200 45 -200 45 -200 45
5626956476.0793 -4.4881597 24.400442 -200 45 -200 45 -200 45
5627956592.7655 -4.4891171 24.405657 -200 45 -200 45 -200 45
5628956709.4516 -4.4947381 24.391798 -200 45 -200 45 -200 45
5629956826.1377 -4.4930673 24.39822 -200 45 -200 45 -200 45
5630956942.8238 -4.494091 24.395878 -200 45 -200 45 -200 45
5631957059.5099 -4.4914742 24.404249 -200 45 -200 45 -200 45
5632957176.196 -4.4971247 24.427567 -200 45 -200 45 -200 45
5633957292.8821 -4.5009861 24.413427 -200 45 -200 45 -200 45
5634957409.5683 -4.5036044 24.429546 -200 45 -200 45 -200 45
5635957526.2544 -4.5042167 24.424566 -200 45 -200 45 -200 45
5636957642.9405 -4.5011978 24.411324 -200 45 -200 45 -200 45
5637957759.6266 -4.4968772 24.417383 -200 45 -200 45 -200 45
5638957876.3127 -4.4938459 24.408602 -200 45 -200 45 -200 45
5639957992.9988 -4.5007997 24.429535 -200 45 -200 45 -200 45
5640958109.6849 -4.5041451 24.421579 -200 45 -200 45 -200 45
5641958226.3711 -4.5083904 24.437088 -200 45 -200 45 -200 45
5642958343.0572 -4.5092654 24.42791 -200 45 -200 45 -200 45
5643958459.7433 -4.5130892 24.456335 -200 45 -200 45 -200 45
5644958576.4294 -4.5144444 24.459469 -200 45 -200 45 -200 45
5645958693.1155 -4.5120492 24.450447 -200 45 -200 45 -200 45
5646958809.8016 -4.5152116 24.468929 -200 45 -200 45 -200 45
5647958926.4877 -4.5117879 24.456295 -200 45 -200 45 -200 45
5648959043.1739 -4.5216131 24.479082 -200 45 -200 45 -200 45
5649959159.86 -4.5194097 24.469141 -200 45 -200 45 -200 45
5650959276.5461 -4.5256519 24.49592 -200 45 -200 45 -200 45
5651959393.2322 -4.5220704 24.460321 -200 45 -200 45 -200 45
5652959509.9183 -4.5202031 24.459942 -200 45 -200 45 -200 45
5653959626.6044 -4.518229 24.461964 -200 45 -200 45 -200 45
5654959743.2905 -4.5185308 24.450729 -200 45 -200 45 -200 45
5655959859.9767 -4.52389 24.466986 -200 45 -200 45 -200 45
5656959976.6628 -4.52354 24.467829 -200 45 -200 45 -200 45
5657960093.3489 -4.5300298 24.480995 -200 45 -200 45 -200 45
5658960210.035 -4.530714 24.497433 -200 45 -200 45 -200 45
5659960326.7211 -4.5350714 24.513113 -200 45 -200 45 -200 45
5660960443.4072 -4.5373034 24.515203 -200 45 -200 45 -200 45
5661960560.0933 -4.535305 24.492889 -200 45 -200 45 -200 45
5662960676.7795 -4.5355873 24.486471 -200 45 -200 45 -200 45
5663960793.4656 -4.5342798 24.490908 -200 45 -200 45 -200 45
5664960910.1517 -4.543942 24.516401 -200 45 -200 45 -200 45
5665961026.8378 -4.5454731 24.532818 -200 45 -200 45 -200 45
5666961143.5239 -4.5484982 24.529383 -200 45 -200 45 -200 45
5667961260.21 -4.544889 24.518923 -200 45 -200 45 -200 45
5668961376.8961 -4.5450988 24.536661 -200 45 -200 45 -200 45
5669961493.5823 -4.5421667 24.52326 -200 45 -200 45 -200 45
5670961610.2684 -4.5453329 24.516081 -200 45 -200 45 -200 45
5671961726.9545 -4.5477858 24.522966 -200 45 -200 45 -200 45
5672961843.6406 -4.5484037 24.523453 -200 45 -200 45 -200 45
5673961960.3267 -4.5551543 24.541842 -200 45 -200 45 -200 45
5674962077.0128 -4.5571947 24.562881 -200 45 -200 45 -200 45
5675962193.6989 -4.5602307 24.573832 -200 45 -200 45 -200 45
5676962310.3851 -4.5613422 24.548689 -200 45 -200 45 -200 45
5677962427.0712 -4.5596991 24.551794 -200 45 -200 45 -200 45
5678962543.7573 -4.5585151 24.536411 -200 45 -200 45 -200 45
5679962660.4434 -4.5643387 24.566675 -200 45 -200 45 -200 45
5680962777.1295 -4.5672197 24.572212 -200 45 -200 45 -200 45
5681962893.8156 -4.5708871 24.574034 -200 45 -200 45 -200 45
5682963010.5018 -4.5737152 24.579336 -200 45 -200 45 -200 45
5683963127.1879 -4.5706868 24.560921 -200 45 -200 45 -200 45
5684963243.874 -4.569396 24.575762 -200 45 -200 45 -200 45
5685963360.5601 -4.5701866 24.545429 -200 45 -200 45 -200 45
5686963477.2462 -4.571702 24.563068 -200 45 -200 45 -200 45
5687963593.9323 -4.5736198 24.562164 -200 45 -200 45 -200 45
5688963710.6184 -4.5792923 24.563566 -200 45 -200 45 -200 45
5689963827.3046 -4.5829868 24.590818 -200 45 -200 45 -200 45
5690963943.9907 -4.5857215 24.584856 -200 45 -200 45 -200 45
5691964060.6768 -4.5900316 24.60026 -200 45 -200 45 -200 45
5692964177.3629 -4.589376 24.586302 -200 45 -200 45 -200 45
5693964294.049 -4.5916309 24.5893 -200 45 -200 45 -200 45
5694964410.7351 -4.590229 24.596182 -200 45 -200 45 -200 45
5695964527.4212 -4.5949817 24.619089 -200 45 -200 45 -200 45
5696964644.1074 -4.5990753 24.639833 -200 45 -200 45 -200 45
5697964760.7935 -4.6029639 24.651508 -200 45 -200 45 -200 45
5698964877.4796 -4.6020498 24.654989 -200 45 -200 45 -200 45
5699964994.1657 -4.6012115 24.638145 -200 45 -200 45 -200 45
5700965110.8518 -4.5996737 24.647062 -200 45 -200 45 -200 45
5701965227.5379 -4.5973039 24.661852 -200 45 -200 45 -200 45
5702965344.224 -4.6007614 24.652519 -200 45 -200 45 -200 45
5703965460.9102 -4.6010823 24.669998 -200 45 -200 45 -200 45
5704965577.5963 -4.6063976 24.687717 -200 45 -200 45 -200 45
5705965694.2824 -4.6087227 24.695019 -200 45 -200 45 -200 45
5706965810.9685 -4.613781 24.72303 -200 45 -200 45 -200 45
5707965927.6546 -4.6159587 24.71714 -200 45 -200 45 -200 45
5708966044.3407 -4.6140084 24.716974 -200 45 -200 45 -200 45
5709966161.0268 -4.6122584 24.728643 -200 45 -200 45 -200 45
5710966277.713 -4.6143699 24.715437 -200 45 -200 45 -200 45
5711966394.3991 -4.6169143 24.710932 -200 45 -200 45 -200 45
5712966511.0852 -4.6210656 24.739803 -200 45 -200 45 -200 45
5713966627.7713 -4.6253757 24.753942 -200 45 -200 45 -200 45
5714966744.4574 -4.6219487 24.761818 -200 45 -200 45 -200 45
5715966861.1435 -4.6177988 24.740355 -200 45 -200 45 -200 45
5716966977.8296 -4.6182103 24.742105 -200 45 -200 45 -200 45
5717967094.5158 -4.6173501 24.762527 -200 45 -200 45 -200 45
5718967211.2019 -4.6215086 24.753033 -200 45 -200 45 -200 45
5719967327.888 -4.6210599 24.763159 -200 45 -200 45 -200 45
5720967444.5741 -4.6254864 24.777073 -200 45 -200 45 -200 45
5721967561.2602 -4.6265144 24.792252 -200 45 -200 45 -200 45
5722967677.9463 -4.6336293 24.815512 -200 45 -200 45 -200 45
5723967794.6324 -4.6305666 24.806219 -200 45 -200 45 -200 45
5724967911.3186 -4.6313672 24.803097 -200 45 -200 45 -200 45
5725968028.0047 -4.6282272 24.809717 -200 45 -200 45 -200 45
5726968144.6908 -4.6286902 24.824627 -200 45 -200 45 -200 45
5727968261.3769 -4.6350803 24.829742 -200 45 -200 45 -200 45
5728968378.063 -4.6363921 24.841063 -200 45 -200 45 -200 45
5729968494.7491 -4.6387467 24.853706 -200 45 -200 45 -200 45
5730968611.4352 -4.6363902 24.862967 -200 45 -200 45 -200 45
5731968728.1214 -4.6315689 24.843126 -200 45 -200 45 -200 45
5732968844.8075 -4.6322327 24.855429 -200 45 -200 45 -200 45
5733968961.4936 -4.6332731 24.853001 -200 45 -200 45 -200 45
5734969078.1797 -4.6320171 24.839355 -200 45 -200 45 -200 45
5735969194.8658 -4.6331992 24.85586 -200 45 -200 45 -200 45
5736969311.5519 -4.6390829 24.870554 -200 45 -200 45 -200 45
5737969428.238 -4.6399999 24.864452 -200 45 -200 45 -200 45
5738969544.9242 -4.6424403 24.884224 -200 45 -200 45 -200 45
5739969661.6103 -4.6415167 24.880405 -200 45 -200 45 -200 45
5740969778.2964 -4.644165 24.874275 -200 45 -200 45 -200 45
5741969894.9825 -4.6425271 24.883099 -200 45 -200 45 -200 45
5742970011.6686 -4.6446619 24.883051 -200 45 -200 45 -200 45
5743970128.3547 -4.6480255 24.89366 -200 45 -200 45 -200 45
5744970245.0408 -4.6544003 24.915346 -200 45 -200 45 -200 45
5745970361.727 -4.6521368 24.920059 -200 45 -200 45 -200 45
5746970478.4131 -4.6457438 24.899717 -200 45 -200 45 -200 45
5747970595.0992 -4.6476092 24.903572 -200 45 -200 45 -200 45
5748970711.7853 -4.6480727 24.907057 -200 45 -200 45 -200 45
5749970828.4714 -4.6508341 24.922892 -200 45 -200 45 -200 45
5750970945.1575 -4.6486197 24.910418 -200 45 -200 45 -200 45
5751971061.8436 -4.6575856 24.93224 -200 45 -200 45 -200 45
5752971178.5298 -4.6592712 24.939539 -200 45 -200 45 -200 45
5753971295.2159 -4.6617556 24.942513 -200 45 -200 45 -200 45
5754971411.902 -4.6645617 24.954817 -200 45 -200 45 -200 45
5755971528.5881 -4.6638165 24.930571 -200 45 -200 45 -200 45
5756971645.2742 -4.6632032 24.946789 -200 45 -200 45 -200 45
5757971761.9603 -4.6659007 24.93363 -200 45 -200 45 -200 45
5758971878.6464 -4.6697016 24.938604 -200 45 -200 45 -200 45
5759971995.3326 -4.670188 24.962866 -200 45 -200 45 -200 45
5760972112.0187 -4.6774936 24.965532 -200 45 -200 45 -200 45
5761972228.7048 -4.6745596 24.977039 -200 45 -200 45 -200 45
5762972345.3909 -4.6718621 24.95549 -200 45 -200 45 -200 45
5763972462.077 -4.673708 24.959782 -200 45 -200 45 -200 45
5764972578.7631 -4.674129 24.986683 -200 45 -200 45 -200 45
5765972695.4492 -4.6767511 24.972336 -200 45 -200 45 -200 45
5766972812.1354 -4.6769457 24.974436 -200 45 -200 45 -200 45
5767972928.8215 -4.6821957 25.013617 -200 45 -200 45 -200 45
5768973045.5076 -4.6869774 25.013145 -200 45 -200 45 -200 45
5769973162.1937 -4.6912327 25.029898 -200 45 -200 45 -200 45
5770973278.8798 -4.6935563 25.030308 -200 45 -200 45 -200 45
5771973395.5659 -4.6929879 25.037354 -200 45 -200 45 -200 45
5772973512.252 -4.6964164 25.02659 -200 45 -200 45 -200 45
5773973628.9382 -4.6951756 25.054014 -200 45 -200 45 -200 45
5774973745.6243 -4.7023029 25.057528 -200 45 -200 45 -200 45
5775973862.3104 -4.7025537 25.070829 -200 45 -200 45 -200 45
5776973978.9965 -4.706779 25.085247 -200 45 -200 45 -200 45
5777974095.6826 -4.7031622 25.090904 -200 45 -200 45 -200 45
5778974212.3687 -4.7007442 25.104853 -200 45 -200 45 -200 45
5779974329.0548 -4.7023826 25.092407 -200 45 -200 45 -200 45
5780974445.741 -4.7072244 25.103113 -200 45 -200 45 -200 45
5781974562.4271 -4.7076936 25.105965 -200 45 -200 45 -200 45
5782974679.1132 -4.7097645 25.101692 -200 45 -200 45 -200 45
5783974795.7993 -4.7116365 25.144499 -200 45 -200 45 -200 45
5784974912.4854 -4.7122583 25.132847 -200 45 -200 45 -200 45
5785975029.1715 -4.7203841 25.166862 -200 45 -200 45 -200 45
5786975145.8576 -4.7188044 25.148769 -200 45 -200 45 -200 45
5787975262.5438 -4.7234049 25.150076 -200 45 -200 45 -200 45
5788975379.2299 -4.7228398 25.151653 -200 45 -200 45 -200 45
5789975495.916 -4.7246108 25.146046 -200 45 -200 45 -200 45
5790975612.6021 -4.7302361 25.164063 -200 45 -200 45 -200 45
5791975729.2882 -4.7340713 25.177303 -200 45 -200 45 -200 45
5792975845.9743 -4.735456 25.189894 -200 45 -200 45 -200 45
5793975962.6604 -4.733026 25.161066 -200 45 -200 45 -200 45
5794976079.3466 -4.7347264 25.168209 -200 45 -200 45 -200 45
5795976196.0327 -4.7366018 25.171322 -200 45 -200 45 -200 45
5796976312.7188 -4.7421303 25.179636 -200 45 -200 45 -200 45
5797976429.4049 -4.7402077 25.189901 -200 45 -200 45 -200 45
5798976546.091 -4.7462516 25.181423 -200 45 -200 45 -200 45
5799976662.7771 -4.7528338 25.186277 -200 45 -200 45 -200 45
5800976779.4632 -4.7528954 25.203661 -200 45 -200 45 -200 45
5801976896.1494 -4.7594857 25.231207 -200 45 -200 45 -200 45
5802977012.8355 -4.7587938 25.205906 -200 45 -200 45 -200 45
5803977129.5216 -4.7632446 25.208445 -200 45 -200 45 -200 45
5804977246.2077 -4.7649164 25.231401 -200 45 -200 45 -200 45
5805977362.8938 -4.7721515 25.236202 -200 45 -200 45 -200 45
5806977479.5799 -4.7753782 25.24061 -200 45 -200 45 -200 45
5807977596.266 -4.7830896 25.26647 -200 45 -200 45 -200 45
5808977712.9522 -4.7840228 25.262287 -200 45 -200 45 -200 45
5809977829.6383 -4.7825456 25.258194 -200 45 -200 45 -200 45
5810977946.3244 -4.7855291 25.262598 -200 45 -200 45 -200 45
5811978063.0105 -4.787149 25.270897 -200 45 -200 45 -200 45
5812978179.6966 -4.7917571 25.278542 -200 45 -200 45 -200 45
5813978296.3827 -4.7954149 25.297903 -200 45 -200 45 -200 45
5814978413.0688 -4.8046064 25.284817 -200 45 -200 45 -200 45
5815978529.755 -4.8107033 25.321489 -200 45 -200 45 -200 45
5816978646.4411 -4.8168802 25.328968 -200 45 -200 45 -200 45
5817978763.1272 -4.8244667 25.332008 -200 45 -200 45 -200 45
5818978879.8133 -4.8262887 25.35737 -200 45 -200 45 -200 45
5819978996.4994 -4.8356743 25.377773 -200 45 -200 45 -200 45
5820979113.1855 -4.8388624 25.385382 -200 45 -200 45 -200 45
5821979229.8716 -4.8510237 25.412888 -200 45 -200 45 -200 45
5822979346.5578 -4.8591709 25.447151 -200 45 -200 45 -200 45
5823979463.2439 -4.8677945 25.48983 -200 45 -200 45 -200 45
5824979579.93 -4.8697882 25.506535 -200 45 -200 45 -200 45
5825979696.6161 -4.8734341 25.549704 -200 45 -200 45 -200 45
5826979813.3022 -4.8772826 25.588732 -200 45 -200 45 -200 45
5827979929.9883 -4.8846612 25.642107 -200 45 -200 45 -200 45
5828980046.6744 -4.8940892 25.719479 -200 45 -200 45 -200 45
5829980163.3606 -4.8984046 25.790888 -200 45 -200 45 -200 45
5830980280.0467 -4.9096832 25.868965 -200 45 -200 45 -200 45
5831980396.7328 -4.9116488 25.958858 -200 45 -200 45 -200 45
5832980513.4189 -4.9146552 26.081827 -200 45 -200 45 -200 45
5833980630.105 -4.9162569 26.160572 -200 45 -200 45 -200 45
5834980746.7911 -4.9132552 26.260839 -200 45 -200 45 -200 45
5835980863.4772 -4.9064789 26.341019 -200 45 -200 45 -200 45
5836980980.1634 -4.9022136 26.447544 -200 45 -200 45 -200 45
5837981096.8495 -4.8994932 26.549095 -200 45 -200 45 -200 45
5838981213.5356 -4.8907084 26.626053 -200 45 -200 45 -200 45
5839981330.2217 -4.8799057 26.712523 -200 45 -200 45 -200 45
5840981446.9078 -4.8626604 26.725353 -200 45 -200 45 -200 45
5841981563.5939 -4.8483696 26.787317 -200 45 -200 45 -200 45
5842981680.28 -4.8382978 26.817141 -200 45 -200 45 -200 45
5843981796.9662 -4.8268895 26.832546 -200 45 -200 45 -200 45
5844981913.6523 -4.8178911 26.854319 -200 45 -200 45 -200 45
5845982030.3384 -4.8055401 26.860998 -200 45 -200 45 -200 45
5846982147.0245 -4.8014851 26.872517 -200 45 -200 45 -200 45
5847982263.7106 -4.7930341 26.868984 -200 45 -200 45 -200 45
5848982380.3967 -4.7885594 26.846336 -200 45 -200 45 -200 45
5849982497.0828 -4.7805386 26.842718 -200 45 -200 45 -200 45
5850982613.769 -4.7741432 26.825665 -200 45 -200 45 -200 45
5851982730.4551 -4.7647347 26.818316 -200 45 -200 45 -200 45
5852982847.1412 -4.7607636 26.797533 -200 45 -200 45 -200 45
5853982963.8273 -4.7616181 26.794638 -200 45 -200 45 -200 45
5854983080.5134 -4.7622299 26.770111 -200 45 -200 45 -200 45
5855983197.1995 -4.756433 26.759909 -200 45 -200 45 -200 45
5856983313.8856 -4.7470598 26.739861 -200 45 -200 45 -200 45
5857983430.5718 -4.7425013 26.72691 -200 45 -200 45 -200 45
5858983547.2579 -4.73665 26.731743 -200 45 -200 45 -200 45
5859983663.944 -4.7395086 26.699932 -200 45 -200 45 -200 45
5860983780.6301 -4.7342582 26.714094 -200 45 -200 45 -200 45
5861983897.3162 -4.7332897 26.709808 -200 45 -200 45 -200 45
5862984014.0023 -4.7343192 26.707214 -200 45 -200 45 -200 45
5863984130.6884 -4.7331128 26.695024 -200 45 -200 45 -200 45
5864984247.3746 -4.7328391 26.696665 -200 45 -200 45 -200 45
5865984364.0607 -4.7270722 26.679377 -200 45 -200 45 -200 45
5866984480.7468 -4.7251492 26.65971 -200 45 -200 45 -200 45
5867984597.4329 -4.7231302 26.658258 -200 45 -200 45 -200 45
5868984714.119 -4.7212043 26.657055 -200 45 -200 45 -200 45
5869984830.8051 -4.7256794 26.654028 -200 45 -200 45 -200 45
5870984947.4912 -4.7233562 26.629646 -200 45 -200 45 -200 45
5871985064.1774 -4.7212143 26.636824 -200 45 -200 45 -200 45
5872985180.8635 -4.7155476 26.605186 -200 45 -200 45 -200 45
5873985297.5496 -4.7121544 26.576902 -200 45 -200 45 -200 45
5874985414.2357 -4.7117696 26.563299 -200 45 -200 45 -200 45
5875985530.9218 -4.711452 26.551254 -200 45 -200 45 -200 45
5876985647.6079 -4.7133417 26.542492 -200 45 -200 45 -200 45
5877985764.294 -4.716435 26.544308 -200 45 -200 45 -200 45
5878985880.9802 -4.7192755 26.532108 -200 45 -200 45 -200 45
5879985997.6663 -4.7196016 26.54159 -200 45 -200 45 -200 45
5880986114.3524 -4.7232099 26.518393 -200 45 -200 45 -200 45
5881986231.0385 -4.7220912 26.501118 -200 45 -200 45 -200 45
5882986347.7246 -4.7158427 26.497129 -200 45 -200 45 -200 45
5883986464.4107 -4.7189188 26.478773 -200 45 -200 45 -200 45
5884986581.0968 -4.723681 26.497051 -200 45 -200 45 -200 45
5885986697.783 -4.727807 26.487141 -200 45 -200 45 -200 45
5886986814.4691 -4.7296419 26.507441 -200 45 -200 45 -200 45
5887986931.1552 -4.7260551 26.490335 -200 45 -200 45 -200 45
5888987047.8413 -4.7202563 26.470724 -200 45 -200 45 -200 45
5889987164.5274 -4.7182331 26.463511 -200 45 -200 45 -200 45
5890987281.2135 -4.7218709 26.470558 -200 45 -200 45 -200 45
5891987397.8997 -4.7256923 26.462193 -200 45 -200 45 -200 45
5892987514.5858 -4.7253885 26.46207 -200 45 -200 45 -200 45
5893987631.2719 -4.7304878 26.469677 -200 45 -200 45 -200 45
5894987747.958 -4.7317123 26.48777 -200 45 -200 45 -200 45
5895987864.6441 -4.7358904 26.485985 -200 45 -200 45 -200 45
5896987981.3302 -4.731988 26.478401 -200 45 -200 45 -200 45
5897988098.0163 -4.7321196 26.47191 -200 45 -200 45 -200 45
5898988214.7025 -4.7323899 26.471716 -200 45 -200 45 -200 45
5899988331.3886 -4.7333789 26.499149 -200 45 -200 45 -200 45
5900988448.0747 -4.7395935 26.481495 -200 45 -200 45 -200 45
5901988564.7608 -4.7422385 26.491089 -200 45 -200 45 -200 45
5902988681.4469 -4.7428427 26.487917 -200 45 -200 45 -200 45
5903988798.133 -4.7380438 26.477047 -200 45 -200 45 -200 45
5904988914.8191 -4.734241 26.459654 -200 45 -200 45 -200 45
5905989031.5053 -4.7339983 26.462114 -200 45 -200 45 -200 45
5906989148.1914 -4.7413597 26.471455 -200 45 -200 45 -200 45
5907989264.8775 -4.7403865 26.46578 -200 45 -200 45 -200 45
5908989381.5636 -4.7461166 26.475536 -200 45 -200 45 -200 45
5909989498.2497 -4.7481861 26.479946 -200 45 -200 45 -200 45
5910989614.9358 -4.7497993 26.48094 -200 45 -200 45 -200 45
5911989731.6219 -4.7543302 26.490709 -200 45 -200 45 -200 45
5912989848.3081 -4.7522106 26.457788 -200 45 -200 45 -200 45
5913989964.9942 -4.7492375 26.4732 -200 45 -200 45 -200 45
5914990081.6803 -4.7508531 26.481045 -200 45 -200 45 -200 45
5915990198.3664 -4.7554827 26.481373 -200 45 -200 45 -200 45
5916990315.0525 -4.7574463 26.497406 -200 45 -200 45 -200 45
5917990431.7386 -4.7600088 26.507856 -200 45 -200 45 -200 45
5918990548.4247 -4.7605109 26.504744 -200 45 -200 45 -200 45
5919990665.1109 -4.7564154 26.482409 -200 45 -200 45 -200 45
5920990781.797 -4.7544785 26.490692 -200 45 -200 45 -200 45
5921990898.4831 -4.7538052 26.48143 -200 45 -200 45 -200 45
5922991015.1692 -4.7604666 26.50502 -200 45 -200 45 -200 45
5923991131.8553 -4.7605333 26.492933 -200 45 -200 45 -200 45
5924991248.5414 -4.7638197 26.509466 -200 45 -200 45 -200 45
5925991365.2275 -4.7659483 26.520861 -200 45 -200 45 -200 45
5926991481.9137 -4.7685761 26.518774 -200 45 -200 45 -200 45
5927991598.5998 -4.7721376 26.526455 -200 45 -200 45 -200 45
5928991715.2859 -4.7674727 26.504419 -200 45 -200 45 -200 45
5929991831.972 -4.7709317 26.500561 -200 45 -200 45 -200 45
5930991948.6581 -4.7694082 26.516476 -200 45 -200 45 -200 45
5931992065.3442 -4.7762322 26.513292 -200 45 -200 45 -200 45
5932992182.0303 -4.7789679 26.530674 -200 45 -200 45 -200 45
5933992298.7165 -4.7805643 26.52886 -200 45 -200 45 -200 45
5934992415.4026 -4.7803421 26.539032 -200 45 -200 45 -200 45
5935992532.0887 -4.7778053 26.524246 -200 45 -200 45 -200 45
5936992648.7748 -4.7733903 26.49651 -200 45 -200 45 -200 45
5937992765.4609 -4.7734284 26.518415 -200 45 -200 45 -200 45
5938992882.147 -4.7827497 26.532255 -200 45 -200 45 -200 45
5939992998.8331 -4.7798982 26.53331 -200 45 -200 45 -200 45
5940993115.5193 -4.7858925 26.537619 -200 45 -200 45 -200 45
5941993232.2054 -4.7864127 26.53726 -200 45 -200 45 -200 45
5942993348.8915 -4.7906704 26.550634 -200 45 -200 45 -200 45
5943993465.5776 -4.7920675 26.528841 -200 45 -200 45 -200 45
5944993582.2637 -4.7903771 26.538282 -200 45 -200 45 -200 45
5945993698.9498 -4.7875056 26.542553 -200 45 -200 45 -200 45
5946993815.6359 -4.7908525 26.539406 -200 45 -200 45 -200 45
5947993932.3221 -4.7956686 26.557411 -200 45 -200 45 -200 45
5948994049.0082 -4.8001237 26.561277 -200 45 -200 45 -200 45
5949994165.6943 -4.8005896 26.572371 -200 45 -200 45 -200 45
5950994282.3804 -4.7978668 26.564091 -200 45 -200 45 -200 45
5951994399.0665 -4.7959385 26.568214 -200 45 -200 45 -200 45
5952994515.7526 -4.7939901 26.560219 -200 45 -200 45 -200 45
5953994632.4387 -4.7966251 26.561871 -200 45 -200 45 -200 45
5954994749.1249 -4.7983074 26.571295 -200 45 -200 45 -200 45
5955994865.811 -4.7994595 26.56525 -200 45 -200 45 -200 45
5956994982.4971 -4.8048038 26.582972 -200 45 -200 45 -200 45
5957995099.1832 -4.8065925 26.593618 -200 45 -200 45 -200 45
5958995215.8693 -4.8130574 26.598877 -200 45 -200 45 -200 45
5959995332.5554 -4.8140979 26.590673 -200 45 -200 45 -200 45
5960995449.2415 -4.809967 26.593382 -200 45 -200 45 -200 45
5961995565.9277 -4.8081017 26.581375 -200 45 -200 45 -200 45
5962995682.6138 -4.8164644 26.582468 -200 45 -200 45 -200 45
5963995799.2999 -4.8176169 26.593477 -200 45 -200 45 -200 45
5964995915.986 -4.8220797 26.606236 -200 45 -200 45 -200 45
5965996032.6721 -4.8201103 26.622057 -200 45 -200 45 -200 45
5966996149.3582 -4.8174839 26.608772 -200 45 -200 45 -200 45
5967996266.0443 -4.8171592 26.606491 -200 45 -200 45 -200 45
5968996382.7305 -4.8165789 26.594233 -200 45 -200 45 -200 45
5969996499.4166 -4.8187509 26.603472 -200 45 -200 45 -200 45
5970996616.1027 -4.8186569 26.609901 -200 45 -200 45 -200 45
5971996732.7888 -4.8251576 26.609047 -200 45 -200 45 -200 45
5972996849.4749 -4.8264675 26.639719 -200 45 -200 45 -200 45
5973996966.161 -4.8279562 26.657694 -200 45 -200 45 -200 45
5974997082.8471 -4.8333845 26.663641 -200 45 -200 45 -200 45
5975997199.5333 -4.834197 26.636158 -200 45 -200 45 -200 45
5976997316.2194 -4.8326392 26.655462 -200 45 -200 45 -200 45
5977997432.9055 -4.8315744 26.659967 -200 45 -200 45 -200 45
5978997549.5916 -4.8390183 26.680269 -200 45 -200 45 -200 45
5979997666.2777 -4.8412695 26.671452 -200 45 -200 45 -200 45
5980997782.9638 -4.8473439 26.680508 -200 45 -200 45 -200 45
5981997899.6499 -4.8458967 26.69346 -200 45 -200 45 -200 45
5982998016.3361 -4.8429589 26.688498 -200 45 -200 45 -200 45
5983998133.0222 -4.8420262 26.676041 -200 45 -200 45 -200 45
5984998249.7083 -4.843287 26.694208 -200 45 -200 45 -200 45
5985998366.3944 -4.8479753 26.694365 -200 45 -200 45 -200 45
5986998483.0805 -4.85044 26.701885 -200 45 -200 45 -200 45
5987998599.7666 -4.8545542 26.713667 -200 45 -200 45 -200 45
5988998716.4527 -4.8585415 26.73653 -200 45 -200 45 -200 45
5989998833.1389 -4.8633666 26.74008 -200 45 -200 45 -200 45
5990998949.825 -4.8666077 26.741962 -200 45 -200 45 -200 45
5991999066.5111 -4.8671708 26.745823 -200 45 -200 45 -200 45
5992999183.1972 -4.867516 26.739841 -200 45 -200 45 -200 45
5993999299.8833 -4.8719244 26.730238 -200 45 -200 45 -200 45
5994999416.5694 -4.8779478 26.76577 -200 45 -200 45 -200 45
5995999533.2555 -4.8826656 26.802162 -200 45 -200 45 -200 45
5996999649.9417 -4.887455 26.806938 -200 45 -200 45 -200 45
5997999766.6278 -4.8873396 26.815075 -200 45 -200 45 -200 45
5998999883.3139 -4.8876867 26.814295 -200 45 -200 45 -200 45
6000000000 -4.887588 26.84333 -200 45 -200 45 -200 45
