!Keysight Technologies,P9374A,MY57304198,A.17.20.09
!Date: Thursday, August 15, 2024 16:37:21
!Correction: S11(C  1-Port  ) 
!S21(C  1-Port  ) 
!S12(Off) 
!S22(Off) 
!S2P File: Measurements: S11, S21, S12, S22:
# Hz S  dB   R 50
300000 -0.0025002686 -0.015404803 -200 45 -200 45 -200 45
1300116.6861144 -0.00082454638 -0.064569362 -200 45 -200 45 -200 45
2300233.3722287 0.00092403078 -0.13522093 -200 45 -200 45 -200 45
3300350.0583431 0.001696235 -0.19108367 -200 45 -200 45 -200 45
4300466.7444574 0.0038909884 -0.26157898 -200 45 -200 45 -200 45
5300583.4305718 0.0042380532 -0.33417317 -200 45 -200 45 -200 45
6300700.1166861 0.0029629325 -0.43049207 -200 45 -200 45 -200 45
7300816.8028005 -0.0024653026 -0.49919745 -200 45 -200 45 -200 45
8300933.4889148 -0.0091810962 -0.57351464 -200 45 -200 45 -200 45
9301050.1750292 -0.010396331 -0.61080617 -200 45 -200 45 -200 45
10301166.861144 -0.0013556009 -0.59540075 -200 45 -200 45 -200 45
11301283.547258 -0.0010127772 -0.65846175 -200 45 -200 45 -200 45
12301400.233372 -0.0025308318 -0.70915055 -200 45 -200 45 -200 45
13301516.919487 -0.0031519835 -0.7678082 -200 45 -200 45 -200 45
14301633.605601 -0.0047575985 -0.83325648 -200 45 -200 45 -200 45
15301750.291715 -0.0035418677 -0.89758903 -200 45 -200 45 -200 45
16301866.97783 -0.0039698738 -0.94827467 -200 45 -200 45 -200 45
17301983.663944 -0.0056740264 -1.0217876 -200 45 -200 45 -200 45
18302100.350058 -0.0041813017 -1.0697491 -200 45 -200 45 -200 45
19302217.036173 -0.002983606 -1.1224267 -200 45 -200 45 -200 45
20302333.722287 -0.0045033861 -1.1800842 -200 45 -200 45 -200 45
21302450.408401 -0.0048348238 -1.2430047 -200 45 -200 45 -200 45
22302567.094516 -0.0070850709 -1.2902977 -200 45 -200 45 -200 45
23302683.78063 -0.0067557949 -1.3380483 -200 45 -200 45 -200 45
24302800.466744 -0.0065709446 -1.4239243 -200 45 -200 45 -200 45
25302917.152859 -0.0063438457 -1.4590703 -200 45 -200 45 -200 45
26303033.838973 -0.0085048731 -1.5180026 -200 45 -200 45 -200 45
27303150.525088 -0.0079685356 -1.5834312 -200 45 -200 45 -200 45
28303267.211202 -0.0099627618 -1.6378026 -200 45 -200 45 -200 45
29303383.897316 -0.010780378 -1.6978256 -200 45 -200 45 -200 45
30303500.583431 -0.0090358304 -1.7565036 -200 45 -200 45 -200 45
31303617.269545 -0.012357924 -1.8078446 -200 45 -200 45 -200 45
32303733.955659 -0.011005892 -1.8659421 -200 45 -200 45 -200 45
33303850.641774 -0.011344574 -1.928321 -200 45 -200 45 -200 45
34303967.327888 -0.011294484 -1.9916904 -200 45 -200 45 -200 45
35304084.014002 -0.013362942 -2.038264 -200 45 -200 45 -200 45
36304200.700117 -0.013060971 -2.0951667 -200 45 -200 45 -200 45
37304317.386231 -0.012895324 -2.1610303 -200 45 -200 45 -200 45
38304434.072345 -0.014831553 -2.2057726 -200 45 -200 45 -200 45
39304550.75846 -0.015746992 -2.2769697 -200 45 -200 45 -200 45
40304667.444574 -0.016597399 -2.3212893 -200 45 -200 45 -200 45
41304784.130688 -0.018540479 -2.3785892 -200 45 -200 45 -200 45
42304900.816803 -0.018713621 -2.4411538 -200 45 -200 45 -200 45
43305017.502917 -0.019756777 -2.4906929 -200 45 -200 45 -200 45
44305134.189032 -0.020341646 -2.5618079 -200 45 -200 45 -200 45
45305250.875146 -0.021287121 -2.6209433 -200 45 -200 45 -200 45
46305367.56126 -0.023551637 -2.6776087 -200 45 -200 45 -200 45
47305484.247375 -0.022504447 -2.7340069 -200 45 -200 45 -200 45
48305600.933489 -0.022375127 -2.7946041 -200 45 -200 45 -200 45
49305717.619603 -0.025055461 -2.8543212 -200 45 -200 45 -200 45
50305834.305718 -0.025067437 -2.9056275 -200 45 -200 45 -200 45
51305950.991832 -0.025086705 -2.9728587 -200 45 -200 45 -200 45
52306067.677946 -0.026508499 -3.0398068 -200 45 -200 45 -200 45
53306184.364061 -0.028881015 -3.0973575 -200 45 -200 45 -200 45
54306301.050175 -0.028863816 -3.1573558 -200 45 -200 45 -200 45
55306417.736289 -0.029699596 -3.2094619 -200 45 -200 45 -200 45
56306534.422404 -0.029447829 -3.273941 -200 45 -200 45 -200 45
57306651.108518 -0.031309061 -3.3303006 -200 45 -200 45 -200 45
58306767.794632 -0.032100976 -3.3787694 -200 45 -200 45 -200 45
59306884.480747 -0.030895818 -3.4530714 -200 45 -200 45 -200 45
60307001.166861 -0.035464518 -3.5174179 -200 45 -200 45 -200 45
61307117.852975 -0.036659982 -3.5726404 -200 45 -200 45 -200 45
62307234.53909 -0.037297782 -3.6325614 -200 45 -200 45 -200 45
63307351.225204 -0.037570372 -3.6873746 -200 45 -200 45 -200 45
64307467.911319 -0.040085316 -3.7648494 -200 45 -200 45 -200 45
65307584.597433 -0.041033011 -3.8289046 -200 45 -200 45 -200 45
66307701.283547 -0.041083705 -3.88696 -200 45 -200 45 -200 45
67307817.969662 -0.041975681 -3.9320199 -200 45 -200 45 -200 45
68307934.655776 -0.044151641 -4.0006051 -200 45 -200 45 -200 45
69308051.34189 -0.044304363 -4.0547194 -200 45 -200 45 -200 45
70308168.028005 -0.046964251 -4.1207862 -200 45 -200 45 -200 45
71308284.714119 -0.04635381 -4.1818109 -200 45 -200 45 -200 45
72308401.400233 -0.047417231 -4.239768 -200 45 -200 45 -200 45
73308518.086348 -0.0487618 -4.2805791 -200 45 -200 45 -200 45
74308634.772462 -0.049833931 -4.3502498 -200 45 -200 45 -200 45
75308751.458576 -0.052460007 -4.3988481 -200 45 -200 45 -200 45
76308868.144691 -0.053936135 -4.452724 -200 45 -200 45 -200 45
77308984.830805 -0.055754401 -4.501791 -200 45 -200 45 -200 45
78309101.516919 -0.05701369 -4.5667925 -200 45 -200 45 -200 45
79309218.203034 -0.057362799 -4.6461549 -200 45 -200 45 -200 45
80309334.889148 -0.058537282 -4.7036386 -200 45 -200 45 -200 45
81309451.575263 -0.060914237 -4.7548075 -200 45 -200 45 -200 45
82309568.261377 -0.062146664 -4.8050327 -200 45 -200 45 -200 45
83309684.947491 -0.061991476 -4.8597641 -200 45 -200 45 -200 45
84309801.633606 -0.064475417 -4.9260874 -200 45 -200 45 -200 45
85309918.31972 -0.068096578 -4.9783273 -200 45 -200 45 -200 45
86310035.005834 -0.069413893 -5.0341883 -200 45 -200 45 -200 45
87310151.691949 -0.069184273 -5.0964704 -200 45 -200 45 -200 45
88310268.378063 -0.069369182 -5.1291919 -200 45 -200 45 -200 45
89310385.064177 -0.073780552 -5.1941676 -200 45 -200 45 -200 45
90310501.750292 -0.071914978 -5.2315683 -200 45 -200 45 -200 45
91310618.436406 -0.072663799 -5.2888899 -200 45 -200 45 -200 45
92310735.12252 -0.075727262 -5.3476071 -200 45 -200 45 -200 45
93310851.808635 -0.077871449 -5.3918157 -200 45 -200 45 -200 45
94310968.494749 -0.078722514 -5.463655 -200 45 -200 45 -200 45
95311085.180863 -0.080611311 -5.5074096 -200 45 -200 45 -200 45
96311201.866978 -0.082633905 -5.5635886 -200 45 -200 45 -200 45
97311318.553092 -0.086289257 -5.6147175 -200 45 -200 45 -200 45
98311435.239207 -0.086587653 -5.6683769 -200 45 -200 45 -200 45
99311551.925321 -0.088410661 -5.7189417 -200 45 -200 45 -200 45
100311668.61144 -0.089535967 -5.7611413 -200 45 -200 45 -200 45
101311785.29755 -0.091776341 -5.8224592 -200 45 -200 45 -200 45
102311901.98366 -0.093620837 -5.8867517 -200 45 -200 45 -200 45
103312018.66978 -0.094775274 -5.9290438 -200 45 -200 45 -200 45
104312135.35589 -0.096927561 -5.9706292 -200 45 -200 45 -200 45
105312252.04201 -0.097136945 -6.0102487 -200 45 -200 45 -200 45
106312368.72812 -0.097908393 -6.0610776 -200 45 -200 45 -200 45
107312485.41424 -0.10096376 -6.0965738 -200 45 -200 45 -200 45
108312602.10035 -0.10297147 -6.1528816 -200 45 -200 45 -200 45
109312718.78646 -0.10398681 -6.2049575 -200 45 -200 45 -200 45
110312835.47258 -0.10398044 -6.2626047 -200 45 -200 45 -200 45
111312952.15869 -0.10856462 -6.3155956 -200 45 -200 45 -200 45
112313068.84481 -0.10749035 -6.3755603 -200 45 -200 45 -200 45
113313185.53092 -0.11279017 -6.4345622 -200 45 -200 45 -200 45
114313302.21704 -0.11401615 -6.494751 -200 45 -200 45 -200 45
115313418.90315 -0.11521961 -6.5375824 -200 45 -200 45 -200 45
116313535.58926 -0.11817892 -6.5904531 -200 45 -200 45 -200 45
117313652.27538 -0.11998491 -6.6402011 -200 45 -200 45 -200 45
118313768.96149 -0.12041417 -6.7047811 -200 45 -200 45 -200 45
119313885.64761 -0.12293868 -6.7546883 -200 45 -200 45 -200 45
120314002.33372 -0.1274624 -6.7909145 -200 45 -200 45 -200 45
121314119.01984 -0.12670542 -6.8473229 -200 45 -200 45 -200 45
122314235.70595 -0.1298998 -6.8877869 -200 45 -200 45 -200 45
123314352.39207 -0.13277839 -6.9520583 -200 45 -200 45 -200 45
124314469.07818 -0.13393341 -7.0101233 -200 45 -200 45 -200 45
125314585.76429 -0.13702598 -7.0717726 -200 45 -200 45 -200 45
126314702.45041 -0.13896918 -7.1251554 -200 45 -200 45 -200 45
127314819.13652 -0.14119805 -7.1741428 -200 45 -200 45 -200 45
128314935.82264 -0.14238313 -7.2317157 -200 45 -200 45 -200 45
129315052.50875 -0.14731035 -7.2931094 -200 45 -200 45 -200 45
130315169.19487 -0.14656623 -7.3522916 -200 45 -200 45 -200 45
131315285.88098 -0.14936239 -7.4049973 -200 45 -200 45 -200 45
132315402.56709 -0.15091792 -7.4748712 -200 45 -200 45 -200 45
133315519.25321 -0.15304084 -7.5175743 -200 45 -200 45 -200 45
134315635.93932 -0.15779442 -7.5912261 -200 45 -200 45 -200 45
135315752.62544 -0.15848623 -7.6382766 -200 45 -200 45 -200 45
136315869.31155 -0.16097388 -7.6856952 -200 45 -200 45 -200 45
137315985.99767 -0.16175057 -7.7369542 -200 45 -200 45 -200 45
138316102.68378 -0.16368069 -7.7951636 -200 45 -200 45 -200 45
139316219.36989 -0.16349064 -7.8536768 -200 45 -200 45 -200 45
140316336.05601 -0.16595265 -7.9153247 -200 45 -200 45 -200 45
141316452.74212 -0.16913944 -7.9678383 -200 45 -200 45 -200 45
142316569.42824 -0.17316684 -8.0229492 -200 45 -200 45 -200 45
143316686.11435 -0.17528799 -8.0770741 -200 45 -200 45 -200 45
144316802.80047 -0.17774107 -8.1489353 -200 45 -200 45 -200 45
145316919.48658 -0.18114109 -8.2219324 -200 45 -200 45 -200 45
146317036.1727 -0.18211414 -8.2904129 -200 45 -200 45 -200 45
147317152.85881 -0.18394043 -8.3404512 -200 45 -200 45 -200 45
148317269.54492 -0.18473232 -8.4112453 -200 45 -200 45 -200 45
149317386.23104 -0.18684535 -8.4652987 -200 45 -200 45 -200 45
150317502.91715 -0.19010971 -8.5345001 -200 45 -200 45 -200 45
151317619.60327 -0.1931216 -8.59869 -200 45 -200 45 -200 45
152317736.28938 -0.19468288 -8.6437006 -200 45 -200 45 -200 45
153317852.9755 -0.19651419 -8.6935034 -200 45 -200 45 -200 45
154317969.66161 -0.19880775 -8.7543259 -200 45 -200 45 -200 45
155318086.34772 -0.20073515 -8.7783918 -200 45 -200 45 -200 45
156318203.03384 -0.20393726 -8.854722 -200 45 -200 45 -200 45
157318319.71995 -0.20499115 -8.9183149 -200 45 -200 45 -200 45
158318436.40607 -0.20871894 -8.973465 -200 45 -200 45 -200 45
159318553.09218 -0.20993862 -9.0203676 -200 45 -200 45 -200 45
160318669.7783 -0.21352628 -9.0830421 -200 45 -200 45 -200 45
161318786.46441 -0.21491376 -9.1480007 -200 45 -200 45 -200 45
162318903.15053 -0.21866833 -9.2104349 -200 45 -200 45 -200 45
163319019.83664 -0.22482392 -9.2559195 -200 45 -200 45 -200 45
164319136.52275 -0.22355863 -9.3027439 -200 45 -200 45 -200 45
165319253.20887 -0.22638273 -9.3487616 -200 45 -200 45 -200 45
166319369.89498 -0.22821738 -9.4106359 -200 45 -200 45 -200 45
167319486.5811 -0.23288767 -9.4620781 -200 45 -200 45 -200 45
168319603.26721 -0.23335145 -9.5111303 -200 45 -200 45 -200 45
169319719.95333 -0.23454829 -9.5341616 -200 45 -200 45 -200 45
170319836.63944 -0.23851103 -9.5776672 -200 45 -200 45 -200 45
171319953.32555 -0.23772404 -9.6454144 -200 45 -200 45 -200 45
172320070.01167 -0.24134815 -9.6716995 -200 45 -200 45 -200 45
173320186.69778 -0.24297339 -9.738883 -200 45 -200 45 -200 45
174320303.3839 -0.24516015 -9.7397661 -200 45 -200 45 -200 45
175320420.07001 -0.24689835 -9.8015137 -200 45 -200 45 -200 45
176320536.75613 -0.25067163 -9.8598528 -200 45 -200 45 -200 45
177320653.44224 -0.25629035 -9.922226 -200 45 -200 45 -200 45
178320770.12835 -0.25920808 -9.9952259 -200 45 -200 45 -200 45
179320886.81447 -0.26212996 -10.029526 -200 45 -200 45 -200 45
180321003.50058 -0.26160976 -10.064121 -200 45 -200 45 -200 45
181321120.1867 -0.26596496 -10.095687 -200 45 -200 45 -200 45
182321236.87281 -0.26641053 -10.152667 -200 45 -200 45 -200 45
183321353.55893 -0.2712439 -10.196898 -200 45 -200 45 -200 45
184321470.24504 -0.27314499 -10.244867 -200 45 -200 45 -200 45
185321586.93116 -0.27567467 -10.262107 -200 45 -200 45 -200 45
186321703.61727 -0.27819753 -10.306152 -200 45 -200 45 -200 45
187321820.30338 -0.28074065 -10.356093 -200 45 -200 45 -200 45
188321936.9895 -0.28392991 -10.393028 -200 45 -200 45 -200 45
189322053.67561 -0.2863749 -10.419658 -200 45 -200 45 -200 45
190322170.36173 -0.28811419 -10.480379 -200 45 -200 45 -200 45
191322287.04784 -0.29073316 -10.532332 -200 45 -200 45 -200 45
192322403.73396 -0.29527584 -10.586524 -200 45 -200 45 -200 45
193322520.42007 -0.29952931 -10.610891 -200 45 -200 45 -200 45
194322637.10618 -0.30031762 -10.670014 -200 45 -200 45 -200 45
195322753.7923 -0.30438277 -10.70556 -200 45 -200 45 -200 45
196322870.47841 -0.30854678 -10.762669 -200 45 -200 45 -200 45
197322987.16453 -0.31007171 -10.805949 -200 45 -200 45 -200 45
198323103.85064 -0.31447941 -10.837219 -200 45 -200 45 -200 45
199323220.53676 -0.31721792 -10.905041 -200 45 -200 45 -200 45
200323337.22287 -0.3198528 -10.931422 -200 45 -200 45 -200 45
201323453.90898 -0.32140958 -10.970687 -200 45 -200 45 -200 45
202323570.5951 -0.32468298 -11.020991 -200 45 -200 45 -200 45
203323687.28121 -0.3284438 -11.053925 -200 45 -200 45 -200 45
204323803.96733 -0.3291935 -11.105278 -200 45 -200 45 -200 45
205323920.65344 -0.33384597 -11.143982 -200 45 -200 45 -200 45
206324037.33956 -0.33780891 -11.216161 -200 45 -200 45 -200 45
207324154.02567 -0.33879054 -11.253344 -200 45 -200 45 -200 45
208324270.71179 -0.34091493 -11.302024 -200 45 -200 45 -200 45
209324387.3979 -0.34613109 -11.357903 -200 45 -200 45 -200 45
210324504.08401 -0.34665534 -11.422841 -200 45 -200 45 -200 45
211324620.77013 -0.35306734 -11.487508 -200 45 -200 45 -200 45
212324737.45624 -0.3564021 -11.565259 -200 45 -200 45 -200 45
213324854.14236 -0.35890764 -11.581283 -200 45 -200 45 -200 45
214324970.82847 -0.36128861 -11.640377 -200 45 -200 45 -200 45
215325087.51459 -0.3675738 -11.700646 -200 45 -200 45 -200 45
216325204.2007 -0.36758223 -11.762484 -200 45 -200 45 -200 45
217325320.88681 -0.36945835 -11.800572 -200 45 -200 45 -200 45
218325437.57293 -0.37007311 -11.826818 -200 45 -200 45 -200 45
219325554.25904 -0.37088302 -11.854296 -200 45 -200 45 -200 45
220325670.94516 -0.37657145 -11.963263 -200 45 -200 45 -200 45
221325787.63127 -0.38136259 -12.013237 -200 45 -200 45 -200 45
222325904.31739 -0.38288024 -12.053441 -200 45 -200 45 -200 45
223326021.0035 -0.3861528 -12.112638 -200 45 -200 45 -200 45
224326137.68961 -0.39263532 -12.194117 -200 45 -200 45 -200 45
225326254.37573 -0.39407074 -12.259172 -200 45 -200 45 -200 45
226326371.06184 -0.39934349 -12.320405 -200 45 -200 45 -200 45
227326487.74796 -0.40240356 -12.383527 -200 45 -200 45 -200 45
228326604.43407 -0.40379676 -12.439768 -200 45 -200 45 -200 45
229326721.12019 -0.40842521 -12.491578 -200 45 -200 45 -200 45
230326837.8063 -0.41050828 -12.547812 -200 45 -200 45 -200 45
231326954.49242 -0.41423312 -12.62141 -200 45 -200 45 -200 45
232327071.17853 -0.41786596 -12.675718 -200 45 -200 45 -200 45
233327187.86464 -0.42050222 -12.742194 -200 45 -200 45 -200 45
234327304.55076 -0.41985434 -12.750891 -200 45 -200 45 -200 45
235327421.23687 -0.42258793 -12.827195 -200 45 -200 45 -200 45
236327537.92299 -0.4263674 -12.868464 -200 45 -200 45 -200 45
237327654.6091 -0.42985496 -12.922483 -200 45 -200 45 -200 45
238327771.29522 -0.43285653 -12.984369 -200 45 -200 45 -200 45
239327887.98133 -0.43711555 -13.037276 -200 45 -200 45 -200 45
240328004.66744 -0.44159627 -13.078789 -200 45 -200 45 -200 45
241328121.35356 -0.44288 -13.146155 -200 45 -200 45 -200 45
242328238.03967 -0.44634324 -13.201322 -200 45 -200 45 -200 45
243328354.72579 -0.44975558 -13.271559 -200 45 -200 45 -200 45
244328471.4119 -0.45330909 -13.311357 -200 45 -200 45 -200 45
245328588.09802 -0.45782182 -13.357485 -200 45 -200 45 -200 45
246328704.78413 -0.45783016 -13.401553 -200 45 -200 45 -200 45
247328821.47025 -0.46235937 -13.449542 -200 45 -200 45 -200 45
248328938.15636 -0.46623531 -13.500282 -200 45 -200 45 -200 45
249329054.84247 -0.4668031 -13.549479 -200 45 -200 45 -200 45
250329171.52859 -0.47080535 -13.588036 -200 45 -200 45 -200 45
251329288.2147 -0.4712286 -13.619611 -200 45 -200 45 -200 45
252329404.90082 -0.47433397 -13.636743 -200 45 -200 45 -200 45
253329521.58693 -0.4789128 -13.686096 -200 45 -200 45 -200 45
254329638.27305 -0.48000002 -13.715979 -200 45 -200 45 -200 45
255329754.95916 -0.48421383 -13.774183 -200 45 -200 45 -200 45
256329871.64527 -0.48567319 -13.789051 -200 45 -200 45 -200 45
257329988.33139 -0.49220693 -13.861731 -200 45 -200 45 -200 45
258330105.0175 -0.49580699 -13.904456 -200 45 -200 45 -200 45
259330221.70362 -0.50049132 -13.946057 -200 45 -200 45 -200 45
260330338.38973 -0.50540203 -13.985043 -200 45 -200 45 -200 45
261330455.07585 -0.50597757 -14.030612 -200 45 -200 45 -200 45
262330571.76196 -0.50913411 -14.050909 -200 45 -200 45 -200 45
263330688.44807 -0.51358223 -14.092463 -200 45 -200 45 -200 45
264330805.13419 -0.51868367 -14.146183 -200 45 -200 45 -200 45
265330921.8203 -0.52242863 -14.165693 -200 45 -200 45 -200 45
266331038.50642 -0.52426422 -14.198751 -200 45 -200 45 -200 45
267331155.19253 -0.52542305 -14.211089 -200 45 -200 45 -200 45
268331271.87865 -0.52373385 -14.205543 -200 45 -200 45 -200 45
269331388.56476 -0.53066736 -14.258355 -200 45 -200 45 -200 45
270331505.25088 -0.5355643 -14.315351 -200 45 -200 45 -200 45
271331621.93699 -0.53927493 -14.344017 -200 45 -200 45 -200 45
272331738.6231 -0.54362321 -14.38116 -200 45 -200 45 -200 45
273331855.30922 -0.54679054 -14.416592 -200 45 -200 45 -200 45
274331971.99533 -0.55273128 -14.460776 -200 45 -200 45 -200 45
275332088.68145 -0.55700338 -14.506435 -200 45 -200 45 -200 45
276332205.36756 -0.56186765 -14.54258 -200 45 -200 45 -200 45
277332322.05368 -0.5642004 -14.570529 -200 45 -200 45 -200 45
278332438.73979 -0.56782407 -14.598142 -200 45 -200 45 -200 45
279332555.4259 -0.56808901 -14.633631 -200 45 -200 45 -200 45
280332672.11202 -0.57328415 -14.672543 -200 45 -200 45 -200 45
281332788.79813 -0.57694227 -14.715858 -200 45 -200 45 -200 45
282332905.48425 -0.58159012 -14.73704 -200 45 -200 45 -200 45
283333022.17036 -0.58287859 -14.776256 -200 45 -200 45 -200 45
284333138.85648 -0.58677119 -14.803665 -200 45 -200 45 -200 45
285333255.54259 -0.58877409 -14.860134 -200 45 -200 45 -200 45
286333372.2287 -0.59278804 -14.867105 -200 45 -200 45 -200 45
287333488.91482 -0.59438908 -14.901209 -200 45 -200 45 -200 45
288333605.60093 -0.59965652 -14.966574 -200 45 -200 45 -200 45
289333722.28705 -0.60490268 -15.019931 -200 45 -200 45 -200 45
290333838.97316 -0.61077094 -15.066321 -200 45 -200 45 -200 45
291333955.65928 -0.61553627 -15.115416 -200 45 -200 45 -200 45
292334072.34539 -0.61986464 -15.171766 -200 45 -200 45 -200 45
293334189.03151 -0.62244779 -15.213832 -200 45 -200 45 -200 45
294334305.71762 -0.62390023 -15.273746 -200 45 -200 45 -200 45
295334422.40373 -0.62799644 -15.315489 -200 45 -200 45 -200 45
296334539.08985 -0.6332224 -15.354021 -200 45 -200 45 -200 45
297334655.77596 -0.64042699 -15.42503 -200 45 -200 45 -200 45
298334772.46208 -0.64056921 -15.472383 -200 45 -200 45 -200 45
299334889.14819 -0.64278048 -15.502042 -200 45 -200 45 -200 45
300335005.83431 -0.64498204 -15.545274 -200 45 -200 45 -200 45
301335122.52042 -0.6475336 -15.590662 -200 45 -200 45 -200 45
302335239.20653 -0.65002531 -15.634394 -200 45 -200 45 -200 45
303335355.89265 -0.65641499 -15.69656 -200 45 -200 45 -200 45
304335472.57876 -0.66071528 -15.767342 -200 45 -200 45 -200 45
305335589.26488 -0.66315001 -15.819493 -200 45 -200 45 -200 45
306335705.95099 -0.66825247 -15.880212 -200 45 -200 45 -200 45
307335822.63711 -0.67303991 -15.928664 -200 45 -200 45 -200 45
308335939.32322 -0.6793077 -15.993917 -200 45 -200 45 -200 45
309336056.00933 -0.68310714 -16.072935 -200 45 -200 45 -200 45
310336172.69545 -0.68838054 -16.128099 -200 45 -200 45 -200 45
311336289.38156 -0.68855494 -16.163361 -200 45 -200 45 -200 45
312336406.06768 -0.69098747 -16.22023 -200 45 -200 45 -200 45
313336522.75379 -0.69553357 -16.291275 -200 45 -200 45 -200 45
314336639.43991 -0.70200735 -16.346212 -200 45 -200 45 -200 45
315336756.12602 -0.69946921 -16.364998 -200 45 -200 45 -200 45
316336872.81214 -0.70425349 -16.422083 -200 45 -200 45 -200 45
317336989.49825 -0.7049945 -16.464663 -200 45 -200 45 -200 45
318337106.18436 -0.70912498 -16.527187 -200 45 -200 45 -200 45
319337222.87048 -0.71026009 -16.561565 -200 45 -200 45 -200 45
320337339.55659 -0.71447676 -16.61079 -200 45 -200 45 -200 45
321337456.24271 -0.72116345 -16.679764 -200 45 -200 45 -200 45
322337572.92882 -0.72207338 -16.744833 -200 45 -200 45 -200 45
323337689.61494 -0.72810316 -16.779921 -200 45 -200 45 -200 45
324337806.30105 -0.73634839 -16.872093 -200 45 -200 45 -200 45
325337922.98716 -0.7404716 -16.933922 -200 45 -200 45 -200 45
326338039.67328 -0.73943812 -16.945768 -200 45 -200 45 -200 45
327338156.35939 -0.74082559 -16.987648 -200 45 -200 45 -200 45
328338273.04551 -0.7453661 -17.02809 -200 45 -200 45 -200 45
329338389.73162 -0.7496044 -17.077559 -200 45 -200 45 -200 45
330338506.41774 -0.75511777 -17.133547 -200 45 -200 45 -200 45
331338623.10385 -0.75504416 -17.142347 -200 45 -200 45 -200 45
332338739.78997 -0.75319618 -17.14896 -200 45 -200 45 -200 45
333338856.47608 -0.75540179 -17.18869 -200 45 -200 45 -200 45
334338973.16219 -0.76423824 -17.230118 -200 45 -200 45 -200 45
335339089.84831 -0.76215523 -17.235241 -200 45 -200 45 -200 45
336339206.53442 -0.76430458 -17.280418 -200 45 -200 45 -200 45
337339323.22054 -0.77014858 -17.329216 -200 45 -200 45 -200 45
338339439.90665 -0.77593511 -17.384596 -200 45 -200 45 -200 45
339339556.59277 -0.78047532 -17.429314 -200 45 -200 45 -200 45
340339673.27888 -0.78530693 -17.465609 -200 45 -200 45 -200 45
341339789.96499 -0.79101092 -17.500063 -200 45 -200 45 -200 45
342339906.65111 -0.79564714 -17.532858 -200 45 -200 45 -200 45
343340023.33722 -0.7965734 -17.547264 -200 45 -200 45 -200 45
344340140.02334 -0.79893714 -17.577276 -200 45 -200 45 -200 45
345340256.70945 -0.80614918 -17.620064 -200 45 -200 45 -200 45
346340373.39557 -0.81263119 -17.67679 -200 45 -200 45 -200 45
347340490.08168 -0.81685191 -17.681387 -200 45 -200 45 -200 45
348340606.76779 -0.81265807 -17.658995 -200 45 -200 45 -200 45
349340723.45391 -0.814623 -17.679867 -200 45 -200 45 -200 45
350340840.14002 -0.82042289 -17.715443 -200 45 -200 45 -200 45
351340956.82614 -0.82407063 -17.739567 -200 45 -200 45 -200 45
352341073.51225 -0.82453102 -17.748365 -200 45 -200 45 -200 45
353341190.19837 -0.82739294 -17.770405 -200 45 -200 45 -200 45
354341306.88448 -0.83636934 -17.826401 -200 45 -200 45 -200 45
355341423.5706 -0.84130406 -17.833433 -200 45 -200 45 -200 45
356341540.25671 -0.8456732 -17.87188 -200 45 -200 45 -200 45
357341656.94282 -0.85422683 -17.919498 -200 45 -200 45 -200 45
358341773.62894 -0.86171347 -17.965757 -200 45 -200 45 -200 45
359341890.31505 -0.86553162 -17.984692 -200 45 -200 45 -200 45
360342007.00117 -0.86395186 -17.987936 -200 45 -200 45 -200 45
361342123.68728 -0.86866695 -18.024939 -200 45 -200 45 -200 45
362342240.3734 -0.87654537 -18.055712 -200 45 -200 45 -200 45
363342357.05951 -0.88418704 -18.097813 -200 45 -200 45 -200 45
364342473.74562 -0.88308454 -18.131763 -200 45 -200 45 -200 45
365342590.43174 -0.87921101 -18.090868 -200 45 -200 45 -200 45
366342707.11785 -0.87697899 -18.082701 -200 45 -200 45 -200 45
367342823.80397 -0.88140321 -18.124235 -200 45 -200 45 -200 45
368342940.49008 -0.88727844 -18.165865 -200 45 -200 45 -200 45
369343057.1762 -0.89209461 -18.201239 -200 45 -200 45 -200 45
370343173.86231 -0.89763546 -18.230249 -200 45 -200 45 -200 45
371343290.54842 -0.90652716 -18.309977 -200 45 -200 45 -200 45
372343407.23454 -0.91663611 -18.352022 -200 45 -200 45 -200 45
373343523.92065 -0.92169076 -18.420137 -200 45 -200 45 -200 45
374343640.60677 -0.92620212 -18.469454 -200 45 -200 45 -200 45
375343757.29288 -0.93042761 -18.482973 -200 45 -200 45 -200 45
376343873.979 -0.93264747 -18.527744 -200 45 -200 45 -200 45
377343990.66511 -0.93836689 -18.5693 -200 45 -200 45 -200 45
378344107.35123 -0.94574136 -18.631945 -200 45 -200 45 -200 45
379344224.03734 -0.95005035 -18.683289 -200 45 -200 45 -200 45
380344340.72345 -0.95361972 -18.717514 -200 45 -200 45 -200 45
381344457.40957 -0.94627762 -18.701536 -200 45 -200 45 -200 45
382344574.09568 -0.94842893 -18.745928 -200 45 -200 45 -200 45
383344690.7818 -0.957699 -18.818651 -200 45 -200 45 -200 45
384344807.46791 -0.9628337 -18.866488 -200 45 -200 45 -200 45
385344924.15403 -0.96169847 -18.902454 -200 45 -200 45 -200 45
386345040.84014 -0.95782226 -18.882177 -200 45 -200 45 -200 45
387345157.52625 -0.97427708 -19.02882 -200 45 -200 45 -200 45
388345274.21237 -0.98063755 -19.075308 -200 45 -200 45 -200 45
389345390.89848 -0.98549318 -19.147091 -200 45 -200 45 -200 45
390345507.5846 -0.9903217 -19.200384 -200 45 -200 45 -200 45
391345624.27071 -0.99833745 -19.246712 -200 45 -200 45 -200 45
392345740.95683 -0.99762118 -19.300219 -200 45 -200 45 -200 45
393345857.64294 -1.0029001 -19.363384 -200 45 -200 45 -200 45
394345974.32905 -1.0093288 -19.430521 -200 45 -200 45 -200 45
395346091.01517 -1.0172637 -19.496567 -200 45 -200 45 -200 45
396346207.70128 -1.0197309 -19.543589 -200 45 -200 45 -200 45
397346324.3874 -1.0155675 -19.536568 -200 45 -200 45 -200 45
398346441.07351 -1.0146011 -19.575972 -200 45 -200 45 -200 45
399346557.75963 -1.017087 -19.627235 -200 45 -200 45 -200 45
400346674.44574 -1.0197846 -19.669651 -200 45 -200 45 -200 45
401346791.13186 -1.026355 -19.736179 -200 45 -200 45 -200 45
402346907.81797 -1.0300117 -19.765703 -200 45 -200 45 -200 45
403347024.50408 -1.037554 -19.82412 -200 45 -200 45 -200 45
404347141.1902 -1.0406754 -19.87845 -200 45 -200 45 -200 45
405347257.87631 -1.0483158 -19.948244 -200 45 -200 45 -200 45
406347374.56243 -1.0520031 -19.993673 -200 45 -200 45 -200 45
407347491.24854 -1.0562555 -20.035532 -200 45 -200 45 -200 45
408347607.93466 -1.0600851 -20.09116 -200 45 -200 45 -200 45
409347724.62077 -1.0636528 -20.120604 -200 45 -200 45 -200 45
410347841.30688 -1.0671841 -20.164522 -200 45 -200 45 -200 45
411347957.993 -1.0714536 -20.204742 -200 45 -200 45 -200 45
412348074.67911 -1.0765605 -20.23682 -200 45 -200 45 -200 45
413348191.36523 -1.0723453 -20.233826 -200 45 -200 45 -200 45
414348308.05134 -1.0687025 -20.248075 -200 45 -200 45 -200 45
415348424.73746 -1.0728927 -20.263603 -200 45 -200 45 -200 45
416348541.42357 -1.0658356 -20.259253 -200 45 -200 45 -200 45
417348658.10968 -1.0649916 -20.269344 -200 45 -200 45 -200 45
418348774.7958 -1.0727078 -20.308958 -200 45 -200 45 -200 45
419348891.48191 -1.0724672 -20.333887 -200 45 -200 45 -200 45
420349008.16803 -1.0837677 -20.386555 -200 45 -200 45 -200 45
421349124.85414 -1.0969703 -20.457384 -200 45 -200 45 -200 45
422349241.54026 -1.1054944 -20.520735 -200 45 -200 45 -200 45
423349358.22637 -1.1110069 -20.546228 -200 45 -200 45 -200 45
424349474.91249 -1.1127379 -20.55196 -200 45 -200 45 -200 45
425349591.5986 -1.1148409 -20.574141 -200 45 -200 45 -200 45
426349708.28471 -1.1188451 -20.586254 -200 45 -200 45 -200 45
427349824.97083 -1.1269233 -20.639576 -200 45 -200 45 -200 45
428349941.65694 -1.1314344 -20.646109 -200 45 -200 45 -200 45
429350058.34306 -1.1291941 -20.631838 -200 45 -200 45 -200 45
430350175.02917 -1.1319255 -20.656872 -200 45 -200 45 -200 45
431350291.71529 -1.1355461 -20.655834 -200 45 -200 45 -200 45
432350408.4014 -1.1376264 -20.669456 -200 45 -200 45 -200 45
433350525.08751 -1.1379348 -20.655771 -200 45 -200 45 -200 45
434350641.77363 -1.144067 -20.694996 -200 45 -200 45 -200 45
435350758.45974 -1.1468779 -20.695112 -200 45 -200 45 -200 45
436350875.14586 -1.1542007 -20.719328 -200 45 -200 45 -200 45
437350991.83197 -1.1606137 -20.747515 -200 45 -200 45 -200 45
438351108.51809 -1.1700851 -20.784645 -200 45 -200 45 -200 45
439351225.2042 -1.1755855 -20.802248 -200 45 -200 45 -200 45
440351341.89032 -1.1745992 -20.811426 -200 45 -200 45 -200 45
441351458.57643 -1.1777449 -20.825205 -200 45 -200 45 -200 45
442351575.26254 -1.1820883 -20.832253 -200 45 -200 45 -200 45
443351691.94866 -1.1886023 -20.861465 -200 45 -200 45 -200 45
444351808.63477 -1.194291 -20.885872 -200 45 -200 45 -200 45
445351925.32089 -1.1949831 -20.891081 -200 45 -200 45 -200 45
446352042.007 -1.1948352 -20.891418 -200 45 -200 45 -200 45
447352158.69312 -1.1963553 -20.8941 -200 45 -200 45 -200 45
448352275.37923 -1.2017468 -20.926222 -200 45 -200 45 -200 45
449352392.06534 -1.2092705 -20.963654 -200 45 -200 45 -200 45
450352508.75146 -1.2086105 -20.971018 -200 45 -200 45 -200 45
451352625.43757 -1.216882 -21.009123 -200 45 -200 45 -200 45
452352742.12369 -1.2227703 -21.043346 -200 45 -200 45 -200 45
453352858.8098 -1.2272564 -21.084568 -200 45 -200 45 -200 45
454352975.49592 -1.2375261 -21.129501 -200 45 -200 45 -200 45
455353092.18203 -1.2443346 -21.184877 -200 45 -200 45 -200 45
456353208.86814 -1.2517637 -21.211473 -200 45 -200 45 -200 45
457353325.55426 -1.2558831 -21.259212 -200 45 -200 45 -200 45
458353442.24037 -1.2586094 -21.275562 -200 45 -200 45 -200 45
459353558.92649 -1.2644539 -21.311287 -200 45 -200 45 -200 45
460353675.6126 -1.2672883 -21.351271 -200 45 -200 45 -200 45
461353792.29872 -1.2735002 -21.382063 -200 45 -200 45 -200 45
462353908.98483 -1.2686682 -21.400751 -200 45 -200 45 -200 45
463354025.67095 -1.2700812 -21.43681 -200 45 -200 45 -200 45
464354142.35706 -1.276337 -21.469601 -200 45 -200 45 -200 45
465354259.04317 -1.2805083 -21.506428 -200 45 -200 45 -200 45
466354375.72929 -1.2848954 -21.561274 -200 45 -200 45 -200 45
467354492.4154 -1.2856698 -21.611511 -200 45 -200 45 -200 45
468354609.10152 -1.2917049 -21.657583 -200 45 -200 45 -200 45
469354725.78763 -1.2999449 -21.717728 -200 45 -200 45 -200 45
470354842.47375 -1.308041 -21.775362 -200 45 -200 45 -200 45
471354959.15986 -1.3133144 -21.822296 -200 45 -200 45 -200 45
472355075.84597 -1.316766 -21.884552 -200 45 -200 45 -200 45
473355192.53209 -1.322069 -21.94116 -200 45 -200 45 -200 45
474355309.2182 -1.3236263 -21.980076 -200 45 -200 45 -200 45
475355425.90432 -1.3276664 -22.045761 -200 45 -200 45 -200 45
476355542.59043 -1.3304119 -22.086491 -200 45 -200 45 -200 45
477355659.27655 -1.3334829 -22.115606 -200 45 -200 45 -200 45
478355775.96266 -1.3289824 -22.170279 -200 45 -200 45 -200 45
479355892.64877 -1.3301823 -22.175629 -200 45 -200 45 -200 45
480356009.33489 -1.3338935 -22.252487 -200 45 -200 45 -200 45
481356126.021 -1.3421475 -22.308306 -200 45 -200 45 -200 45
482356242.70712 -1.3453156 -22.333017 -200 45 -200 45 -200 45
483356359.39323 -1.3467184 -22.376303 -200 45 -200 45 -200 45
484356476.07935 -1.3416355 -22.404856 -200 45 -200 45 -200 45
485356592.76546 -1.3443927 -22.45476 -200 45 -200 45 -200 45
486356709.45158 -1.35166 -22.507099 -200 45 -200 45 -200 45
487356826.13769 -1.3705853 -22.619295 -200 45 -200 45 -200 45
488356942.8238 -1.3733996 -22.639685 -200 45 -200 45 -200 45
489357059.50992 -1.3748322 -22.69458 -200 45 -200 45 -200 45
490357176.19603 -1.3782244 -22.737612 -200 45 -200 45 -200 45
491357292.88215 -1.3804289 -22.769943 -200 45 -200 45 -200 45
492357409.56826 -1.3886945 -22.813927 -200 45 -200 45 -200 45
493357526.25438 -1.3879308 -22.838146 -200 45 -200 45 -200 45
494357642.94049 -1.3890121 -22.875139 -200 45 -200 45 -200 45
495357759.6266 -1.3732636 -22.843193 -200 45 -200 45 -200 45
496357876.31272 -1.3796432 -22.888176 -200 45 -200 45 -200 45
497357992.99883 -1.3939685 -22.948313 -200 45 -200 45 -200 45
498358109.68495 -1.3980711 -22.986044 -200 45 -200 45 -200 45
499358226.37106 -1.4002922 -22.999731 -200 45 -200 45 -200 45
500358343.05718 -1.4022419 -23.030315 -200 45 -200 45 -200 45
501358459.74329 -1.404258 -23.070007 -200 45 -200 45 -200 45
502358576.4294 -1.4099338 -23.085182 -200 45 -200 45 -200 45
503358693.11552 -1.4167862 -23.118042 -200 45 -200 45 -200 45
504358809.80163 -1.422238 -23.134369 -200 45 -200 45 -200 45
505358926.48775 -1.4235075 -23.152412 -200 45 -200 45 -200 45
506359043.17386 -1.4292606 -23.169094 -200 45 -200 45 -200 45
507359159.85998 -1.4321629 -23.188606 -200 45 -200 45 -200 45
508359276.54609 -1.4334291 -23.201757 -200 45 -200 45 -200 45
509359393.23221 -1.4352908 -23.208973 -200 45 -200 45 -200 45
510359509.91832 -1.4383212 -23.207407 -200 45 -200 45 -200 45
511359626.60443 -1.4401875 -23.216619 -200 45 -200 45 -200 45
512359743.29055 -1.4390289 -23.230547 -200 45 -200 45 -200 45
513359859.97666 -1.4455702 -23.237692 -200 45 -200 45 -200 45
514359976.66278 -1.4471009 -23.262136 -200 45 -200 45 -200 45
515360093.34889 -1.4533509 -23.268559 -200 45 -200 45 -200 45
516360210.03501 -1.4537227 -23.268353 -200 45 -200 45 -200 45
517360326.72112 -1.4563684 -23.271536 -200 45 -200 45 -200 45
518360443.40723 -1.4632543 -23.289238 -200 45 -200 45 -200 45
519360560.09335 -1.4726121 -23.30345 -200 45 -200 45 -200 45
520360676.77946 -1.4799428 -23.318506 -200 45 -200 45 -200 45
521360793.46558 -1.4830245 -23.334383 -200 45 -200 45 -200 45
522360910.15169 -1.486841 -23.328753 -200 45 -200 45 -200 45
523361026.83781 -1.4885029 -23.338724 -200 45 -200 45 -200 45
524361143.52392 -1.4934669 -23.355099 -200 45 -200 45 -200 45
525361260.21004 -1.4983184 -23.376997 -200 45 -200 45 -200 45
526361376.89615 -1.5019096 -23.388344 -200 45 -200 45 -200 45
527361493.58226 -1.4985312 -23.369583 -200 45 -200 45 -200 45
528361610.26838 -1.4954422 -23.34037 -200 45 -200 45 -200 45
529361726.95449 -1.5077401 -23.384142 -200 45 -200 45 -200 45
530361843.64061 -1.5153248 -23.405598 -200 45 -200 45 -200 45
531361960.32672 -1.5194072 -23.432232 -200 45 -200 45 -200 45
532362077.01284 -1.5258776 -23.457933 -200 45 -200 45 -200 45
533362193.69895 -1.5308315 -23.47064 -200 45 -200 45 -200 45
534362310.38506 -1.5356605 -23.491249 -200 45 -200 45 -200 45
535362427.07118 -1.542968 -23.522133 -200 45 -200 45 -200 45
536362543.75729 -1.5481807 -23.549717 -200 45 -200 45 -200 45
537362660.44341 -1.5539367 -23.573364 -200 45 -200 45 -200 45
538362777.12952 -1.5592971 -23.601904 -200 45 -200 45 -200 45
539362893.81564 -1.5621136 -23.629471 -200 45 -200 45 -200 45
540363010.50175 -1.5695019 -23.677773 -200 45 -200 45 -200 45
541363127.18786 -1.5809093 -23.718071 -200 45 -200 45 -200 45
542363243.87398 -1.5872394 -23.75976 -200 45 -200 45 -200 45
543363360.56009 -1.5804734 -23.742363 -200 45 -200 45 -200 45
544363477.24621 -1.5802306 -23.760128 -200 45 -200 45 -200 45
545363593.93232 -1.5890144 -23.799801 -200 45 -200 45 -200 45
546363710.61844 -1.5913137 -23.848555 -200 45 -200 45 -200 45
547363827.30455 -1.5943663 -23.880896 -200 45 -200 45 -200 45
548363943.99067 -1.5980868 -23.92445 -200 45 -200 45 -200 45
549364060.67678 -1.5958647 -23.95075 -200 45 -200 45 -200 45
550364177.36289 -1.6028789 -23.991739 -200 45 -200 45 -200 45
551364294.04901 -1.6075065 -24.051399 -200 45 -200 45 -200 45
552364410.73512 -1.6222618 -24.109051 -200 45 -200 45 -200 45
553364527.42124 -1.6272775 -24.169725 -200 45 -200 45 -200 45
554364644.10735 -1.6287315 -24.220703 -200 45 -200 45 -200 45
555364760.79347 -1.6311054 -24.254082 -200 45 -200 45 -200 45
556364877.47958 -1.6357093 -24.310991 -200 45 -200 45 -200 45
557364994.16569 -1.6438988 -24.367275 -200 45 -200 45 -200 45
558365110.85181 -1.647089 -24.41519 -200 45 -200 45 -200 45
559365227.53792 -1.648452 -24.462679 -200 45 -200 45 -200 45
560365344.22404 -1.640818 -24.468288 -200 45 -200 45 -200 45
561365460.91015 -1.6451857 -24.514723 -200 45 -200 45 -200 45
562365577.59627 -1.6512706 -24.58007 -200 45 -200 45 -200 45
563365694.28238 -1.651318 -24.617252 -200 45 -200 45 -200 45
564365810.96849 -1.6588145 -24.687838 -200 45 -200 45 -200 45
565365927.65461 -1.6640435 -24.727993 -200 45 -200 45 -200 45
566366044.34072 -1.6689429 -24.786848 -200 45 -200 45 -200 45
567366161.02684 -1.6703546 -24.838572 -200 45 -200 45 -200 45
568366277.71295 -1.6784232 -24.885202 -200 45 -200 45 -200 45
569366394.39907 -1.6862195 -24.946705 -200 45 -200 45 -200 45
570366511.08518 -1.6885639 -24.973061 -200 45 -200 45 -200 45
571366627.7713 -1.6861354 -24.999132 -200 45 -200 45 -200 45
572366744.45741 -1.6894014 -25.047562 -200 45 -200 45 -200 45
573366861.14352 -1.6939765 -25.076612 -200 45 -200 45 -200 45
574366977.82964 -1.7010558 -25.130684 -200 45 -200 45 -200 45
575367094.51575 -1.7010351 -25.148809 -200 45 -200 45 -200 45
576367211.20187 -1.6952993 -25.169735 -200 45 -200 45 -200 45
577367327.88798 -1.6965371 -25.196085 -200 45 -200 45 -200 45
578367444.5741 -1.7005277 -25.224913 -200 45 -200 45 -200 45
579367561.26021 -1.6969936 -25.228739 -200 45 -200 45 -200 45
580367677.94632 -1.6979686 -25.254009 -200 45 -200 45 -200 45
581367794.63244 -1.697499 -25.283207 -200 45 -200 45 -200 45
582367911.31855 -1.6980853 -25.295082 -200 45 -200 45 -200 45
583368028.00467 -1.7092581 -25.340109 -200 45 -200 45 -200 45
584368144.69078 -1.720188 -25.373236 -200 45 -200 45 -200 45
585368261.3769 -1.7245804 -25.38965 -200 45 -200 45 -200 45
586368378.06301 -1.7226744 -25.417862 -200 45 -200 45 -200 45
587368494.74912 -1.7289387 -25.441259 -200 45 -200 45 -200 45
588368611.43524 -1.7327269 -25.448227 -200 45 -200 45 -200 45
589368728.12135 -1.7333366 -25.466129 -200 45 -200 45 -200 45
590368844.80747 -1.7433356 -25.492426 -200 45 -200 45 -200 45
591368961.49358 -1.7397352 -25.473064 -200 45 -200 45 -200 45
592369078.1797 -1.7381396 -25.48119 -200 45 -200 45 -200 45
593369194.86581 -1.7311698 -25.449993 -200 45 -200 45 -200 45
594369311.55193 -1.7321386 -25.452404 -200 45 -200 45 -200 45
595369428.23804 -1.7440495 -25.484158 -200 45 -200 45 -200 45
596369544.92415 -1.7488987 -25.486902 -200 45 -200 45 -200 45
597369661.61027 -1.7527555 -25.494881 -200 45 -200 45 -200 45
598369778.29638 -1.7578747 -25.50349 -200 45 -200 45 -200 45
599369894.9825 -1.7633442 -25.504747 -200 45 -200 45 -200 45
600370011.66861 -1.7678019 -25.513449 -200 45 -200 45 -200 45
601370128.35473 -1.7780375 -25.539097 -200 45 -200 45 -200 45
602370245.04084 -1.7786644 -25.545219 -200 45 -200 45 -200 45
603370361.72695 -1.7841926 -25.531315 -200 45 -200 45 -200 45
604370478.41307 -1.7858086 -25.518452 -200 45 -200 45 -200 45
605370595.09918 -1.7865167 -25.535032 -200 45 -200 45 -200 45
606370711.7853 -1.7924893 -25.538113 -200 45 -200 45 -200 45
607370828.47141 -1.7978988 -25.551865 -200 45 -200 45 -200 45
608370945.15753 -1.8050872 -25.554174 -200 45 -200 45 -200 45
609371061.84364 -1.795518 -25.523447 -200 45 -200 45 -200 45
610371178.52976 -1.7711957 -25.452581 -200 45 -200 45 -200 45
611371295.21587 -1.7690665 -25.444952 -200 45 -200 45 -200 45
612371411.90198 -1.7735993 -25.464092 -200 45 -200 45 -200 45
613371528.5881 -1.8098142 -25.552008 -200 45 -200 45 -200 45
614371645.27421 -1.8233417 -25.582689 -200 45 -200 45 -200 45
615371761.96033 -1.8277746 -25.594019 -200 45 -200 45 -200 45
616371878.64644 -1.8353087 -25.608515 -200 45 -200 45 -200 45
617371995.33256 -1.8479381 -25.635962 -200 45 -200 45 -200 45
618372112.01867 -1.8520826 -25.65859 -200 45 -200 45 -200 45
619372228.70478 -1.8552953 -25.668119 -200 45 -200 45 -200 45
620372345.3909 -1.8584586 -25.700396 -200 45 -200 45 -200 45
621372462.07701 -1.8631943 -25.707451 -200 45 -200 45 -200 45
622372578.76313 -1.8704584 -25.740305 -200 45 -200 45 -200 45
623372695.44924 -1.8817794 -25.777748 -200 45 -200 45 -200 45
624372812.13536 -1.8834802 -25.805635 -200 45 -200 45 -200 45
625372928.82147 -1.8776568 -25.808849 -200 45 -200 45 -200 45
626373045.50758 -1.8795446 -25.828917 -200 45 -200 45 -200 45
627373162.1937 -1.8864907 -25.868744 -200 45 -200 45 -200 45
628373278.87981 -1.8897185 -25.909882 -200 45 -200 45 -200 45
629373395.56593 -1.8965997 -25.947828 -200 45 -200 45 -200 45
630373512.25204 -1.901996 -25.981562 -200 45 -200 45 -200 45
631373628.93816 -1.9066827 -26.017792 -200 45 -200 45 -200 45
632373745.62427 -1.9114649 -26.044352 -200 45 -200 45 -200 45
633373862.31039 -1.9230822 -26.109795 -200 45 -200 45 -200 45
634373978.9965 -1.934931 -26.190077 -200 45 -200 45 -200 45
635374095.68261 -1.9335741 -26.205381 -200 45 -200 45 -200 45
636374212.36873 -1.9316077 -26.245152 -200 45 -200 45 -200 45
637374329.05484 -1.9347804 -26.281269 -200 45 -200 45 -200 45
638374445.74096 -1.9404519 -26.331018 -200 45 -200 45 -200 45
639374562.42707 -1.9427311 -26.378935 -200 45 -200 45 -200 45
640374679.11319 -1.948814 -26.423506 -200 45 -200 45 -200 45
641374795.7993 -1.9348534 -26.43972 -200 45 -200 45 -200 45
642374912.48541 -1.9090465 -26.431341 -200 45 -200 45 -200 45
643375029.17153 -1.8795395 -26.395931 -200 45 -200 45 -200 45
644375145.85764 -1.8758231 -26.438282 -200 45 -200 45 -200 45
645375262.54376 -1.9574032 -26.652899 -200 45 -200 45 -200 45
646375379.22987 -1.9619089 -26.699625 -200 45 -200 45 -200 45
647375495.91599 -1.9650688 -26.736618 -200 45 -200 45 -200 45
648375612.6021 -1.9692892 -26.810242 -200 45 -200 45 -200 45
649375729.28821 -1.9719375 -26.8503 -200 45 -200 45 -200 45
650375845.97433 -1.9778794 -26.886322 -200 45 -200 45 -200 45
651375962.66044 -1.9816612 -26.923988 -200 45 -200 45 -200 45
652376079.34656 -1.9806931 -26.974941 -200 45 -200 45 -200 45
653376196.03267 -1.9821172 -27.016064 -200 45 -200 45 -200 45
654376312.71879 -1.9842317 -27.053104 -200 45 -200 45 -200 45
655376429.4049 -1.9887146 -27.079695 -200 45 -200 45 -200 45
656376546.09102 -1.9916344 -27.132673 -200 45 -200 45 -200 45
657376662.77713 -1.9876422 -27.150356 -200 45 -200 45 -200 45
658376779.46324 -1.9914297 -27.186085 -200 45 -200 45 -200 45
659376896.14936 -1.9927803 -27.211538 -200 45 -200 45 -200 45
660377012.83547 -1.9943321 -27.252308 -200 45 -200 45 -200 45
661377129.52159 -1.9926656 -27.284174 -200 45 -200 45 -200 45
662377246.2077 -1.9984009 -27.309034 -200 45 -200 45 -200 45
663377362.89382 -1.999752 -27.324903 -200 45 -200 45 -200 45
664377479.57993 -2.0045862 -27.354874 -200 45 -200 45 -200 45
665377596.26604 -2.0071814 -27.365757 -200 45 -200 45 -200 45
666377712.95216 -2.0110946 -27.41391 -200 45 -200 45 -200 45
667377829.63827 -2.0124676 -27.400385 -200 45 -200 45 -200 45
668377946.32439 -2.0129852 -27.43857 -200 45 -200 45 -200 45
669378063.0105 -2.017379 -27.432045 -200 45 -200 45 -200 45
670378179.69662 -2.0199497 -27.445929 -200 45 -200 45 -200 45
671378296.38273 -2.0218751 -27.455818 -200 45 -200 45 -200 45
672378413.06884 -2.0244899 -27.470144 -200 45 -200 45 -200 45
673378529.75496 -2.0230117 -27.455112 -200 45 -200 45 -200 45
674378646.44107 -2.0235314 -27.468069 -200 45 -200 45 -200 45
675378763.12719 -2.0257039 -27.470062 -200 45 -200 45 -200 45
676378879.8133 -2.0280619 -27.477423 -200 45 -200 45 -200 45
677378996.49942 -2.0315466 -27.471245 -200 45 -200 45 -200 45
678379113.18553 -2.0353909 -27.470572 -200 45 -200 45 -200 45
679379229.87165 -2.0384481 -27.476477 -200 45 -200 45 -200 45
680379346.55776 -2.0422685 -27.484507 -200 45 -200 45 -200 45
681379463.24387 -2.0447743 -27.485365 -200 45 -200 45 -200 45
682379579.92999 -2.0510988 -27.478354 -200 45 -200 45 -200 45
683379696.6161 -2.0527225 -27.475134 -200 45 -200 45 -200 45
684379813.30222 -2.0561299 -27.462271 -200 45 -200 45 -200 45
685379929.98833 -2.060169 -27.478691 -200 45 -200 45 -200 45
686380046.67445 -2.0644178 -27.467688 -200 45 -200 45 -200 45
687380163.36056 -2.0754895 -27.470766 -200 45 -200 45 -200 45
688380280.04667 -2.0708618 -27.469492 -200 45 -200 45 -200 45
689380396.73279 -2.073668 -27.47053 -200 45 -200 45 -200 45
690380513.4189 -2.0741954 -27.438196 -200 45 -200 45 -200 45
691380630.10502 -2.0791883 -27.435682 -200 45 -200 45 -200 45
692380746.79113 -2.0849171 -27.446646 -200 45 -200 45 -200 45
693380863.47725 -2.0892606 -27.447216 -200 45 -200 45 -200 45
694380980.16336 -2.0935082 -27.449806 -200 45 -200 45 -200 45
695381096.84947 -2.0961242 -27.452124 -200 45 -200 45 -200 45
696381213.53559 -2.1046236 -27.467148 -200 45 -200 45 -200 45
697381330.2217 -2.1081991 -27.472565 -200 45 -200 45 -200 45
698381446.90782 -2.1181133 -27.494976 -200 45 -200 45 -200 45
699381563.59393 -2.1242051 -27.48666 -200 45 -200 45 -200 45
700381680.28005 -2.1242445 -27.499466 -200 45 -200 45 -200 45
701381796.96616 -2.1290565 -27.518927 -200 45 -200 45 -200 45
702381913.65228 -2.1343398 -27.526848 -200 45 -200 45 -200 45
703382030.33839 -2.1401019 -27.556833 -200 45 -200 45 -200 45
704382147.0245 -2.1475492 -27.558798 -200 45 -200 45 -200 45
705382263.71062 -2.1530674 -27.590193 -200 45 -200 45 -200 45
706382380.39673 -2.1466031 -27.595123 -200 45 -200 45 -200 45
707382497.08285 -2.145494 -27.617199 -200 45 -200 45 -200 45
708382613.76896 -2.1581221 -27.659842 -200 45 -200 45 -200 45
709382730.45508 -2.1598489 -27.682217 -200 45 -200 45 -200 45
710382847.14119 -2.1689692 -27.712515 -200 45 -200 45 -200 45
711382963.8273 -2.1754968 -27.736437 -200 45 -200 45 -200 45
712383080.51342 -2.1775746 -27.795298 -200 45 -200 45 -200 45
713383197.19953 -2.1859457 -27.826136 -200 45 -200 45 -200 45
714383313.88565 -2.1938312 -27.866119 -200 45 -200 45 -200 45
715383430.57176 -2.1961403 -27.908142 -200 45 -200 45 -200 45
716383547.25788 -2.2008421 -27.943531 -200 45 -200 45 -200 45
717383663.94399 -2.2039354 -28.002346 -200 45 -200 45 -200 45
718383780.63011 -2.2075596 -28.029575 -200 45 -200 45 -200 45
719383897.31622 -2.2175732 -28.091831 -200 45 -200 45 -200 45
720384014.00233 -2.2292373 -28.148239 -200 45 -200 45 -200 45
721384130.68845 -2.2371211 -28.194656 -200 45 -200 45 -200 45
722384247.37456 -2.2232792 -28.216528 -200 45 -200 45 -200 45
723384364.06068 -2.2235286 -28.257578 -200 45 -200 45 -200 45
724384480.74679 -2.2283113 -28.301506 -200 45 -200 45 -200 45
725384597.43291 -2.2319629 -28.348083 -200 45 -200 45 -200 45
726384714.11902 -2.2336557 -28.399685 -200 45 -200 45 -200 45
727384830.80513 -2.2366865 -28.446722 -200 45 -200 45 -200 45
728384947.49125 -2.2406759 -28.497883 -200 45 -200 45 -200 45
729385064.17736 -2.2467005 -28.547689 -200 45 -200 45 -200 45
730385180.86348 -2.2511342 -28.607853 -200 45 -200 45 -200 45
731385297.54959 -2.2588851 -28.664064 -200 45 -200 45 -200 45
732385414.23571 -2.2624149 -28.704632 -200 45 -200 45 -200 45
733385530.92182 -2.2613645 -28.740845 -200 45 -200 45 -200 45
734385647.60793 -2.2601318 -28.790733 -200 45 -200 45 -200 45
735385764.29405 -2.2632332 -28.832708 -200 45 -200 45 -200 45
736385880.98016 -2.2637105 -28.858358 -200 45 -200 45 -200 45
737385997.66628 -2.2657011 -28.899715 -200 45 -200 45 -200 45
738386114.35239 -2.2649567 -28.931395 -200 45 -200 45 -200 45
739386231.03851 -2.2654734 -28.96841 -200 45 -200 45 -200 45
740386347.72462 -2.2661822 -29.007967 -200 45 -200 45 -200 45
741386464.41074 -2.2670455 -29.023109 -200 45 -200 45 -200 45
742386581.09685 -2.2662554 -29.051502 -200 45 -200 45 -200 45
743386697.78296 -2.2627859 -29.078045 -200 45 -200 45 -200 45
744386814.46908 -2.2651987 -29.098846 -200 45 -200 45 -200 45
745386931.15519 -2.275744 -29.144421 -200 45 -200 45 -200 45
746387047.84131 -2.2786582 -29.171396 -200 45 -200 45 -200 45
747387164.52742 -2.2857807 -29.207876 -200 45 -200 45 -200 45
748387281.21354 -2.2842057 -29.224125 -200 45 -200 45 -200 45
749387397.89965 -2.2876213 -29.232311 -200 45 -200 45 -200 45
750387514.58576 -2.2887454 -29.25602 -200 45 -200 45 -200 45
751387631.27188 -2.2880692 -29.269577 -200 45 -200 45 -200 45
752387747.95799 -2.2947042 -29.300173 -200 45 -200 45 -200 45
753387864.64411 -2.2983215 -29.288094 -200 45 -200 45 -200 45
754387981.33022 -2.3003535 -29.302383 -200 45 -200 45 -200 45
755388098.01634 -2.2892067 -29.282875 -200 45 -200 45 -200 45
756388214.70245 -2.2893689 -29.282473 -200 45 -200 45 -200 45
757388331.38856 -2.2986133 -29.309607 -200 45 -200 45 -200 45
758388448.07468 -2.2960169 -29.296461 -200 45 -200 45 -200 45
759388564.76079 -2.3020914 -29.285082 -200 45 -200 45 -200 45
760388681.44691 -2.3043597 -29.299368 -200 45 -200 45 -200 45
761388798.13302 -2.308728 -29.305063 -200 45 -200 45 -200 45
762388914.81914 -2.3100727 -29.308311 -200 45 -200 45 -200 45
763389031.50525 -2.3175085 -29.300238 -200 45 -200 45 -200 45
764389148.19137 -2.318507 -29.280754 -200 45 -200 45 -200 45
765389264.87748 -2.3237708 -29.291903 -200 45 -200 45 -200 45
766389381.56359 -2.3279014 -29.264967 -200 45 -200 45 -200 45
767389498.24971 -2.3294067 -29.263908 -200 45 -200 45 -200 45
768389614.93582 -2.3333898 -29.25757 -200 45 -200 45 -200 45
769389731.62194 -2.3373094 -29.258175 -200 45 -200 45 -200 45
770389848.30805 -2.3344126 -29.236713 -200 45 -200 45 -200 45
771389964.99417 -2.3355706 -29.232937 -200 45 -200 45 -200 45
772390081.68028 -2.3394444 -29.218628 -200 45 -200 45 -200 45
773390198.36639 -2.3441169 -29.201118 -200 45 -200 45 -200 45
774390315.05251 -2.3476737 -29.212877 -200 45 -200 45 -200 45
775390431.73862 -2.3477991 -29.212471 -200 45 -200 45 -200 45
776390548.42474 -2.3515828 -29.199598 -200 45 -200 45 -200 45
777390665.11085 -2.3599029 -29.196808 -200 45 -200 45 -200 45
778390781.79697 -2.3661666 -29.204168 -200 45 -200 45 -200 45
779390898.48308 -2.3746676 -29.198454 -200 45 -200 45 -200 45
780391015.16919 -2.3820336 -29.219406 -200 45 -200 45 -200 45
781391131.85531 -2.3848627 -29.217764 -200 45 -200 45 -200 45
782391248.54142 -2.3898859 -29.2239 -200 45 -200 45 -200 45
783391365.22754 -2.3932204 -29.227467 -200 45 -200 45 -200 45
784391481.91365 -2.4011464 -29.236971 -200 45 -200 45 -200 45
785391598.59977 -2.4050269 -29.240013 -200 45 -200 45 -200 45
786391715.28588 -2.409894 -29.253191 -200 45 -200 45 -200 45
787391831.972 -2.4078841 -29.272774 -200 45 -200 45 -200 45
788391948.65811 -2.3970675 -29.272264 -200 45 -200 45 -200 45
789392065.34422 -2.4178479 -29.301908 -200 45 -200 45 -200 45
790392182.03034 -2.4254045 -29.324266 -200 45 -200 45 -200 45
791392298.71645 -2.4292696 -29.360531 -200 45 -200 45 -200 45
792392415.40257 -2.4338531 -29.383301 -200 45 -200 45 -200 45
793392532.08868 -2.4399111 -29.405375 -200 45 -200 45 -200 45
794392648.7748 -2.4440312 -29.439861 -200 45 -200 45 -200 45
795392765.46091 -2.4508932 -29.463762 -200 45 -200 45 -200 45
796392882.14702 -2.4578702 -29.499788 -200 45 -200 45 -200 45
797392998.83314 -2.4643888 -29.549335 -200 45 -200 45 -200 45
798393115.51925 -2.4685991 -29.595308 -200 45 -200 45 -200 45
799393232.20537 -2.4679401 -29.606842 -200 45 -200 45 -200 45
800393348.89148 -2.4767632 -29.66523 -200 45 -200 45 -200 45
801393465.5776 -2.4804113 -29.698387 -200 45 -200 45 -200 45
802393582.26371 -2.4816723 -29.755341 -200 45 -200 45 -200 45
803393698.94983 -2.4798765 -29.800352 -200 45 -200 45 -200 45
804393815.63594 -2.48647 -29.83457 -200 45 -200 45 -200 45
805393932.32205 -2.4878378 -29.889893 -200 45 -200 45 -200 45
806394049.00817 -2.4915888 -29.923586 -200 45 -200 45 -200 45
807394165.69428 -2.4972973 -29.982431 -200 45 -200 45 -200 45
808394282.3804 -2.4940221 -30.046583 -200 45 -200 45 -200 45
809394399.06651 -2.4999001 -30.075602 -200 45 -200 45 -200 45
810394515.75263 -2.5048821 -30.117582 -200 45 -200 45 -200 45
811394632.43874 -2.5101316 -30.180325 -200 45 -200 45 -200 45
812394749.12485 -2.5188742 -30.250805 -200 45 -200 45 -200 45
813394865.81097 -2.5186527 -30.29356 -200 45 -200 45 -200 45
814394982.49708 -2.5197237 -30.339199 -200 45 -200 45 -200 45
815395099.1832 -2.5195169 -30.373844 -200 45 -200 45 -200 45
816395215.86931 -2.5213256 -30.431761 -200 45 -200 45 -200 45
817395332.55543 -2.528379 -30.472483 -200 45 -200 45 -200 45
818395449.24154 -2.5265565 -30.524696 -200 45 -200 45 -200 45
819395565.92765 -2.5230782 -30.557806 -200 45 -200 45 -200 45
820395682.61377 -2.5226285 -30.607679 -200 45 -200 45 -200 45
821395799.29988 -2.524616 -30.647528 -200 45 -200 45 -200 45
822395915.986 -2.5232182 -30.663025 -200 45 -200 45 -200 45
823396032.67211 -2.5272689 -30.716873 -200 45 -200 45 -200 45
824396149.35823 -2.5288897 -30.746267 -200 45 -200 45 -200 45
825396266.04434 -2.5291388 -30.783278 -200 45 -200 45 -200 45
826396382.73046 -2.5343573 -30.809216 -200 45 -200 45 -200 45
827396499.41657 -2.5369346 -30.844862 -200 45 -200 45 -200 45
828396616.10268 -2.5400732 -30.877903 -200 45 -200 45 -200 45
829396732.7888 -2.5390823 -30.900715 -200 45 -200 45 -200 45
830396849.47491 -2.5424805 -30.919214 -200 45 -200 45 -200 45
831396966.16103 -2.5435727 -30.95339 -200 45 -200 45 -200 45
832397082.84714 -2.545063 -30.985912 -200 45 -200 45 -200 45
833397199.53326 -2.5529377 -30.994194 -200 45 -200 45 -200 45
834397316.21937 -2.5492954 -31.002447 -200 45 -200 45 -200 45
835397432.90548 -2.5475037 -31.021412 -200 45 -200 45 -200 45
836397549.5916 -2.5455813 -31.02228 -200 45 -200 45 -200 45
837397666.27771 -2.5476434 -31.040348 -200 45 -200 45 -200 45
838397782.96383 -2.5512602 -31.034225 -200 45 -200 45 -200 45
839397899.64994 -2.5518367 -31.048197 -200 45 -200 45 -200 45
840398016.33606 -2.5535343 -31.052786 -200 45 -200 45 -200 45
841398133.02217 -2.5545607 -31.04615 -200 45 -200 45 -200 45
842398249.70828 -2.559577 -31.04393 -200 45 -200 45 -200 45
843398366.3944 -2.5636325 -31.032425 -200 45 -200 45 -200 45
844398483.08051 -2.5739615 -31.051615 -200 45 -200 45 -200 45
845398599.76663 -2.5781326 -31.048807 -200 45 -200 45 -200 45
846398716.45274 -2.573797 -31.034218 -200 45 -200 45 -200 45
847398833.13886 -2.5767679 -31.018103 -200 45 -200 45 -200 45
848398949.82497 -2.5794437 -31.010477 -200 45 -200 45 -200 45
849399066.51109 -2.5832391 -31.010952 -200 45 -200 45 -200 45
850399183.1972 -2.5866983 -30.99687 -200 45 -200 45 -200 45
851399299.88331 -2.5892348 -30.985765 -200 45 -200 45 -200 45
852399416.56943 -2.591275 -30.962687 -200 45 -200 45 -200 45
853399533.25554 -2.5930774 -30.973368 -200 45 -200 45 -200 45
854399649.94166 -2.5972915 -30.964346 -200 45 -200 45 -200 45
855399766.62777 -2.5996542 -30.941673 -200 45 -200 45 -200 45
856399883.31389 -2.6059039 -30.931536 -200 45 -200 45 -200 45
857400000 -2.6143823 -30.91971 -200 45 -200 45 -200 45
858400116.68611 -2.6174221 -30.916845 -200 45 -200 45 -200 45
859400233.37223 -2.6229639 -30.915199 -200 45 -200 45 -200 45
860400350.05834 -2.631588 -30.899506 -200 45 -200 45 -200 45
861400466.74446 -2.6376078 -30.901508 -200 45 -200 45 -200 45
862400583.43057 -2.6436191 -30.898886 -200 45 -200 45 -200 45
863400700.11669 -2.6493168 -30.881147 -200 45 -200 45 -200 45
864400816.8028 -2.6522698 -30.894114 -200 45 -200 45 -200 45
865400933.48891 -2.6614063 -30.887339 -200 45 -200 45 -200 45
866401050.17503 -2.668612 -30.886631 -200 45 -200 45 -200 45
867401166.86114 -2.6790397 -30.906723 -200 45 -200 45 -200 45
868401283.54726 -2.6749506 -30.884466 -200 45 -200 45 -200 45
869401400.23337 -2.6810381 -30.886307 -200 45 -200 45 -200 45
870401516.91949 -2.6847157 -30.883442 -200 45 -200 45 -200 45
871401633.6056 -2.6884942 -30.901613 -200 45 -200 45 -200 45
872401750.29172 -2.6966963 -30.9042 -200 45 -200 45 -200 45
873401866.97783 -2.7047589 -30.911615 -200 45 -200 45 -200 45
874401983.66394 -2.7088683 -30.931547 -200 45 -200 45 -200 45
875402100.35006 -2.7165699 -30.9554 -200 45 -200 45 -200 45
876402217.03617 -2.7233841 -30.969976 -200 45 -200 45 -200 45
877402333.72229 -2.733681 -30.984968 -200 45 -200 45 -200 45
878402450.4084 -2.7406125 -30.996164 -200 45 -200 45 -200 45
879402567.09452 -2.7404001 -31.021317 -200 45 -200 45 -200 45
880402683.78063 -2.7404258 -31.042149 -200 45 -200 45 -200 45
881402800.46674 -2.7484925 -31.076254 -200 45 -200 45 -200 45
882402917.15286 -2.7548969 -31.110792 -200 45 -200 45 -200 45
883403033.83897 -2.7547083 -31.119753 -200 45 -200 45 -200 45
884403150.52509 -2.7607987 -31.167007 -200 45 -200 45 -200 45
885403267.2112 -2.7609589 -31.179359 -200 45 -200 45 -200 45
886403383.89732 -2.7656441 -31.220833 -200 45 -200 45 -200 45
887403500.58343 -2.7666032 -31.230877 -200 45 -200 45 -200 45
888403617.26954 -2.7668979 -31.292578 -200 45 -200 45 -200 45
889403733.95566 -2.7608056 -31.317225 -200 45 -200 45 -200 45
890403850.64177 -2.7584016 -31.356125 -200 45 -200 45 -200 45
891403967.32789 -2.7752078 -31.411999 -200 45 -200 45 -200 45
892404084.014 -2.777987 -31.454414 -200 45 -200 45 -200 45
893404200.70012 -2.7822971 -31.499153 -200 45 -200 45 -200 45
894404317.38623 -2.7877364 -31.533543 -200 45 -200 45 -200 45
895404434.07235 -2.7843652 -31.561779 -200 45 -200 45 -200 45
896404550.75846 -2.7843294 -31.620686 -200 45 -200 45 -200 45
897404667.44457 -2.785131 -31.661425 -200 45 -200 45 -200 45
898404784.13069 -2.7882452 -31.712616 -200 45 -200 45 -200 45
899404900.8168 -2.7883141 -31.753246 -200 45 -200 45 -200 45
900405017.50292 -2.7866104 -31.789743 -200 45 -200 45 -200 45
901405134.18903 -2.7643709 -31.841772 -200 45 -200 45 -200 45
902405250.87515 -2.7379024 -31.852522 -200 45 -200 45 -200 45
903405367.56126 -2.7850647 -31.918417 -200 45 -200 45 -200 45
904405484.24737 -2.785449 -31.955524 -200 45 -200 45 -200 45
905405600.93349 -2.783519 -31.989082 -200 45 -200 45 -200 45
906405717.6196 -2.7841194 -32.036125 -200 45 -200 45 -200 45
907405834.30572 -2.7848568 -32.061054 -200 45 -200 45 -200 45
908405950.99183 -2.7842104 -32.105873 -200 45 -200 45 -200 45
909406067.67795 -2.7861614 -32.127174 -200 45 -200 45 -200 45
910406184.36406 -2.7842193 -32.166634 -200 45 -200 45 -200 45
911406301.05018 -2.7840433 -32.202209 -200 45 -200 45 -200 45
912406417.73629 -2.7826738 -32.231472 -200 45 -200 45 -200 45
913406534.4224 -2.7823703 -32.261311 -200 45 -200 45 -200 45
914406651.10852 -2.7865591 -32.274902 -200 45 -200 45 -200 45
915406767.79463 -2.7837563 -32.309803 -200 45 -200 45 -200 45
916406884.48075 -2.780803 -32.319092 -200 45 -200 45 -200 45
917407001.16686 -2.7779155 -32.323593 -200 45 -200 45 -200 45
918407117.85298 -2.7775557 -32.351688 -200 45 -200 45 -200 45
919407234.53909 -2.7805884 -32.349464 -200 45 -200 45 -200 45
920407351.2252 -2.779978 -32.376755 -200 45 -200 45 -200 45
921407467.91132 -2.7769008 -32.372143 -200 45 -200 45 -200 45
922407584.59743 -2.7793255 -32.397068 -200 45 -200 45 -200 45
923407701.28355 -2.7812474 -32.396046 -200 45 -200 45 -200 45
924407817.96966 -2.7836363 -32.40633 -200 45 -200 45 -200 45
925407934.65578 -2.785392 -32.410076 -200 45 -200 45 -200 45
926408051.34189 -2.7887518 -32.398067 -200 45 -200 45 -200 45
927408168.028 -2.7899013 -32.408676 -200 45 -200 45 -200 45
928408284.71412 -2.7914639 -32.394329 -200 45 -200 45 -200 45
929408401.40023 -2.7922394 -32.387737 -200 45 -200 45 -200 45
930408518.08635 -2.7961287 -32.388954 -200 45 -200 45 -200 45
931408634.77246 -2.7956381 -32.385056 -200 45 -200 45 -200 45
932408751.45858 -2.7975626 -32.376827 -200 45 -200 45 -200 45
933408868.14469 -2.7957258 -32.367504 -200 45 -200 45 -200 45
934408984.83081 -2.776598 -32.35157 -200 45 -200 45 -200 45
935409101.51692 -2.7569456 -32.336834 -200 45 -200 45 -200 45
936409218.20303 -2.745358 -32.323547 -200 45 -200 45 -200 45
937409334.88915 -2.805172 -32.319637 -200 45 -200 45 -200 45
938409451.57526 -2.8118606 -32.322609 -200 45 -200 45 -200 45
939409568.26138 -2.8184259 -32.315506 -200 45 -200 45 -200 45
940409684.94749 -2.8211095 -32.307156 -200 45 -200 45 -200 45
941409801.63361 -2.8275492 -32.299702 -200 45 -200 45 -200 45
942409918.31972 -2.8328638 -32.296619 -200 45 -200 45 -200 45
943410035.00583 -2.8390548 -32.284897 -200 45 -200 45 -200 45
944410151.69195 -2.8397596 -32.293503 -200 45 -200 45 -200 45
945410268.37806 -2.8439405 -32.273869 -200 45 -200 45 -200 45
946410385.06418 -2.8506215 -32.287487 -200 45 -200 45 -200 45
947410501.75029 -2.8566744 -32.280014 -200 45 -200 45 -200 45
948410618.43641 -2.8618577 -32.272697 -200 45 -200 45 -200 45
949410735.12252 -2.8599849 -32.283314 -200 45 -200 45 -200 45
950410851.80863 -2.8577049 -32.276661 -200 45 -200 45 -200 45
951410968.49475 -2.8671613 -32.273716 -200 45 -200 45 -200 45
952411085.18086 -2.871326 -32.286076 -200 45 -200 45 -200 45
953411201.86698 -2.8782964 -32.291939 -200 45 -200 45 -200 45
954411318.55309 -2.8822913 -32.309643 -200 45 -200 45 -200 45
955411435.23921 -2.8948443 -32.330292 -200 45 -200 45 -200 45
956411551.92532 -2.899292 -32.349987 -200 45 -200 45 -200 45
957411668.61144 -2.9090705 -32.34127 -200 45 -200 45 -200 45
958411785.29755 -2.9161727 -32.380856 -200 45 -200 45 -200 45
959411901.98366 -2.9218338 -32.389675 -200 45 -200 45 -200 45
960412018.66978 -2.9254477 -32.422241 -200 45 -200 45 -200 45
961412135.35589 -2.9282281 -32.453209 -200 45 -200 45 -200 45
962412252.04201 -2.9369648 -32.468414 -200 45 -200 45 -200 45
963412368.72812 -2.9466941 -32.497589 -200 45 -200 45 -200 45
964412485.41424 -2.9507723 -32.526917 -200 45 -200 45 -200 45
965412602.10035 -2.9484479 -32.565479 -200 45 -200 45 -200 45
966412718.78646 -2.9431317 -32.594551 -200 45 -200 45 -200 45
967412835.47258 -2.9531534 -32.627777 -200 45 -200 45 -200 45
968412952.15869 -2.950037 -32.675449 -200 45 -200 45 -200 45
969413068.84481 -2.9578147 -32.71204 -200 45 -200 45 -200 45
970413185.53092 -2.9643621 -32.753536 -200 45 -200 45 -200 45
971413302.21704 -2.9620514 -32.789433 -200 45 -200 45 -200 45
972413418.90315 -2.9679792 -32.838772 -200 45 -200 45 -200 45
973413535.58926 -2.9765797 -32.902023 -200 45 -200 45 -200 45
974413652.27538 -2.9827383 -32.930862 -200 45 -200 45 -200 45
975413768.96149 -2.9870098 -32.992565 -200 45 -200 45 -200 45
976413885.64761 -2.9888573 -33.041271 -200 45 -200 45 -200 45
977414002.33372 -2.9904246 -33.079063 -200 45 -200 45 -200 45
978414119.01984 -2.9928243 -33.131756 -200 45 -200 45 -200 45
979414235.70595 -2.9986432 -33.17588 -200 45 -200 45 -200 45
980414352.39207 -3.008287 -33.243279 -200 45 -200 45 -200 45
981414469.07818 -3.009629 -33.279739 -200 45 -200 45 -200 45
982414585.76429 -3.0010333 -33.318989 -200 45 -200 45 -200 45
983414702.45041 -2.9851022 -33.36261 -200 45 -200 45 -200 45
984414819.13652 -2.9832866 -33.408573 -200 45 -200 45 -200 45
985414935.82264 -2.9917154 -33.447945 -200 45 -200 45 -200 45
986415052.50875 -2.9893389 -33.49609 -200 45 -200 45 -200 45
987415169.19487 -2.9983468 -33.535915 -200 45 -200 45 -200 45
988415285.88098 -2.9992092 -33.574188 -200 45 -200 45 -200 45
989415402.56709 -3.0008695 -33.605515 -200 45 -200 45 -200 45
990415519.25321 -3.0089226 -33.647018 -200 45 -200 45 -200 45
991415635.93932 -3.0166938 -33.695839 -200 45 -200 45 -200 45
992415752.62544 -3.0170972 -33.747677 -200 45 -200 45 -200 45
993415869.31155 -3.0191011 -33.763771 -200 45 -200 45 -200 45
994415985.99767 -3.0096896 -33.788147 -200 45 -200 45 -200 45
995416102.68378 -3.0071807 -33.819103 -200 45 -200 45 -200 45
996416219.36989 -3.0073252 -33.838024 -200 45 -200 45 -200 45
997416336.05601 -3.0026243 -33.864193 -200 45 -200 45 -200 45
998416452.74212 -2.9953382 -33.875927 -200 45 -200 45 -200 45
999416569.42824 -2.9924943 -33.908714 -200 45 -200 45 -200 45
1000416686.1144 -2.9917607 -33.907845 -200 45 -200 45 -200 45
1001416802.8005 -2.990098 -33.935581 -200 45 -200 45 -200 45
1002416919.4866 -2.9817464 -33.932316 -200 45 -200 45 -200 45
1003417036.1727 -2.9678106 -33.961842 -200 45 -200 45 -200 45
1004417152.8588 -2.9583716 -33.985298 -200 45 -200 45 -200 45
1005417269.5449 -2.9737997 -33.988743 -200 45 -200 45 -200 45
1006417386.231 -2.9881165 -33.994106 -200 45 -200 45 -200 45
1007417502.9172 -2.9978719 -34.013836 -200 45 -200 45 -200 45
1008417619.6033 -3.0031588 -34.026608 -200 45 -200 45 -200 45
1009417736.2894 -3.0006418 -34.001999 -200 45 -200 45 -200 45
1010417852.9755 -3.0002038 -34.014889 -200 45 -200 45 -200 45
1011417969.6616 -2.9997921 -34.025467 -200 45 -200 45 -200 45
1012418086.3477 -3.0045214 -34.001926 -200 45 -200 45 -200 45
1013418203.0338 -3.0113401 -34.01746 -200 45 -200 45 -200 45
1014418319.72 -3.0066769 -33.98904 -200 45 -200 45 -200 45
1015418436.4061 -2.9908009 -34.011402 -200 45 -200 45 -200 45
1016418553.0922 -2.9696496 -33.99659 -200 45 -200 45 -200 45
1017418669.7783 -2.9617488 -33.990955 -200 45 -200 45 -200 45
1018418786.4644 -2.9975269 -33.989704 -200 45 -200 45 -200 45
1019418903.1505 -2.9951365 -33.958828 -200 45 -200 45 -200 45
1020419019.8366 -3.0118098 -33.951698 -200 45 -200 45 -200 45
1021419136.5228 -3.023212 -33.939507 -200 45 -200 45 -200 45
1022419253.2089 -3.0286093 -33.942085 -200 45 -200 45 -200 45
1023419369.895 -3.0312929 -33.950981 -200 45 -200 45 -200 45
1024419486.5811 -3.0349746 -33.922874 -200 45 -200 45 -200 45
1025419603.2672 -3.0385087 -33.929684 -200 45 -200 45 -200 45
1026419719.9533 -3.0438116 -33.926216 -200 45 -200 45 -200 45
1027419836.6394 -3.0513785 -33.925461 -200 45 -200 45 -200 45
1028419953.3256 -3.0546696 -33.919708 -200 45 -200 45 -200 45
1029420070.0117 -3.0581951 -33.929745 -200 45 -200 45 -200 45
1030420186.6978 -3.0657675 -33.918835 -200 45 -200 45 -200 45
1031420303.3839 -3.0652733 -33.931889 -200 45 -200 45 -200 45
1032420420.07 -3.0682495 -33.937775 -200 45 -200 45 -200 45
1033420536.7561 -3.0752954 -33.933292 -200 45 -200 45 -200 45
1034420653.4422 -3.0836165 -33.932877 -200 45 -200 45 -200 45
1035420770.1284 -3.0897915 -33.932468 -200 45 -200 45 -200 45
1036420886.8145 -3.0990102 -33.962429 -200 45 -200 45 -200 45
1037421003.5006 -3.1077657 -33.97237 -200 45 -200 45 -200 45
1038421120.1867 -3.1136343 -33.968323 -200 45 -200 45 -200 45
1039421236.8728 -3.1221602 -33.98518 -200 45 -200 45 -200 45
1040421353.5589 -3.1311953 -34.003704 -200 45 -200 45 -200 45
1041421470.245 -3.1403985 -34.025536 -200 45 -200 45 -200 45
1042421586.9312 -3.1471283 -34.044727 -200 45 -200 45 -200 45
1043421703.6173 -3.1492076 -34.075333 -200 45 -200 45 -200 45
1044421820.3034 -3.1575313 -34.077206 -200 45 -200 45 -200 45
1045421936.9895 -3.1617768 -34.12347 -200 45 -200 45 -200 45
1046422053.6756 -3.1674614 -34.165901 -200 45 -200 45 -200 45
1047422170.3617 -3.1622646 -34.174793 -200 45 -200 45 -200 45
1048422287.0478 -3.1774282 -34.211231 -200 45 -200 45 -200 45
1049422403.734 -3.1814511 -34.241245 -200 45 -200 45 -200 45
1050422520.4201 -3.186965 -34.274052 -200 45 -200 45 -200 45
1051422637.1062 -3.1928525 -34.310463 -200 45 -200 45 -200 45
1052422753.7923 -3.1981933 -34.355209 -200 45 -200 45 -200 45
1053422870.4784 -3.20557 -34.382236 -200 45 -200 45 -200 45
1054422987.1645 -3.2102692 -34.432156 -200 45 -200 45 -200 45
1055423103.8506 -3.2199361 -34.475109 -200 45 -200 45 -200 45
1056423220.5368 -3.2236192 -34.519119 -200 45 -200 45 -200 45
1057423337.2229 -3.2262607 -34.564266 -200 45 -200 45 -200 45
1058423453.909 -3.2278738 -34.589943 -200 45 -200 45 -200 45
1059423570.5951 -3.2321577 -34.649719 -200 45 -200 45 -200 45
1060423687.2812 -3.2348402 -34.703049 -200 45 -200 45 -200 45
1061423803.9673 -3.2389514 -34.748135 -200 45 -200 45 -200 45
1062423920.6534 -3.2411695 -34.804653 -200 45 -200 45 -200 45
1063424037.3396 -3.2421677 -34.834599 -200 45 -200 45 -200 45
1064424154.0257 -3.2472286 -34.890102 -200 45 -200 45 -200 45
1065424270.7118 -3.2467949 -34.932125 -200 45 -200 45 -200 45
1066424387.3979 -3.2451127 -34.987869 -200 45 -200 45 -200 45
1067424504.084 -3.24635 -35.030495 -200 45 -200 45 -200 45
1068424620.7701 -3.2518332 -35.072731 -200 45 -200 45 -200 45
1069424737.4562 -3.2578552 -35.112476 -200 45 -200 45 -200 45
1070424854.1424 -3.2592924 -35.154747 -200 45 -200 45 -200 45
1071424970.8285 -3.2650931 -35.203911 -200 45 -200 45 -200 45
1072425087.5146 -3.2622519 -35.23077 -200 45 -200 45 -200 45
1073425204.2007 -3.2677629 -35.277599 -200 45 -200 45 -200 45
1074425320.8868 -3.263998 -35.285831 -200 45 -200 45 -200 45
1075425437.5729 -3.2643642 -35.32024 -200 45 -200 45 -200 45
1076425554.259 -3.2696514 -35.353271 -200 45 -200 45 -200 45
1077425670.9452 -3.2698107 -35.385262 -200 45 -200 45 -200 45
1078425787.6313 -3.2685788 -35.40155 -200 45 -200 45 -200 45
1079425904.3174 -3.264672 -35.423435 -200 45 -200 45 -200 45
1080426021.0035 -3.2664254 -35.454189 -200 45 -200 45 -200 45
1081426137.6896 -3.2669766 -35.459114 -200 45 -200 45 -200 45
1082426254.3757 -3.2684128 -35.491146 -200 45 -200 45 -200 45
1083426371.0618 -3.265836 -35.51783 -200 45 -200 45 -200 45
1084426487.748 -3.2671788 -35.527237 -200 45 -200 45 -200 45
1085426604.4341 -3.2671657 -35.523029 -200 45 -200 45 -200 45
1086426721.1202 -3.2695272 -35.55209 -200 45 -200 45 -200 45
1087426837.8063 -3.2686968 -35.564674 -200 45 -200 45 -200 45
1088426954.4924 -3.2738423 -35.555405 -200 45 -200 45 -200 45
1089427071.1785 -3.2754064 -35.551517 -200 45 -200 45 -200 45
1090427187.8646 -3.2741663 -35.569622 -200 45 -200 45 -200 45
1091427304.5508 -3.2721186 -35.558186 -200 45 -200 45 -200 45
1092427421.2369 -3.2754443 -35.564964 -200 45 -200 45 -200 45
1093427537.923 -3.276031 -35.563641 -200 45 -200 45 -200 45
1094427654.6091 -3.2788546 -35.555557 -200 45 -200 45 -200 45
1095427771.2952 -3.278759 -35.539524 -200 45 -200 45 -200 45
1096427887.9813 -3.2805917 -35.549168 -200 45 -200 45 -200 45
1097428004.6674 -3.2800286 -35.551258 -200 45 -200 45 -200 45
1098428121.3536 -3.279954 -35.535465 -200 45 -200 45 -200 45
1099428238.0397 -3.2865114 -35.534626 -200 45 -200 45 -200 45
1100428354.7258 -3.2946961 -35.515072 -200 45 -200 45 -200 45
1101428471.4119 -3.298244 -35.497833 -200 45 -200 45 -200 45
1102428588.098 -3.3066261 -35.493149 -200 45 -200 45 -200 45
1103428704.7841 -3.3112869 -35.464832 -200 45 -200 45 -200 45
1104428821.4702 -3.3155696 -35.457817 -200 45 -200 45 -200 45
1105428938.1564 -3.3218403 -35.465858 -200 45 -200 45 -200 45
1106429054.8425 -3.326431 -35.443256 -200 45 -200 45 -200 45
1107429171.5286 -3.3316851 -35.42654 -200 45 -200 45 -200 45
1108429288.2147 -3.3381131 -35.432938 -200 45 -200 45 -200 45
1109429404.9008 -3.3499451 -35.426804 -200 45 -200 45 -200 45
1110429521.5869 -3.3581583 -35.431725 -200 45 -200 45 -200 45
1111429638.273 -3.3680246 -35.419003 -200 45 -200 45 -200 45
1112429754.9592 -3.3774903 -35.410141 -200 45 -200 45 -200 45
1113429871.6453 -3.3842828 -35.359211 -200 45 -200 45 -200 45
1114429988.3314 -3.3946736 -35.348099 -200 45 -200 45 -200 45
1115430105.0175 -3.4068258 -35.341614 -200 45 -200 45 -200 45
1116430221.7036 -3.4162903 -35.343861 -200 45 -200 45 -200 45
1117430338.3897 -3.4317691 -35.375519 -200 45 -200 45 -200 45
1118430455.0758 -3.4451489 -35.392418 -200 45 -200 45 -200 45
1119430571.762 -3.4679418 -35.428772 -200 45 -200 45 -200 45
1120430688.4481 -3.5006144 -35.467228 -200 45 -200 45 -200 45
1121430805.1342 -3.542783 -35.429119 -200 45 -200 45 -200 45
1122430921.8203 -3.5602415 -35.328899 -200 45 -200 45 -200 45
1123431038.5064 -3.5801129 -35.283947 -200 45 -200 45 -200 45
1124431155.1925 -3.6157143 -35.312229 -200 45 -200 45 -200 45
1125431271.8786 -3.6808014 -35.327778 -200 45 -200 45 -200 45
1126431388.5648 -3.783114 -35.233833 -200 45 -200 45 -200 45
1127431505.2509 -3.9313786 -34.361767 -200 45 -200 45 -200 45
1128431621.937 -3.9127412 -32.664131 -200 45 -200 45 -200 45
1129431738.6231 -3.7552121 -31.797451 -200 45 -200 45 -200 45
1130431855.3092 -3.6265266 -31.575085 -200 45 -200 45 -200 45
1131431971.9953 -3.5268209 -31.44084 -200 45 -200 45 -200 45
1132432088.6814 -3.4235806 -31.506615 -200 45 -200 45 -200 45
1133432205.3676 -3.3451316 -31.470121 -200 45 -200 45 -200 45
1134432322.0537 -3.1975081 -31.612585 -200 45 -200 45 -200 45
1135432438.7398 -3.1188378 -32.290871 -200 45 -200 45 -200 45
1136432555.4259 -3.072032 -32.870583 -200 45 -200 45 -200 45
1137432672.112 -3.0383778 -33.562599 -200 45 -200 45 -200 45
1138432788.7981 -3.0490763 -34.315292 -200 45 -200 45 -200 45
1139432905.4842 -3.0901568 -34.752785 -200 45 -200 45 -200 45
1140433022.1704 -3.1173549 -35.059193 -200 45 -200 45 -200 45
1141433138.8565 -3.1470816 -35.396072 -200 45 -200 45 -200 45
1142433255.5426 -3.1878748 -35.64135 -200 45 -200 45 -200 45
1143433372.2287 -3.2230136 -35.766991 -200 45 -200 45 -200 45
1144433488.9148 -3.2431993 -35.868614 -200 45 -200 45 -200 45
1145433605.6009 -3.2617874 -35.935753 -200 45 -200 45 -200 45
1146433722.287 -3.2720025 -35.997021 -200 45 -200 45 -200 45
1147433838.9732 -3.2880814 -36.062645 -200 45 -200 45 -200 45
1148433955.6593 -3.3036489 -36.109245 -200 45 -200 45 -200 45
1149434072.3454 -3.3234282 -36.152496 -200 45 -200 45 -200 45
1150434189.0315 -3.3345246 -36.207981 -200 45 -200 45 -200 45
1151434305.7176 -3.3391025 -36.238976 -200 45 -200 45 -200 45
1152434422.4037 -3.3522036 -36.274208 -200 45 -200 45 -200 45
1153434539.0898 -3.3615577 -36.345505 -200 45 -200 45 -200 45
1154434655.776 -3.369235 -36.369705 -200 45 -200 45 -200 45
1155434772.4621 -3.3739736 -36.430904 -200 45 -200 45 -200 45
1156434889.1482 -3.3743908 -36.457188 -200 45 -200 45 -200 45
1157435005.8343 -3.3785875 -36.504696 -200 45 -200 45 -200 45
1158435122.5204 -3.3831017 -36.555649 -200 45 -200 45 -200 45
1159435239.2065 -3.3867073 -36.583572 -200 45 -200 45 -200 45
1160435355.8926 -3.3794775 -36.607777 -200 45 -200 45 -200 45
1161435472.5788 -3.3818412 -36.655205 -200 45 -200 45 -200 45
1162435589.2649 -3.3836174 -36.681072 -200 45 -200 45 -200 45
1163435705.951 -3.3858929 -36.709007 -200 45 -200 45 -200 45
1164435822.6371 -3.3839524 -36.757538 -200 45 -200 45 -200 45
1165435939.3232 -3.3788424 -36.746376 -200 45 -200 45 -200 45
1166436056.0093 -3.3827116 -36.791496 -200 45 -200 45 -200 45
1167436172.6954 -3.3921263 -36.791672 -200 45 -200 45 -200 45
1168436289.3816 -3.3953068 -36.803429 -200 45 -200 45 -200 45
1169436406.0677 -3.4032433 -36.832001 -200 45 -200 45 -200 45
1170436522.7538 -3.4106641 -36.823605 -200 45 -200 45 -200 45
1171436639.4399 -3.4075255 -36.838078 -200 45 -200 45 -200 45
1172436756.126 -3.4015934 -36.848835 -200 45 -200 45 -200 45
1173436872.8121 -3.4048388 -36.856979 -200 45 -200 45 -200 45
1174436989.4982 -3.4085982 -36.864155 -200 45 -200 45 -200 45
1175437106.1844 -3.4094338 -36.855423 -200 45 -200 45 -200 45
1176437222.8705 -3.4064407 -36.848518 -200 45 -200 45 -200 45
1177437339.5566 -3.3901923 -36.869965 -200 45 -200 45 -200 45
1178437456.2427 -3.3936419 -36.841927 -200 45 -200 45 -200 45
1179437572.9288 -3.3966689 -36.827095 -200 45 -200 45 -200 45
1180437689.6149 -3.3964434 -36.838757 -200 45 -200 45 -200 45
1181437806.3011 -3.4057567 -36.808796 -200 45 -200 45 -200 45
1182437922.9872 -3.4059722 -36.806747 -200 45 -200 45 -200 45
1183438039.6733 -3.4162591 -36.780262 -200 45 -200 45 -200 45
1184438156.3594 -3.4244132 -36.758186 -200 45 -200 45 -200 45
1185438273.0455 -3.4294577 -36.750576 -200 45 -200 45 -200 45
1186438389.7316 -3.435719 -36.725311 -200 45 -200 45 -200 45
1187438506.4177 -3.4374228 -36.708881 -200 45 -200 45 -200 45
1188438623.1039 -3.4377172 -36.704334 -200 45 -200 45 -200 45
1189438739.79 -3.4413583 -36.673672 -200 45 -200 45 -200 45
1190438856.4761 -3.4491165 -36.668209 -200 45 -200 45 -200 45
1191438973.1622 -3.4592538 -36.653156 -200 45 -200 45 -200 45
1192439089.8483 -3.45784 -36.62933 -200 45 -200 45 -200 45
1193439206.5344 -3.44526 -36.630054 -200 45 -200 45 -200 45
1194439323.2205 -3.4505353 -36.59409 -200 45 -200 45 -200 45
1195439439.9067 -3.4615939 -36.586475 -200 45 -200 45 -200 45
1196439556.5928 -3.4675241 -36.576374 -200 45 -200 45 -200 45
1197439673.2789 -3.4703999 -36.549034 -200 45 -200 45 -200 45
1198439789.965 -3.470953 -36.539623 -200 45 -200 45 -200 45
1199439906.6511 -3.4830995 -36.538471 -200 45 -200 45 -200 45
1200440023.3372 -3.4880927 -36.523621 -200 45 -200 45 -200 45
1201440140.0233 -3.4985344 -36.516144 -200 45 -200 45 -200 45
1202440256.7095 -3.5041578 -36.510525 -200 45 -200 45 -200 45
1203440373.3956 -3.5075197 -36.516735 -200 45 -200 45 -200 45
1204440490.0817 -3.5153525 -36.525955 -200 45 -200 45 -200 45
1205440606.7678 -3.5221784 -36.527008 -200 45 -200 45 -200 45
1206440723.4539 -3.524374 -36.536121 -200 45 -200 45 -200 45
1207440840.14 -3.5315018 -36.539745 -200 45 -200 45 -200 45
1208440956.8261 -3.5363674 -36.562153 -200 45 -200 45 -200 45
1209441073.5123 -3.5324647 -36.556374 -200 45 -200 45 -200 45
1210441190.1984 -3.5365186 -36.598419 -200 45 -200 45 -200 45
1211441306.8845 -3.5430429 -36.595757 -200 45 -200 45 -200 45
1212441423.5706 -3.5501781 -36.604504 -200 45 -200 45 -200 45
1213441540.2567 -3.5545824 -36.633942 -200 45 -200 45 -200 45
1214441656.9428 -3.5593731 -36.65469 -200 45 -200 45 -200 45
1215441773.6289 -3.5600505 -36.703144 -200 45 -200 45 -200 45
1216441890.3151 -3.5705028 -36.733013 -200 45 -200 45 -200 45
1217442007.0012 -3.5800469 -36.746281 -200 45 -200 45 -200 45
1218442123.6873 -3.5893214 -36.786732 -200 45 -200 45 -200 45
1219442240.3734 -3.5947866 -36.819824 -200 45 -200 45 -200 45
1220442357.0595 -3.597692 -36.862144 -200 45 -200 45 -200 45
1221442473.7456 -3.6021006 -36.889282 -200 45 -200 45 -200 45
1222442590.4317 -3.6092386 -36.938843 -200 45 -200 45 -200 45
1223442707.1179 -3.6186829 -36.965675 -200 45 -200 45 -200 45
1224442823.804 -3.6199541 -37.032936 -200 45 -200 45 -200 45
1225442940.4901 -3.6152642 -37.070435 -200 45 -200 45 -200 45
1226443057.1762 -3.6115923 -37.120392 -200 45 -200 45 -200 45
1227443173.8623 -3.5977056 -37.194981 -200 45 -200 45 -200 45
1228443290.5484 -3.5975749 -37.239063 -200 45 -200 45 -200 45
1229443407.2345 -3.6233377 -37.252922 -200 45 -200 45 -200 45
1230443523.9207 -3.6302853 -37.285892 -200 45 -200 45 -200 45
1231443640.6068 -3.6354792 -37.353401 -200 45 -200 45 -200 45
1232443757.2929 -3.6349468 -37.406353 -200 45 -200 45 -200 45
1233443873.979 -3.6408443 -37.438953 -200 45 -200 45 -200 45
1234443990.6651 -3.6495647 -37.487679 -200 45 -200 45 -200 45
1235444107.3512 -3.6516037 -37.545731 -200 45 -200 45 -200 45
1236444224.0373 -3.6500351 -37.563404 -200 45 -200 45 -200 45
1237444340.7235 -3.647526 -37.638504 -200 45 -200 45 -200 45
1238444457.4096 -3.6498997 -37.667831 -200 45 -200 45 -200 45
1239444574.0957 -3.6512578 -37.704163 -200 45 -200 45 -200 45
1240444690.7818 -3.6521678 -37.756813 -200 45 -200 45 -200 45
1241444807.4679 -3.6527548 -37.79129 -200 45 -200 45 -200 45
1242444924.154 -3.6508372 -37.844437 -200 45 -200 45 -200 45
1243445040.8401 -3.6476369 -37.869141 -200 45 -200 45 -200 45
1244445157.5263 -3.6485653 -37.890247 -200 45 -200 45 -200 45
1245445274.2124 -3.6398056 -37.946987 -200 45 -200 45 -200 45
1246445390.8985 -3.6342795 -37.971233 -200 45 -200 45 -200 45
1247445507.5846 -3.6494102 -37.988804 -200 45 -200 45 -200 45
1248445624.2707 -3.657913 -38.002548 -200 45 -200 45 -200 45
1249445740.9568 -3.6607134 -37.984535 -200 45 -200 45 -200 45
1250445857.6429 -3.6620188 -37.96936 -200 45 -200 45 -200 45
1251445974.3291 -3.6598666 -37.955681 -200 45 -200 45 -200 45
1252446091.0152 -3.6556785 -37.96833 -200 45 -200 45 -200 45
1253446207.7013 -3.6490498 -37.971565 -200 45 -200 45 -200 45
1254446324.3874 -3.6413879 -37.995033 -200 45 -200 45 -200 45
1255446441.0735 -3.647047 -38.010639 -200 45 -200 45 -200 45
1256446557.7596 -3.6468492 -38.040737 -200 45 -200 45 -200 45
1257446674.4457 -3.6351836 -38.052082 -200 45 -200 45 -200 45
1258446791.1319 -3.6199114 -38.103142 -200 45 -200 45 -200 45
1259446907.818 -3.6335392 -38.112198 -200 45 -200 45 -200 45
1260447024.5041 -3.6354854 -38.110775 -200 45 -200 45 -200 45
1261447141.1902 -3.6353796 -38.114971 -200 45 -200 45 -200 45
1262447257.8763 -3.6370702 -38.106213 -200 45 -200 45 -200 45
1263447374.5624 -3.6407661 -38.11974 -200 45 -200 45 -200 45
1264447491.2485 -3.6433928 -38.090359 -200 45 -200 45 -200 45
1265447607.9347 -3.6453993 -38.090996 -200 45 -200 45 -200 45
1266447724.6208 -3.6516402 -38.079842 -200 45 -200 45 -200 45
1267447841.3069 -3.6600943 -38.043156 -200 45 -200 45 -200 45
1268447957.993 -3.6530263 -38.025707 -200 45 -200 45 -200 45
1269448074.6791 -3.656708 -38.01342 -200 45 -200 45 -200 45
1270448191.3652 -3.6553447 -38.005398 -200 45 -200 45 -200 45
1271448308.0513 -3.6590135 -37.985458 -200 45 -200 45 -200 45
1272448424.7375 -3.6605742 -37.96777 -200 45 -200 45 -200 45
1273448541.4236 -3.6583102 -37.94598 -200 45 -200 45 -200 45
1274448658.1097 -3.6499782 -37.957195 -200 45 -200 45 -200 45
1275448774.7958 -3.6402292 -37.935001 -200 45 -200 45 -200 45
1276448891.4819 -3.6649909 -37.902035 -200 45 -200 45 -200 45
1277449008.168 -3.6608703 -37.90255 -200 45 -200 45 -200 45
1278449124.8541 -3.6670012 -37.865936 -200 45 -200 45 -200 45
1279449241.5403 -3.6731315 -37.848747 -200 45 -200 45 -200 45
1280449358.2264 -3.6833558 -37.827236 -200 45 -200 45 -200 45
1281449474.9125 -3.6936874 -37.817139 -200 45 -200 45 -200 45
1282449591.5986 -3.7037201 -37.786839 -200 45 -200 45 -200 45
1283449708.2847 -3.7131932 -37.796642 -200 45 -200 45 -200 45
1284449824.9708 -3.7135892 -37.775112 -200 45 -200 45 -200 45
1285449941.6569 -3.7172248 -37.753536 -200 45 -200 45 -200 45
1286450058.3431 -3.7221589 -37.758183 -200 45 -200 45 -200 45
1287450175.0292 -3.728704 -37.744087 -200 45 -200 45 -200 45
1288450291.7153 -3.7352343 -37.75182 -200 45 -200 45 -200 45
1289450408.4014 -3.7388537 -37.73983 -200 45 -200 45 -200 45
1290450525.0875 -3.7335036 -37.756119 -200 45 -200 45 -200 45
1291450641.7736 -3.7285366 -37.783905 -200 45 -200 45 -200 45
1292450758.4597 -3.7437711 -37.771141 -200 45 -200 45 -200 45
1293450875.1459 -3.7574496 -37.776176 -200 45 -200 45 -200 45
1294450991.832 -3.7626438 -37.784367 -200 45 -200 45 -200 45
1295451108.5181 -3.7679384 -37.785976 -200 45 -200 45 -200 45
1296451225.2042 -3.7742198 -37.818985 -200 45 -200 45 -200 45
1297451341.8903 -3.7785935 -37.82045 -200 45 -200 45 -200 45
1298451458.5764 -3.7900796 -37.835373 -200 45 -200 45 -200 45
1299451575.2625 -3.7959788 -37.873291 -200 45 -200 45 -200 45
1300451691.9487 -3.8035562 -37.879925 -200 45 -200 45 -200 45
1301451808.6348 -3.8086317 -37.906601 -200 45 -200 45 -200 45
1302451925.3209 -3.810539 -37.939079 -200 45 -200 45 -200 45
1303452042.007 -3.8138046 -37.983368 -200 45 -200 45 -200 45
1304452158.6931 -3.8189974 -38.020493 -200 45 -200 45 -200 45
1305452275.3792 -3.8203516 -38.046749 -200 45 -200 45 -200 45
1306452392.0653 -3.818047 -38.086239 -200 45 -200 45 -200 45
1307452508.7515 -3.8183458 -38.119801 -200 45 -200 45 -200 45
1308452625.4376 -3.8266068 -38.160015 -200 45 -200 45 -200 45
1309452742.1237 -3.8253317 -38.192837 -200 45 -200 45 -200 45
1310452858.8098 -3.8281834 -38.245266 -200 45 -200 45 -200 45
1311452975.4959 -3.8364184 -38.282852 -200 45 -200 45 -200 45
1312453092.182 -3.8415041 -38.340309 -200 45 -200 45 -200 45
1313453208.8681 -3.8451209 -38.391743 -200 45 -200 45 -200 45
1314453325.5543 -3.8543077 -38.426025 -200 45 -200 45 -200 45
1315453442.2404 -3.8537517 -38.459232 -200 45 -200 45 -200 45
1316453558.9265 -3.8541737 -38.500622 -200 45 -200 45 -200 45
1317453675.6126 -3.8547814 -38.559284 -200 45 -200 45 -200 45
1318453792.2987 -3.8546088 -38.603668 -200 45 -200 45 -200 45
1319453908.9848 -3.8599758 -38.641022 -200 45 -200 45 -200 45
1320454025.6709 -3.8609028 -38.677391 -200 45 -200 45 -200 45
1321454142.3571 -3.8580849 -38.722633 -200 45 -200 45 -200 45
1322454259.0432 -3.8545942 -38.789631 -200 45 -200 45 -200 45
1323454375.7293 -3.8546925 -38.82336 -200 45 -200 45 -200 45
1324454492.4154 -3.8546309 -38.856522 -200 45 -200 45 -200 45
1325454609.1015 -3.8503199 -38.904644 -200 45 -200 45 -200 45
1326454725.7876 -3.8533671 -38.94173 -200 45 -200 45 -200 45
1327454842.4737 -3.8539939 -38.959141 -200 45 -200 45 -200 45
1328454959.1599 -3.856137 -39.006882 -200 45 -200 45 -200 45
1329455075.846 -3.8576202 -39.038673 -200 45 -200 45 -200 45
1330455192.5321 -3.8599238 -39.065376 -200 45 -200 45 -200 45
1331455309.2182 -3.8581436 -39.085537 -200 45 -200 45 -200 45
1332455425.9043 -3.8585351 -39.101463 -200 45 -200 45 -200 45
1333455542.5904 -3.8540082 -39.142788 -200 45 -200 45 -200 45
1334455659.2765 -3.8532157 -39.16481 -200 45 -200 45 -200 45
1335455775.9627 -3.8569646 -39.172844 -200 45 -200 45 -200 45
1336455892.6488 -3.8599451 -39.199615 -200 45 -200 45 -200 45
1337456009.3349 -3.84973 -39.217243 -200 45 -200 45 -200 45
1338456126.021 -3.8439872 -39.2244 -200 45 -200 45 -200 45
1339456242.7071 -3.836921 -39.239109 -200 45 -200 45 -200 45
1340456359.3932 -3.8435218 -39.241215 -200 45 -200 45 -200 45
1341456476.0793 -3.8425653 -39.248035 -200 45 -200 45 -200 45
1342456592.7655 -3.8431013 -39.246998 -200 45 -200 45 -200 45
1343456709.4516 -3.8427072 -39.247261 -200 45 -200 45 -200 45
1344456826.1377 -3.8442814 -39.254742 -200 45 -200 45 -200 45
1345456942.8238 -3.8441377 -39.242676 -200 45 -200 45 -200 45
1346457059.5099 -3.8501024 -39.23539 -200 45 -200 45 -200 45
1347457176.196 -3.8540013 -39.218376 -200 45 -200 45 -200 45
1348457292.8821 -3.85094 -39.21944 -200 45 -200 45 -200 45
1349457409.5683 -3.8494825 -39.203789 -200 45 -200 45 -200 45
1350457526.2544 -3.8476479 -39.20203 -200 45 -200 45 -200 45
1351457642.9405 -3.8502409 -39.167076 -200 45 -200 45 -200 45
1352457759.6266 -3.852216 -39.167564 -200 45 -200 45 -200 45
1353457876.3127 -3.8530502 -39.14151 -200 45 -200 45 -200 45
1354457992.9988 -3.845978 -39.148991 -200 45 -200 45 -200 45
1355458109.6849 -3.850317 -39.111591 -200 45 -200 45 -200 45
1356458226.3711 -3.853987 -39.110767 -200 45 -200 45 -200 45
1357458343.0572 -3.85495 -39.083218 -200 45 -200 45 -200 45
1358458459.7433 -3.8563635 -39.07103 -200 45 -200 45 -200 45
1359458576.4294 -3.8633969 -39.050976 -200 45 -200 45 -200 45
1360458693.1155 -3.8679545 -39.021187 -200 45 -200 45 -200 45
1361458809.8016 -3.8719699 -38.994957 -200 45 -200 45 -200 45
1362458926.4877 -3.8767865 -38.964703 -200 45 -200 45 -200 45
1363459043.1739 -3.8830402 -38.94978 -200 45 -200 45 -200 45
1364459159.86 -3.884727 -38.942516 -200 45 -200 45 -200 45
1365459276.5461 -3.8908925 -38.929729 -200 45 -200 45 -200 45
1366459393.2322 -3.8978183 -38.909527 -200 45 -200 45 -200 45
1367459509.9183 -3.9015901 -38.906685 -200 45 -200 45 -200 45
1368459626.6044 -3.9163899 -38.882366 -200 45 -200 45 -200 45
1369459743.2905 -3.9233203 -38.861691 -200 45 -200 45 -200 45
1370459859.9767 -3.9154537 -38.864674 -200 45 -200 45 -200 45
1371459976.6628 -3.9150341 -38.861427 -200 45 -200 45 -200 45
1372460093.3489 -3.9160423 -38.851795 -200 45 -200 45 -200 45
1373460210.035 -3.9271162 -38.850529 -200 45 -200 45 -200 45
1374460326.7211 -3.9296246 -38.847992 -200 45 -200 45 -200 45
1375460443.4072 -3.9388797 -38.856171 -200 45 -200 45 -200 45
1376460560.0933 -3.9426672 -38.845123 -200 45 -200 45 -200 45
1377460676.7795 -3.9501424 -38.861687 -200 45 -200 45 -200 45
1378460793.4656 -3.9590676 -38.87418 -200 45 -200 45 -200 45
1379460910.1517 -3.9661341 -38.886597 -200 45 -200 45 -200 45
1380461026.8378 -3.9716938 -38.876331 -200 45 -200 45 -200 45
1381461143.5239 -3.9769678 -38.90134 -200 45 -200 45 -200 45
1382461260.21 -3.9776671 -38.914368 -200 45 -200 45 -200 45
1383461376.8961 -3.9870775 -38.947578 -200 45 -200 45 -200 45
1384461493.5823 -3.9906237 -38.960629 -200 45 -200 45 -200 45
1385461610.2684 -3.9949555 -38.977745 -200 45 -200 45 -200 45
1386461726.9545 -3.9972043 -39.013275 -200 45 -200 45 -200 45
1387461843.6406 -3.9975607 -39.04752 -200 45 -200 45 -200 45
1388461960.3267 -3.9972146 -39.079952 -200 45 -200 45 -200 45
1389462077.0128 -4.0101581 -39.106949 -200 45 -200 45 -200 45
1390462193.6989 -4.0098796 -39.166374 -200 45 -200 45 -200 45
1391462310.3851 -4.0041909 -39.202255 -200 45 -200 45 -200 45
1392462427.0712 -4.0078683 -39.231209 -200 45 -200 45 -200 45
1393462543.7573 -4.0265822 -39.265812 -200 45 -200 45 -200 45
1394462660.4434 -4.03234 -39.28513 -200 45 -200 45 -200 45
1395462777.1295 -4.0397363 -39.327137 -200 45 -200 45 -200 45
1396462893.8156 -4.043014 -39.360592 -200 45 -200 45 -200 45
1397463010.5018 -4.0450416 -39.40498 -200 45 -200 45 -200 45
1398463127.1879 -4.0441661 -39.46735 -200 45 -200 45 -200 45
1399463243.874 -4.0480304 -39.493778 -200 45 -200 45 -200 45
1400463360.5601 -4.0509362 -39.558132 -200 45 -200 45 -200 45
1401463477.2462 -4.0532255 -39.603157 -200 45 -200 45 -200 45
1402463593.9323 -4.0489593 -39.628742 -200 45 -200 45 -200 45
1403463710.6184 -4.0396595 -39.699638 -200 45 -200 45 -200 45
1404463827.3046 -4.0466552 -39.724796 -200 45 -200 45 -200 45
1405463943.9907 -4.0487752 -39.767086 -200 45 -200 45 -200 45
1406464060.6768 -4.0507278 -39.825241 -200 45 -200 45 -200 45
1407464177.3629 -4.0499067 -39.845112 -200 45 -200 45 -200 45
1408464294.049 -4.0502267 -39.897686 -200 45 -200 45 -200 45
1409464410.7351 -4.0514808 -39.941765 -200 45 -200 45 -200 45
1410464527.4212 -4.053967 -39.966259 -200 45 -200 45 -200 45
1411464644.1074 -4.0582438 -39.986794 -200 45 -200 45 -200 45
1412464760.7935 -4.0583019 -40.027615 -200 45 -200 45 -200 45
1413464877.4796 -4.0550613 -40.069763 -200 45 -200 45 -200 45
1414464994.1657 -4.0528874 -40.114403 -200 45 -200 45 -200 45
1415465110.8518 -4.0498638 -40.132835 -200 45 -200 45 -200 45
1416465227.5379 -4.050477 -40.151054 -200 45 -200 45 -200 45
1417465344.224 -4.0498433 -40.167629 -200 45 -200 45 -200 45
1418465460.9102 -4.04352 -40.201702 -200 45 -200 45 -200 45
1419465577.5963 -4.0380983 -40.221882 -200 45 -200 45 -200 45
1420465694.2824 -4.0357137 -40.224373 -200 45 -200 45 -200 45
1421465810.9685 -4.0357485 -40.24268 -200 45 -200 45 -200 45
1422465927.6546 -4.0251622 -40.264381 -200 45 -200 45 -200 45
1423466044.3407 -4.0195923 -40.299988 -200 45 -200 45 -200 45
1424466161.0268 -4.014864 -40.304688 -200 45 -200 45 -200 45
1425466277.713 -4.0175409 -40.304008 -200 45 -200 45 -200 45
1426466394.3991 -4.0338674 -40.284225 -200 45 -200 45 -200 45
1427466511.0852 -4.0349021 -40.2948 -200 45 -200 45 -200 45
1428466627.7713 -4.03894 -40.289688 -200 45 -200 45 -200 45
1429466744.4574 -4.0344248 -40.286179 -200 45 -200 45 -200 45
1430466861.1435 -4.0328007 -40.272236 -200 45 -200 45 -200 45
1431466977.8296 -4.0307975 -40.277218 -200 45 -200 45 -200 45
1432467094.5158 -4.0376868 -40.255745 -200 45 -200 45 -200 45
1433467211.2019 -4.0345111 -40.24234 -200 45 -200 45 -200 45
1434467327.888 -4.0291748 -40.235126 -200 45 -200 45 -200 45
1435467444.5741 -4.0255213 -40.227665 -200 45 -200 45 -200 45
1436467561.2602 -4.0258622 -40.235401 -200 45 -200 45 -200 45
1437467677.9463 -4.0251236 -40.197174 -200 45 -200 45 -200 45
1438467794.6324 -4.0293474 -40.175358 -200 45 -200 45 -200 45
1439467911.3186 -4.0299625 -40.172001 -200 45 -200 45 -200 45
1440468028.0047 -4.0339522 -40.124382 -200 45 -200 45 -200 45
1441468144.6908 -4.0361094 -40.12278 -200 45 -200 45 -200 45
1442468261.3769 -4.0374064 -40.091469 -200 45 -200 45 -200 45
1443468378.063 -4.044785 -40.078484 -200 45 -200 45 -200 45
1444468494.7491 -4.0504532 -40.061886 -200 45 -200 45 -200 45
1445468611.4352 -4.048255 -40.018307 -200 45 -200 45 -200 45
1446468728.1214 -4.050519 -40.017345 -200 45 -200 45 -200 45
1447468844.8075 -4.0538936 -40.011677 -200 45 -200 45 -200 45
1448468961.4936 -4.0611906 -39.981186 -200 45 -200 45 -200 45
1449469078.1797 -4.0617723 -39.958042 -200 45 -200 45 -200 45
1450469194.8658 -4.0617428 -39.962132 -200 45 -200 45 -200 45
1451469311.5519 -4.0613303 -39.94244 -200 45 -200 45 -200 45
1452469428.238 -4.0667496 -39.925388 -200 45 -200 45 -200 45
1453469544.9242 -4.0761833 -39.90995 -200 45 -200 45 -200 45
1454469661.6103 -4.0750976 -39.912636 -200 45 -200 45 -200 45
1455469778.2964 -4.0772505 -39.908401 -200 45 -200 45 -200 45
1456469894.9825 -4.0751634 -39.916603 -200 45 -200 45 -200 45
1457470011.6686 -4.0759234 -39.91531 -200 45 -200 45 -200 45
1458470128.3547 -4.0846038 -39.920628 -200 45 -200 45 -200 45
1459470245.0408 -4.1044583 -39.8806 -200 45 -200 45 -200 45
1460470361.727 -4.1153779 -39.871555 -200 45 -200 45 -200 45
1461470478.4131 -4.1199894 -39.879589 -200 45 -200 45 -200 45
1462470595.0992 -4.1214476 -39.89756 -200 45 -200 45 -200 45
1463470711.7853 -4.1279087 -39.90451 -200 45 -200 45 -200 45
1464470828.4714 -4.1332493 -39.903549 -200 45 -200 45 -200 45
1465470945.1575 -4.1405268 -39.911884 -200 45 -200 45 -200 45
1466471061.8436 -4.1492453 -39.929234 -200 45 -200 45 -200 45
1467471178.5298 -4.1487985 -39.953251 -200 45 -200 45 -200 45
1468471295.2159 -4.1531692 -39.98035 -200 45 -200 45 -200 45
1469471411.902 -4.1583533 -39.987488 -200 45 -200 45 -200 45
1470471528.5881 -4.1591377 -40.021328 -200 45 -200 45 -200 45
1471471645.2742 -4.156261 -40.059341 -200 45 -200 45 -200 45
1472471761.9603 -4.1725698 -40.077934 -200 45 -200 45 -200 45
1473471878.6464 -4.1795306 -40.103096 -200 45 -200 45 -200 45
1474471995.3326 -4.1859641 -40.127453 -200 45 -200 45 -200 45
1475472112.0187 -4.1957836 -40.158386 -200 45 -200 45 -200 45
1476472228.7048 -4.2005048 -40.183056 -200 45 -200 45 -200 45
1477472345.3909 -4.2011571 -40.231716 -200 45 -200 45 -200 45
1478472462.077 -4.2068024 -40.273239 -200 45 -200 45 -200 45
1479472578.7631 -4.2088575 -40.30032 -200 45 -200 45 -200 45
1480472695.4492 -4.2139668 -40.347279 -200 45 -200 45 -200 45
1481472812.1354 -4.2227545 -40.382355 -200 45 -200 45 -200 45
1482472928.8215 -4.2258048 -40.422642 -200 45 -200 45 -200 45
1483473045.5076 -4.2140589 -40.466663 -200 45 -200 45 -200 45
1484473162.1937 -4.2174168 -40.521011 -200 45 -200 45 -200 45
1485473278.8798 -4.218832 -40.555115 -200 45 -200 45 -200 45
1486473395.5659 -4.2215819 -40.619221 -200 45 -200 45 -200 45
1487473512.252 -4.2231488 -40.648285 -200 45 -200 45 -200 45
1488473628.9382 -4.224153 -40.710007 -200 45 -200 45 -200 45
1489473745.6243 -4.226223 -40.769028 -200 45 -200 45 -200 45
1490473862.3104 -4.2273793 -40.79266 -200 45 -200 45 -200 45
1491473978.9965 -4.2315836 -40.831799 -200 45 -200 45 -200 45
1492474095.6826 -4.2325835 -40.875172 -200 45 -200 45 -200 45
1493474212.3687 -4.2369499 -40.93306 -200 45 -200 45 -200 45
1494474329.0548 -4.2362957 -40.94759 -200 45 -200 45 -200 45
1495474445.741 -4.233561 -40.994579 -200 45 -200 45 -200 45
1496474562.4271 -4.2326622 -41.021122 -200 45 -200 45 -200 45
1497474679.1132 -4.2305827 -41.054043 -200 45 -200 45 -200 45
1498474795.7993 -4.2273517 -41.106007 -200 45 -200 45 -200 45
1499474912.4854 -4.2198253 -41.142818 -200 45 -200 45 -200 45
1500475029.1715 -4.2168813 -41.178429 -200 45 -200 45 -200 45
1501475145.8576 -4.2171316 -41.194374 -200 45 -200 45 -200 45
1502475262.5438 -4.2111554 -41.249371 -200 45 -200 45 -200 45
1503475379.2299 -4.2029238 -41.267033 -200 45 -200 45 -200 45
1504475495.916 -4.1896472 -41.319347 -200 45 -200 45 -200 45
1505475612.6021 -4.2044601 -41.312412 -200 45 -200 45 -200 45
1506475729.2882 -4.2109737 -41.307835 -200 45 -200 45 -200 45
1507475845.9743 -4.2145519 -41.316845 -200 45 -200 45 -200 45
1508475962.6604 -4.2175517 -41.320381 -200 45 -200 45 -200 45
1509476079.3466 -4.2143822 -41.350903 -200 45 -200 45 -200 45
1510476196.0327 -4.2140093 -41.352936 -200 45 -200 45 -200 45
1511476312.7188 -4.2100072 -41.338715 -200 45 -200 45 -200 45
1512476429.4049 -4.2123928 -41.339455 -200 45 -200 45 -200 45
1513476546.091 -4.211566 -41.340118 -200 45 -200 45 -200 45
1514476662.7771 -4.2134576 -41.344627 -200 45 -200 45 -200 45
1515476779.4632 -4.2014141 -41.353855 -200 45 -200 45 -200 45
1516476896.1494 -4.1896067 -41.349087 -200 45 -200 45 -200 45
1517477012.8355 -4.1965656 -41.328671 -200 45 -200 45 -200 45
1518477129.5216 -4.2009072 -41.30743 -200 45 -200 45 -200 45
1519477246.2077 -4.2037988 -41.302246 -200 45 -200 45 -200 45
1520477362.8938 -4.2042689 -41.275837 -200 45 -200 45 -200 45
1521477479.5799 -4.2024255 -41.238174 -200 45 -200 45 -200 45
1522477596.266 -4.2047992 -41.218143 -200 45 -200 45 -200 45
1523477712.9522 -4.2120166 -41.186554 -200 45 -200 45 -200 45
1524477829.6383 -4.2185988 -41.183239 -200 45 -200 45 -200 45
1525477946.3244 -4.2187667 -41.156391 -200 45 -200 45 -200 45
1526478063.0105 -4.2213612 -41.125378 -200 45 -200 45 -200 45
1527478179.6966 -4.219686 -41.11142 -200 45 -200 45 -200 45
1528478296.3827 -4.2231789 -41.0756 -200 45 -200 45 -200 45
1529478413.0688 -4.2254438 -41.044006 -200 45 -200 45 -200 45
1530478529.755 -4.2246327 -41.026577 -200 45 -200 45 -200 45
1531478646.4411 -4.2213545 -41.015907 -200 45 -200 45 -200 45
1532478763.1272 -4.2237177 -41.002144 -200 45 -200 45 -200 45
1533478879.8133 -4.2222881 -40.9687 -200 45 -200 45 -200 45
1534478996.4994 -4.2297268 -40.950405 -200 45 -200 45 -200 45
1535479113.1855 -4.2346063 -40.942734 -200 45 -200 45 -200 45
1536479229.8716 -4.2285895 -40.925274 -200 45 -200 45 -200 45
1537479346.5578 -4.2315397 -40.923588 -200 45 -200 45 -200 45
1538479463.2439 -4.2454071 -40.892311 -200 45 -200 45 -200 45
1539479579.93 -4.2517409 -40.866627 -200 45 -200 45 -200 45
1540479696.6161 -4.2630639 -40.82782 -200 45 -200 45 -200 45
1541479813.3022 -4.26337 -40.832474 -200 45 -200 45 -200 45
1542479929.9883 -4.2673149 -40.814945 -200 45 -200 45 -200 45
1543480046.6744 -4.2725968 -40.82515 -200 45 -200 45 -200 45
1544480163.3606 -4.2798223 -40.813755 -200 45 -200 45 -200 45
1545480280.0467 -4.2847881 -40.814884 -200 45 -200 45 -200 45
1546480396.7328 -4.2900434 -40.80545 -200 45 -200 45 -200 45
1547480513.4189 -4.2940888 -40.811466 -200 45 -200 45 -200 45
1548480630.105 -4.2944698 -40.825977 -200 45 -200 45 -200 45
1549480746.7911 -4.287703 -40.857975 -200 45 -200 45 -200 45
1550480863.4772 -4.2824063 -40.889919 -200 45 -200 45 -200 45
1551480980.1634 -4.2982836 -40.858727 -200 45 -200 45 -200 45
1552481096.8495 -4.31214 -40.862778 -200 45 -200 45 -200 45
1553481213.5356 -4.3179302 -40.880043 -200 45 -200 45 -200 45
1554481330.2217 -4.3283935 -40.898357 -200 45 -200 45 -200 45
1555481446.9078 -4.3355885 -40.917034 -200 45 -200 45 -200 45
1556481563.5939 -4.340404 -40.932236 -200 45 -200 45 -200 45
1557481680.28 -4.3489165 -40.949543 -200 45 -200 45 -200 45
1558481796.9662 -4.3538671 -41.005787 -200 45 -200 45 -200 45
1559481913.6523 -4.3539338 -41.024906 -200 45 -200 45 -200 45
1560482030.3384 -4.3582826 -41.048531 -200 45 -200 45 -200 45
1561482147.0245 -4.3712091 -41.081146 -200 45 -200 45 -200 45
1562482263.7106 -4.3787971 -41.121471 -200 45 -200 45 -200 45
1563482380.3967 -4.3694372 -41.167469 -200 45 -200 45 -200 45
1564482497.0828 -4.3685727 -41.204082 -200 45 -200 45 -200 45
1565482613.769 -4.3732681 -41.274143 -200 45 -200 45 -200 45
1566482730.4551 -4.3739028 -41.309921 -200 45 -200 45 -200 45
1567482847.1412 -4.3790112 -41.343311 -200 45 -200 45 -200 45
1568482963.8273 -4.3824277 -41.391953 -200 45 -200 45 -200 45
1569483080.5134 -4.3810964 -41.46336 -200 45 -200 45 -200 45
1570483197.1995 -4.3786507 -41.489449 -200 45 -200 45 -200 45
1571483313.8856 -4.3849759 -41.530117 -200 45 -200 45 -200 45
1572483430.5718 -4.3950276 -41.576721 -200 45 -200 45 -200 45
1573483547.2579 -4.4012527 -41.598866 -200 45 -200 45 -200 45
1574483663.944 -4.3990169 -41.653004 -200 45 -200 45 -200 45
1575483780.6301 -4.3926997 -41.717579 -200 45 -200 45 -200 45
1576483897.3162 -4.3965826 -41.753864 -200 45 -200 45 -200 45
1577484014.0023 -4.3975592 -41.788433 -200 45 -200 45 -200 45
1578484130.6884 -4.3960905 -41.82439 -200 45 -200 45 -200 45
1579484247.3746 -4.3922286 -41.876831 -200 45 -200 45 -200 45
1580484364.0607 -4.3901863 -41.928822 -200 45 -200 45 -200 45
1581484480.7468 -4.3882771 -41.954758 -200 45 -200 45 -200 45
1582484597.4329 -4.3838792 -41.98962 -200 45 -200 45 -200 45
1583484714.119 -4.3758554 -42.050892 -200 45 -200 45 -200 45
1584484830.8051 -4.3640251 -42.100739 -200 45 -200 45 -200 45
1585484947.4912 -4.3755994 -42.103172 -200 45 -200 45 -200 45
1586485064.1774 -4.3860607 -42.097919 -200 45 -200 45 -200 45
1587485180.8635 -4.3825755 -42.143452 -200 45 -200 45 -200 45
1588485297.5496 -4.3885736 -42.161156 -200 45 -200 45 -200 45
1589485414.2357 -4.3846908 -42.184544 -200 45 -200 45 -200 45
1590485530.9218 -4.3798332 -42.211262 -200 45 -200 45 -200 45
1591485647.6079 -4.3780975 -42.199104 -200 45 -200 45 -200 45
1592485764.294 -4.3770776 -42.227154 -200 45 -200 45 -200 45
1593485880.9802 -4.3795023 -42.224621 -200 45 -200 45 -200 45
1594485997.6663 -4.3854513 -42.251919 -200 45 -200 45 -200 45
1595486114.3524 -4.3763585 -42.254536 -200 45 -200 45 -200 45
1596486231.0385 -4.3671727 -42.27597 -200 45 -200 45 -200 45
1597486347.7246 -4.3649211 -42.258526 -200 45 -200 45 -200 45
1598486464.4107 -4.3629766 -42.255852 -200 45 -200 45 -200 45
1599486581.0968 -4.3622208 -42.266731 -200 45 -200 45 -200 45
1600486697.783 -4.361011 -42.255299 -200 45 -200 45 -200 45
1601486814.4691 -4.3609781 -42.269562 -200 45 -200 45 -200 45
1602486931.1552 -4.3632989 -42.248608 -200 45 -200 45 -200 45
1603487047.8413 -4.3621073 -42.227211 -200 45 -200 45 -200 45
1604487164.5274 -4.3690071 -42.197556 -200 45 -200 45 -200 45
1605487281.2135 -4.3717475 -42.184975 -200 45 -200 45 -200 45
1606487397.8997 -4.3785181 -42.162125 -200 45 -200 45 -200 45
1607487514.5858 -4.3733482 -42.148956 -200 45 -200 45 -200 45
1608487631.2719 -4.3642478 -42.107613 -200 45 -200 45 -200 45
1609487747.958 -4.3712764 -42.090118 -200 45 -200 45 -200 45
1610487864.6441 -4.3711977 -42.083069 -200 45 -200 45 -200 45
1611487981.3302 -4.3659363 -42.065327 -200 45 -200 45 -200 45
1612488098.0163 -4.3662949 -42.025711 -200 45 -200 45 -200 45
1613488214.7025 -4.3634562 -42.000271 -200 45 -200 45 -200 45
1614488331.3886 -4.3694334 -41.981579 -200 45 -200 45 -200 45
1615488448.0747 -4.3700938 -41.95705 -200 45 -200 45 -200 45
1616488564.7608 -4.3682423 -41.952511 -200 45 -200 45 -200 45
1617488681.4469 -4.3628459 -41.933853 -200 45 -200 45 -200 45
1618488798.133 -4.359417 -41.950245 -200 45 -200 45 -200 45
1619488914.8191 -4.369504 -41.879395 -200 45 -200 45 -200 45
1620489031.5053 -4.3867059 -41.840855 -200 45 -200 45 -200 45
1621489148.1914 -4.39993 -41.788563 -200 45 -200 45 -200 45
1622489264.8775 -4.4000473 -41.779518 -200 45 -200 45 -200 45
1623489381.5636 -4.401258 -41.749161 -200 45 -200 45 -200 45
1624489498.2497 -4.4051714 -41.757305 -200 45 -200 45 -200 45
1625489614.9358 -4.4129601 -41.733589 -200 45 -200 45 -200 45
1626489731.6219 -4.4189997 -41.703915 -200 45 -200 45 -200 45
1627489848.3081 -4.4227529 -41.684845 -200 45 -200 45 -200 45
1628489964.9942 -4.4179316 -41.689991 -200 45 -200 45 -200 45
1629490081.6803 -4.408628 -41.715088 -200 45 -200 45 -200 45
1630490198.3664 -4.426662 -41.687 -200 45 -200 45 -200 45
1631490315.0525 -4.4323645 -41.672127 -200 45 -200 45 -200 45
1632490431.7386 -4.4332623 -41.680542 -200 45 -200 45 -200 45
1633490548.4247 -4.4373631 -41.670738 -200 45 -200 45 -200 45
1634490665.1109 -4.4481177 -41.670715 -200 45 -200 45 -200 45
1635490781.797 -4.4587498 -41.68922 -200 45 -200 45 -200 45
1636490898.4831 -4.4680686 -41.679413 -200 45 -200 45 -200 45
1637491015.1692 -4.4682031 -41.703087 -200 45 -200 45 -200 45
1638491131.8553 -4.4770746 -41.709427 -200 45 -200 45 -200 45
1639491248.5414 -4.4837728 -41.732433 -200 45 -200 45 -200 45
1640491365.2275 -4.4913697 -41.742386 -200 45 -200 45 -200 45
1641491481.9137 -4.4966645 -41.768589 -200 45 -200 45 -200 45
1642491598.5998 -4.5006232 -41.806206 -200 45 -200 45 -200 45
1643491715.2859 -4.5062785 -41.805103 -200 45 -200 45 -200 45
1644491831.972 -4.5038095 -41.838936 -200 45 -200 45 -200 45
1645491948.6581 -4.504261 -41.887688 -200 45 -200 45 -200 45
1646492065.3442 -4.5085897 -41.926998 -200 45 -200 45 -200 45
1647492182.0303 -4.5128498 -41.967983 -200 45 -200 45 -200 45
1648492298.7165 -4.511837 -41.991302 -200 45 -200 45 -200 45
1649492415.4026 -4.5111041 -42.040703 -200 45 -200 45 -200 45
1650492532.0887 -4.5063677 -42.105595 -200 45 -200 45 -200 45
1651492648.7748 -4.5087852 -42.132145 -200 45 -200 45 -200 45
1652492765.4609 -4.5226841 -42.175037 -200 45 -200 45 -200 45
1653492882.147 -4.5327263 -42.217487 -200 45 -200 45 -200 45
1654492998.8331 -4.5349255 -42.255459 -200 45 -200 45 -200 45
1655493115.5193 -4.5371475 -42.287674 -200 45 -200 45 -200 45
1656493232.2054 -4.5363421 -42.337292 -200 45 -200 45 -200 45
1657493348.8915 -4.5384078 -42.395519 -200 45 -200 45 -200 45
1658493465.5776 -4.5385542 -42.426929 -200 45 -200 45 -200 45
1659493582.2637 -4.5412426 -42.480076 -200 45 -200 45 -200 45
1660493698.9498 -4.5358281 -42.529861 -200 45 -200 45 -200 45
1661493815.6359 -4.5286732 -42.589077 -200 45 -200 45 -200 45
1662493932.3221 -4.5087614 -42.685726 -200 45 -200 45 -200 45
1663494049.0082 -4.4857721 -42.787052 -200 45 -200 45 -200 45
1664494165.6943 -4.472384 -42.878651 -200 45 -200 45 -200 45
1665494282.3804 -4.5331111 -42.750568 -200 45 -200 45 -200 45
1666494399.0665 -4.5355129 -42.789234 -200 45 -200 45 -200 45
1667494515.7526 -4.5337791 -42.819298 -200 45 -200 45 -200 45
1668494632.4387 -4.5345941 -42.865135 -200 45 -200 45 -200 45
1669494749.1249 -4.5324001 -42.898575 -200 45 -200 45 -200 45
1670494865.811 -4.5290756 -42.920181 -200 45 -200 45 -200 45
1671494982.4971 -4.5331407 -42.934303 -200 45 -200 45 -200 45
1672495099.1832 -4.5253992 -42.967342 -200 45 -200 45 -200 45
1673495215.8693 -4.524169 -42.994453 -200 45 -200 45 -200 45
1674495332.5554 -4.5156732 -43.027538 -200 45 -200 45 -200 45
1675495449.2415 -4.5158629 -43.06562 -200 45 -200 45 -200 45
1676495565.9277 -4.5160384 -43.099209 -200 45 -200 45 -200 45
1677495682.6138 -4.5144463 -43.12738 -200 45 -200 45 -200 45
1678495799.2999 -4.5111451 -43.123032 -200 45 -200 45 -200 45
1679495915.986 -4.5068007 -43.121166 -200 45 -200 45 -200 45
1680496032.6721 -4.5026145 -43.121685 -200 45 -200 45 -200 45
1681496149.3582 -4.5014362 -43.170124 -200 45 -200 45 -200 45
1682496266.0443 -4.5037599 -43.160564 -200 45 -200 45 -200 45
1683496382.7305 -4.5088763 -43.174217 -200 45 -200 45 -200 45
1684496499.4166 -4.5133719 -43.124989 -200 45 -200 45 -200 45
1685496616.1027 -4.5237484 -43.077972 -200 45 -200 45 -200 45
1686496732.7888 -4.514123 -43.012413 -200 45 -200 45 -200 45
1687496849.4749 -4.5016418 -42.943016 -200 45 -200 45 -200 45
1688496966.161 -4.491549 -42.935741 -200 45 -200 45 -200 45
1689497082.8471 -4.4865236 -42.923653 -200 45 -200 45 -200 45
1690497199.5333 -4.484437 -42.939613 -200 45 -200 45 -200 45
1691497316.2194 -4.4847555 -42.957249 -200 45 -200 45 -200 45
1692497432.9055 -4.4789648 -42.928047 -200 45 -200 45 -200 45
1693497549.5916 -4.4749713 -42.920437 -200 45 -200 45 -200 45
1694497666.2777 -4.4627118 -42.927189 -200 45 -200 45 -200 45
1695497782.9638 -4.4521971 -42.951889 -200 45 -200 45 -200 45
1696497899.6499 -4.4304276 -43.004169 -200 45 -200 45 -200 45
1697498016.3361 -4.456737 -42.918819 -200 45 -200 45 -200 45
1698498133.0222 -4.4797196 -42.855465 -200 45 -200 45 -200 45
1699498249.7083 -4.4847236 -42.825878 -200 45 -200 45 -200 45
1700498366.3944 -4.4882836 -42.79771 -200 45 -200 45 -200 45
1701498483.0805 -4.49051 -42.76614 -200 45 -200 45 -200 45
1702498599.7666 -4.4966063 -42.751205 -200 45 -200 45 -200 45
1703498716.4527 -4.496603 -42.725918 -200 45 -200 45 -200 45
1704498833.1389 -4.5009723 -42.709278 -200 45 -200 45 -200 45
1705498949.825 -4.5036392 -42.683487 -200 45 -200 45 -200 45
1706499066.5111 -4.5178509 -42.631615 -200 45 -200 45 -200 45
1707499183.1972 -4.5253778 -42.588867 -200 45 -200 45 -200 45
1708499299.8833 -4.5271354 -42.571098 -200 45 -200 45 -200 45
1709499416.5694 -4.5209804 -42.567554 -200 45 -200 45 -200 45
1710499533.2555 -4.5175819 -42.56662 -200 45 -200 45 -200 45
1711499649.9417 -4.5257883 -42.535019 -200 45 -200 45 -200 45
1712499766.6278 -4.5313258 -42.529068 -200 45 -200 45 -200 45
1713499883.3139 -4.5332732 -42.534279 -200 45 -200 45 -200 45
1714500000 -4.5261154 -42.529827 -200 45 -200 45 -200 45
1715500116.6861 -4.5301638 -42.520283 -200 45 -200 45 -200 45
1716500233.3722 -4.5411949 -42.498352 -200 45 -200 45 -200 45
1717500350.0583 -4.5604963 -42.465485 -200 45 -200 45 -200 45
1718500466.7445 -4.5730195 -42.456959 -200 45 -200 45 -200 45
1719500583.4306 -4.5795455 -42.470013 -200 45 -200 45 -200 45
1720500700.1167 -4.5741253 -42.487286 -200 45 -200 45 -200 45
1721500816.8028 -4.5793591 -42.487984 -200 45 -200 45 -200 45
1722500933.4889 -4.5853944 -42.488552 -200 45 -200 45 -200 45
1723501050.175 -4.5908985 -42.502869 -200 45 -200 45 -200 45
1724501166.8611 -4.5962381 -42.535999 -200 45 -200 45 -200 45
1725501283.5473 -4.5885096 -42.600601 -200 45 -200 45 -200 45
1726501400.2334 -4.588501 -42.600906 -200 45 -200 45 -200 45
1727501516.9195 -4.592073 -42.635399 -200 45 -200 45 -200 45
1728501633.6056 -4.5958118 -42.64912 -200 45 -200 45 -200 45
1729501750.2917 -4.5978069 -42.717377 -200 45 -200 45 -200 45
1730501866.9778 -4.6015668 -42.745792 -200 45 -200 45 -200 45
1731501983.6639 -4.6228728 -42.716557 -200 45 -200 45 -200 45
1732502100.3501 -4.6307435 -42.767815 -200 45 -200 45 -200 45
1733502217.0362 -4.6355543 -42.803757 -200 45 -200 45 -200 45
1734502333.7223 -4.6381798 -42.838799 -200 45 -200 45 -200 45
1735502450.4084 -4.6463261 -42.890205 -200 45 -200 45 -200 45
1736502567.0945 -4.6493926 -42.937565 -200 45 -200 45 -200 45
1737502683.7806 -4.6491108 -42.969822 -200 45 -200 45 -200 45
1738502800.4667 -4.6507592 -43.020008 -200 45 -200 45 -200 45
1739502917.1529 -4.6579981 -43.062309 -200 45 -200 45 -200 45
1740503033.839 -4.6617312 -43.136513 -200 45 -200 45 -200 45
1741503150.5251 -4.6552949 -43.175182 -200 45 -200 45 -200 45
1742503267.2112 -4.6477079 -43.236984 -200 45 -200 45 -200 45
1743503383.8973 -4.6512575 -43.29002 -200 45 -200 45 -200 45
1744503500.5834 -4.6535497 -43.350597 -200 45 -200 45 -200 45
1745503617.2695 -4.6541133 -43.389267 -200 45 -200 45 -200 45
1746503733.9557 -4.6468768 -43.452908 -200 45 -200 45 -200 45
1747503850.6418 -4.6477056 -43.494713 -200 45 -200 45 -200 45
1748503967.3279 -4.6471858 -43.53738 -200 45 -200 45 -200 45
1749504084.014 -4.6525564 -43.568855 -200 45 -200 45 -200 45
1750504200.7001 -4.6597238 -43.619488 -200 45 -200 45 -200 45
1751504317.3862 -4.6594768 -43.664574 -200 45 -200 45 -200 45
1752504434.0723 -4.6607885 -43.706154 -200 45 -200 45 -200 45
1753504550.7585 -4.648129 -43.740246 -200 45 -200 45 -200 45
1754504667.4446 -4.6467795 -43.797512 -200 45 -200 45 -200 45
1755504784.1307 -4.6440563 -43.832157 -200 45 -200 45 -200 45
1756504900.8168 -4.6428337 -43.846973 -200 45 -200 45 -200 45
1757505017.5029 -4.6339102 -43.904316 -200 45 -200 45 -200 45
1758505134.189 -4.6301036 -43.948952 -200 45 -200 45 -200 45
1759505250.8751 -4.627315 -43.959961 -200 45 -200 45 -200 45
1760505367.5613 -4.6242552 -43.996506 -200 45 -200 45 -200 45
1761505484.2474 -4.6246324 -44.000061 -200 45 -200 45 -200 45
1762505600.9335 -4.6109114 -44.057156 -200 45 -200 45 -200 45
1763505717.6196 -4.6050525 -44.080524 -200 45 -200 45 -200 45
1764505834.3057 -4.6172843 -44.06461 -200 45 -200 45 -200 45
1765505950.9918 -4.6176429 -44.068134 -200 45 -200 45 -200 45
1766506067.6779 -4.6151571 -44.052055 -200 45 -200 45 -200 45
1767506184.3641 -4.612875 -44.071068 -200 45 -200 45 -200 45
1768506301.0502 -4.6093392 -44.071083 -200 45 -200 45 -200 45
1769506417.7363 -4.6096091 -44.06551 -200 45 -200 45 -200 45
1770506534.4224 -4.608355 -44.063705 -200 45 -200 45 -200 45
1771506651.1085 -4.6098638 -44.049957 -200 45 -200 45 -200 45
1772506767.7946 -4.6108699 -44.015827 -200 45 -200 45 -200 45
1773506884.4807 -4.6044636 -44.039352 -200 45 -200 45 -200 45
1774507001.1669 -4.5864906 -44.030872 -200 45 -200 45 -200 45
1775507117.853 -4.5920124 -44.004173 -200 45 -200 45 -200 45
1776507234.5391 -4.5947309 -43.975414 -200 45 -200 45 -200 45
1777507351.2252 -4.5946341 -43.952751 -200 45 -200 45 -200 45
1778507467.9113 -4.5944796 -43.947071 -200 45 -200 45 -200 45
1779507584.5974 -4.5935493 -43.912258 -200 45 -200 45 -200 45
1780507701.2835 -4.5942049 -43.867752 -200 45 -200 45 -200 45
1781507817.9697 -4.5985832 -43.844448 -200 45 -200 45 -200 45
1782507934.6558 -4.6043515 -43.805 -200 45 -200 45 -200 45
1783508051.3419 -4.6043043 -43.778763 -200 45 -200 45 -200 45
1784508168.028 -4.6032453 -43.744255 -200 45 -200 45 -200 45
1785508284.7141 -4.6057405 -43.715843 -200 45 -200 45 -200 45
1786508401.4002 -4.6087632 -43.682343 -200 45 -200 45 -200 45
1787508518.0863 -4.6056142 -43.665592 -200 45 -200 45 -200 45
1788508634.7725 -4.60781 -43.62727 -200 45 -200 45 -200 45
1789508751.4586 -4.609755 -43.600842 -200 45 -200 45 -200 45
1790508868.1447 -4.611114 -43.557621 -200 45 -200 45 -200 45
1791508984.8308 -4.6161118 -43.553371 -200 45 -200 45 -200 45
1792509101.5169 -4.6159663 -43.535477 -200 45 -200 45 -200 45
1793509218.203 -4.6177168 -43.500767 -200 45 -200 45 -200 45
1794509334.8891 -4.6265531 -43.477783 -200 45 -200 45 -200 45
1795509451.5753 -4.6300378 -43.457352 -200 45 -200 45 -200 45
1796509568.2614 -4.633719 -43.436996 -200 45 -200 45 -200 45
1797509684.9475 -4.6444678 -43.411915 -200 45 -200 45 -200 45
1798509801.6336 -4.6510658 -43.386753 -200 45 -200 45 -200 45
1799509918.3197 -4.652494 -43.384171 -200 45 -200 45 -200 45
1800510035.0058 -4.6590848 -43.372482 -200 45 -200 45 -200 45
1801510151.6919 -4.660605 -43.375351 -200 45 -200 45 -200 45
1802510268.3781 -4.6685333 -43.351406 -200 45 -200 45 -200 45
1803510385.0642 -4.6822019 -43.345428 -200 45 -200 45 -200 45
1804510501.7503 -4.6894121 -43.340935 -200 45 -200 45 -200 45
1805510618.4364 -4.6881232 -43.342152 -200 45 -200 45 -200 45
1806510735.1225 -4.6829104 -43.380386 -200 45 -200 45 -200 45
1807510851.8086 -4.6688056 -43.424191 -200 45 -200 45 -200 45
1808510968.4947 -4.6720037 -43.466644 -200 45 -200 45 -200 45
1809511085.1809 -4.7034788 -43.416611 -200 45 -200 45 -200 45
1810511201.867 -4.7088223 -43.433884 -200 45 -200 45 -200 45
1811511318.5531 -4.7127452 -43.42841 -200 45 -200 45 -200 45
1812511435.2392 -4.7203665 -43.47406 -200 45 -200 45 -200 45
1813511551.9253 -4.7222347 -43.5117 -200 45 -200 45 -200 45
1814511668.6114 -4.7316222 -43.523365 -200 45 -200 45 -200 45
1815511785.2975 -4.7375278 -43.550591 -200 45 -200 45 -200 45
1816511901.9837 -4.7415881 -43.613335 -200 45 -200 45 -200 45
1817512018.6698 -4.7442555 -43.646526 -200 45 -200 45 -200 45
1818512135.3559 -4.7476573 -43.686569 -200 45 -200 45 -200 45
1819512252.042 -4.7572446 -43.722462 -200 45 -200 45 -200 45
1820512368.7281 -4.7539968 -43.779873 -200 45 -200 45 -200 45
1821512485.4142 -4.754909 -43.820293 -200 45 -200 45 -200 45
1822512602.1004 -4.7580156 -43.887421 -200 45 -200 45 -200 45
1823512718.7865 -4.7598352 -43.933086 -200 45 -200 45 -200 45
1824512835.4726 -4.7596083 -43.971378 -200 45 -200 45 -200 45
1825512952.1587 -4.7614322 -44.044598 -200 45 -200 45 -200 45
1826513068.8448 -4.7625442 -44.081165 -200 45 -200 45 -200 45
1827513185.5309 -4.7615447 -44.147705 -200 45 -200 45 -200 45
1828513302.217 -4.7655144 -44.215057 -200 45 -200 45 -200 45
1829513418.9032 -4.7665424 -44.281723 -200 45 -200 45 -200 45
1830513535.5893 -4.7761126 -44.323254 -200 45 -200 45 -200 45
1831513652.2754 -4.7716722 -44.392433 -200 45 -200 45 -200 45
1832513768.9615 -4.7669568 -44.45031 -200 45 -200 45 -200 45
1833513885.6476 -4.7665114 -44.504555 -200 45 -200 45 -200 45
1834514002.3337 -4.7643814 -44.548542 -200 45 -200 45 -200 45
1835514119.0198 -4.7630987 -44.598724 -200 45 -200 45 -200 45
1836514235.706 -4.7614937 -44.647778 -200 45 -200 45 -200 45
1837514352.3921 -4.759654 -44.712589 -200 45 -200 45 -200 45
1838514469.0782 -4.7551022 -44.752357 -200 45 -200 45 -200 45
1839514585.7643 -4.7535491 -44.797276 -200 45 -200 45 -200 45
1840514702.4504 -4.7456632 -44.857327 -200 45 -200 45 -200 45
1841514819.1365 -4.7349653 -44.895935 -200 45 -200 45 -200 45
1842514935.8226 -4.7424359 -44.921356 -200 45 -200 45 -200 45
1843515052.5088 -4.7443767 -44.95948 -200 45 -200 45 -200 45
1844515169.1949 -4.7408438 -44.973965 -200 45 -200 45 -200 45
1845515285.881 -4.7378588 -45.005653 -200 45 -200 45 -200 45
1846515402.5671 -4.7370567 -45.009937 -200 45 -200 45 -200 45
1847515519.2532 -4.7346873 -45.049252 -200 45 -200 45 -200 45
1848515635.9393 -4.7309027 -45.064957 -200 45 -200 45 -200 45
1849515752.6254 -4.7283807 -45.067204 -200 45 -200 45 -200 45
1850515869.3116 -4.7254577 -45.089184 -200 45 -200 45 -200 45
1851515985.9977 -4.7260818 -45.086658 -200 45 -200 45 -200 45
1852516102.6838 -4.729856 -45.082249 -200 45 -200 45 -200 45
1853516219.3699 -4.724102 -45.080715 -200 45 -200 45 -200 45
1854516336.056 -4.7122369 -45.065845 -200 45 -200 45 -200 45
1855516452.7421 -4.7098122 -45.05125 -200 45 -200 45 -200 45
1856516569.4282 -4.7067199 -45.049469 -200 45 -200 45 -200 45
1857516686.1144 -4.7019706 -45.039726 -200 45 -200 45 -200 45
1858516802.8005 -4.6988378 -45.029846 -200 45 -200 45 -200 45
1859516919.4866 -4.695055 -45.016499 -200 45 -200 45 -200 45
1860517036.1727 -4.6967363 -44.992992 -200 45 -200 45 -200 45
1861517152.8588 -4.6936283 -44.990173 -200 45 -200 45 -200 45
1862517269.5449 -4.6999831 -44.943172 -200 45 -200 45 -200 45
1863517386.231 -4.6980028 -44.911621 -200 45 -200 45 -200 45
1864517502.9172 -4.6961541 -44.886383 -200 45 -200 45 -200 45
1865517619.6033 -4.692287 -44.853752 -200 45 -200 45 -200 45
1866517736.2894 -4.6929688 -44.842041 -200 45 -200 45 -200 45
1867517852.9755 -4.6969657 -44.806751 -200 45 -200 45 -200 45
1868517969.6616 -4.6956353 -44.775726 -200 45 -200 45 -200 45
1869518086.3477 -4.6960235 -44.745972 -200 45 -200 45 -200 45
1870518203.0338 -4.6932402 -44.716 -200 45 -200 45 -200 45
1871518319.72 -4.6974616 -44.672394 -200 45 -200 45 -200 45
1872518436.4061 -4.6977096 -44.634876 -200 45 -200 45 -200 45
1873518553.0922 -4.7013168 -44.599468 -200 45 -200 45 -200 45
1874518669.7783 -4.7025986 -44.59164 -200 45 -200 45 -200 45
1875518786.4644 -4.7029319 -44.542381 -200 45 -200 45 -200 45
1876518903.1505 -4.7096281 -44.498386 -200 45 -200 45 -200 45
1877519019.8366 -4.7181277 -44.46376 -200 45 -200 45 -200 45
1878519136.5228 -4.7205534 -44.444702 -200 45 -200 45 -200 45
1879519253.2089 -4.7279115 -44.402023 -200 45 -200 45 -200 45
1880519369.895 -4.7313118 -44.390514 -200 45 -200 45 -200 45
1881519486.5811 -4.7347636 -44.362732 -200 45 -200 45 -200 45
1882519603.2672 -4.7392182 -44.338886 -200 45 -200 45 -200 45
1883519719.9533 -4.7465653 -44.305328 -200 45 -200 45 -200 45
1884519836.6394 -4.7527294 -44.290855 -200 45 -200 45 -200 45
1885519953.3256 -4.7592769 -44.275372 -200 45 -200 45 -200 45
1886520070.0117 -4.7567043 -44.293369 -200 45 -200 45 -200 45
1887520186.6978 -4.7586145 -44.285049 -200 45 -200 45 -200 45
1888520303.3839 -4.7703013 -44.277908 -200 45 -200 45 -200 45
1889520420.07 -4.7770224 -44.269768 -200 45 -200 45 -200 45
1890520536.7561 -4.7828522 -44.248192 -200 45 -200 45 -200 45
1891520653.4422 -4.787971 -44.29076 -200 45 -200 45 -200 45
1892520770.1284 -4.7937212 -44.301132 -200 45 -200 45 -200 45
1893520886.8145 -4.801899 -44.296402 -200 45 -200 45 -200 45
1894521003.5006 -4.8086414 -44.309544 -200 45 -200 45 -200 45
1895521120.1867 -4.8147964 -44.328022 -200 45 -200 45 -200 45
1896521236.8728 -4.8230181 -44.341995 -200 45 -200 45 -200 45
1897521353.5589 -4.8312349 -44.361984 -200 45 -200 45 -200 45
1898521470.245 -4.8318405 -44.418762 -200 45 -200 45 -200 45
1899521586.9312 -4.8356094 -44.446148 -200 45 -200 45 -200 45
1900521703.6173 -4.8415289 -44.485451 -200 45 -200 45 -200 45
1901521820.3034 -4.8457565 -44.529236 -200 45 -200 45 -200 45
1902521936.9895 -4.8467908 -44.603378 -200 45 -200 45 -200 45
1903522053.6756 -4.8516135 -44.625416 -200 45 -200 45 -200 45
1904522170.3617 -4.8553386 -44.68816 -200 45 -200 45 -200 45
1905522287.0478 -4.8583941 -44.746342 -200 45 -200 45 -200 45
1906522403.734 -4.8618441 -44.791882 -200 45 -200 45 -200 45
1907522520.4201 -4.8664002 -44.844772 -200 45 -200 45 -200 45
1908522637.1062 -4.8638806 -44.929142 -200 45 -200 45 -200 45
1909522753.7923 -4.8704782 -44.966309 -200 45 -200 45 -200 45
1910522870.4784 -4.8772593 -45.008907 -200 45 -200 45 -200 45
1911522987.1645 -4.8772049 -45.073685 -200 45 -200 45 -200 45
1912523103.8506 -4.8777475 -45.144424 -200 45 -200 45 -200 45
1913523220.5368 -4.8792925 -45.212486 -200 45 -200 45 -200 45
1914523337.2229 -4.87953 -45.263817 -200 45 -200 45 -200 45
1915523453.909 -4.8816485 -45.315613 -200 45 -200 45 -200 45
1916523570.5951 -4.8817663 -45.395451 -200 45 -200 45 -200 45
1917523687.2812 -4.8815465 -45.445171 -200 45 -200 45 -200 45
1918523803.9673 -4.8724456 -45.518093 -200 45 -200 45 -200 45
1919523920.6534 -4.8548422 -45.613453 -200 45 -200 45 -200 45
1920524037.3396 -4.8652072 -45.64994 -200 45 -200 45 -200 45
1921524154.0257 -4.8739538 -45.659721 -200 45 -200 45 -200 45
1922524270.7118 -4.8745446 -45.719803 -200 45 -200 45 -200 45
1923524387.3979 -4.871531 -45.767124 -200 45 -200 45 -200 45
1924524504.084 -4.8672028 -45.824818 -200 45 -200 45 -200 45
1925524620.7701 -4.8678727 -45.868225 -200 45 -200 45 -200 45
1926524737.4562 -4.8650222 -45.911098 -200 45 -200 45 -200 45
1927524854.1424 -4.8634419 -45.931355 -200 45 -200 45 -200 45
1928524970.8285 -4.8606348 -45.968609 -200 45 -200 45 -200 45
1929525087.5146 -4.8577471 -46.026897 -200 45 -200 45 -200 45
1930525204.2007 -4.8541088 -46.02293 -200 45 -200 45 -200 45
1931525320.8868 -4.8527431 -46.042229 -200 45 -200 45 -200 45
1932525437.5729 -4.8484468 -46.098331 -200 45 -200 45 -200 45
1933525554.259 -4.8458209 -46.092075 -200 45 -200 45 -200 45
1934525670.9452 -4.8370714 -46.125957 -200 45 -200 45 -200 45
1935525787.6313 -4.837636 -46.122692 -200 45 -200 45 -200 45
1936525904.3174 -4.8301454 -46.142906 -200 45 -200 45 -200 45
1937526021.0035 -4.8281755 -46.14222 -200 45 -200 45 -200 45
1938526137.6896 -4.8257346 -46.144691 -200 45 -200 45 -200 45
1939526254.3757 -4.8267865 -46.122192 -200 45 -200 45 -200 45
1940526371.0618 -4.8253269 -46.119377 -200 45 -200 45 -200 45
1941526487.748 -4.8209791 -46.110588 -200 45 -200 45 -200 45
1942526604.4341 -4.819952 -46.088219 -200 45 -200 45 -200 45
1943526721.1202 -4.8249807 -46.069172 -200 45 -200 45 -200 45
1944526837.8063 -4.8242645 -46.068172 -200 45 -200 45 -200 45
1945526954.4924 -4.819428 -46.03867 -200 45 -200 45 -200 45
1946527071.1785 -4.8173623 -45.995869 -200 45 -200 45 -200 45
1947527187.8646 -4.8180552 -45.961243 -200 45 -200 45 -200 45
1948527304.5508 -4.8149858 -45.935658 -200 45 -200 45 -200 45
1949527421.2369 -4.8146462 -45.908585 -200 45 -200 45 -200 45
1950527537.923 -4.8139019 -45.879425 -200 45 -200 45 -200 45
1951527654.6091 -4.8146482 -45.867966 -200 45 -200 45 -200 45
1952527771.2952 -4.8068233 -45.829914 -200 45 -200 45 -200 45
1953527887.9813 -4.8132882 -45.786858 -200 45 -200 45 -200 45
1954528004.6674 -4.8228292 -45.73048 -200 45 -200 45 -200 45
1955528121.3536 -4.8275924 -45.701088 -200 45 -200 45 -200 45
1956528238.0397 -4.8291421 -45.634201 -200 45 -200 45 -200 45
1957528354.7258 -4.832921 -45.597378 -200 45 -200 45 -200 45
1958528471.4119 -4.8387966 -45.552876 -200 45 -200 45 -200 45
1959528588.098 -4.8424683 -45.508507 -200 45 -200 45 -200 45
1960528704.7841 -4.845789 -45.477211 -200 45 -200 45 -200 45
1961528821.4702 -4.8545079 -45.437191 -200 45 -200 45 -200 45
1962528938.1564 -4.8592458 -45.433243 -200 45 -200 45 -200 45
1963529054.8425 -4.8686123 -45.394836 -200 45 -200 45 -200 45
1964529171.5286 -4.8806367 -45.33226 -200 45 -200 45 -200 45
1965529288.2147 -4.8853507 -45.326603 -200 45 -200 45 -200 45
1966529404.9008 -4.8942313 -45.311535 -200 45 -200 45 -200 45
1967529521.5869 -4.9011126 -45.262115 -200 45 -200 45 -200 45
1968529638.273 -4.9117899 -45.250748 -200 45 -200 45 -200 45
1969529754.9592 -4.923563 -45.230526 -200 45 -200 45 -200 45
1970529871.6453 -4.9350991 -45.193073 -200 45 -200 45 -200 45
1971529988.3314 -4.950634 -45.179729 -200 45 -200 45 -200 45
1972530105.0175 -4.9660282 -45.145565 -200 45 -200 45 -200 45
1973530221.7036 -4.9828229 -45.097214 -200 45 -200 45 -200 45
1974530338.3897 -4.9947605 -45.062611 -200 45 -200 45 -200 45
1975530455.0758 -5.0196896 -45.02951 -200 45 -200 45 -200 45
1976530571.762 -5.0405297 -44.975918 -200 45 -200 45 -200 45
1977530688.4481 -5.0570226 -44.942135 -200 45 -200 45 -200 45
1978530805.1342 -5.0715885 -44.918545 -200 45 -200 45 -200 45
1979530921.8203 -5.0952268 -44.862873 -200 45 -200 45 -200 45
1980531038.5064 -5.1210761 -44.774689 -200 45 -200 45 -200 45
1981531155.1925 -5.1564755 -44.74205 -200 45 -200 45 -200 45
1982531271.8786 -5.2408843 -44.498329 -200 45 -200 45 -200 45
1983531388.5648 -5.2765412 -43.473915 -200 45 -200 45 -200 45
1984531505.2509 -5.164134 -42.751335 -200 45 -200 45 -200 45
1985531621.937 -5.0620012 -42.761253 -200 45 -200 45 -200 45
1986531738.6231 -5.0088286 -42.831631 -200 45 -200 45 -200 45
1987531855.3092 -4.9556661 -42.745663 -200 45 -200 45 -200 45
1988531971.9953 -4.8682017 -42.854481 -200 45 -200 45 -200 45
1989532088.6814 -4.8162422 -43.341324 -200 45 -200 45 -200 45
1990532205.3676 -4.8035665 -43.709835 -200 45 -200 45 -200 45
1991532322.0537 -4.792367 -44.028236 -200 45 -200 45 -200 45
1992532438.7398 -4.7858729 -44.268009 -200 45 -200 45 -200 45
1993532555.4259 -4.7780609 -44.552788 -200 45 -200 45 -200 45
1994532672.112 -4.780633 -44.864849 -200 45 -200 45 -200 45
1995532788.7981 -4.7932639 -45.10442 -200 45 -200 45 -200 45
1996532905.4842 -4.8085256 -45.298958 -200 45 -200 45 -200 45
1997533022.1704 -4.8282857 -45.458469 -200 45 -200 45 -200 45
1998533138.8565 -4.8376799 -45.598835 -200 45 -200 45 -200 45
1999533255.5426 -4.8383946 -45.712666 -200 45 -200 45 -200 45
2000533372.2287 -4.8437409 -45.834885 -200 45 -200 45 -200 45
2001533488.9148 -4.8502612 -45.945385 -200 45 -200 45 -200 45
2002533605.6009 -4.8532715 -46.044041 -200 45 -200 45 -200 45
2003533722.287 -4.8587198 -46.116371 -200 45 -200 45 -200 45
2004533838.9732 -4.8612452 -46.221375 -200 45 -200 45 -200 45
2005533955.6593 -4.8627353 -46.284519 -200 45 -200 45 -200 45
2006534072.3454 -4.8649802 -46.377026 -200 45 -200 45 -200 45
2007534189.0315 -4.8716021 -46.429691 -200 45 -200 45 -200 45
2008534305.7176 -4.8719182 -46.503845 -200 45 -200 45 -200 45
2009534422.4037 -4.8753629 -46.565914 -200 45 -200 45 -200 45
2010534539.0898 -4.8700433 -46.636646 -200 45 -200 45 -200 45
2011534655.776 -4.8650517 -46.68729 -200 45 -200 45 -200 45
2012534772.4621 -4.8668051 -46.74305 -200 45 -200 45 -200 45
2013534889.1482 -4.8659005 -46.778709 -200 45 -200 45 -200 45
2014535005.8343 -4.8646607 -46.839016 -200 45 -200 45 -200 45
2015535122.5204 -4.8613815 -46.875076 -200 45 -200 45 -200 45
2016535239.2065 -4.8556166 -46.906456 -200 45 -200 45 -200 45
2017535355.8926 -4.8539457 -46.943333 -200 45 -200 45 -200 45
2018535472.5788 -4.8512959 -46.970898 -200 45 -200 45 -200 45
2019535589.2649 -4.8474274 -46.991585 -200 45 -200 45 -200 45
2020535705.951 -4.8425856 -47.019703 -200 45 -200 45 -200 45
2021535822.6371 -4.8471403 -47.007286 -200 45 -200 45 -200 45
2022535939.3232 -4.8418193 -47.021206 -200 45 -200 45 -200 45
2023536056.0093 -4.8421469 -47.028381 -200 45 -200 45 -200 45
2024536172.6954 -4.8418069 -47.0494 -200 45 -200 45 -200 45
2025536289.3816 -4.8391328 -47.013355 -200 45 -200 45 -200 45
2026536406.0677 -4.8357677 -47.027103 -200 45 -200 45 -200 45
2027536522.7538 -4.8338723 -46.994293 -200 45 -200 45 -200 45
2028536639.4399 -4.8346529 -46.983006 -200 45 -200 45 -200 45
2029536756.126 -4.8334785 -46.968384 -200 45 -200 45 -200 45
2030536872.8121 -4.831902 -46.947632 -200 45 -200 45 -200 45
2031536989.4982 -4.8216262 -46.935703 -200 45 -200 45 -200 45
2032537106.1844 -4.8206763 -46.915733 -200 45 -200 45 -200 45
2033537222.8705 -4.8255229 -46.88126 -200 45 -200 45 -200 45
2034537339.5566 -4.8281159 -46.830032 -200 45 -200 45 -200 45
2035537456.2427 -4.8283296 -46.805931 -200 45 -200 45 -200 45
2036537572.9288 -4.8280706 -46.765583 -200 45 -200 45 -200 45
2037537689.6149 -4.8328881 -46.736301 -200 45 -200 45 -200 45
2038537806.3011 -4.834053 -46.692234 -200 45 -200 45 -200 45
2039537922.9872 -4.8361588 -46.655003 -200 45 -200 45 -200 45
2040538039.6733 -4.8409023 -46.615211 -200 45 -200 45 -200 45
2041538156.3594 -4.8433642 -46.568897 -200 45 -200 45 -200 45
2042538273.0455 -4.8511591 -46.531216 -200 45 -200 45 -200 45
2043538389.7316 -4.8526263 -46.491707 -200 45 -200 45 -200 45
2044538506.4177 -4.8555722 -46.463608 -200 45 -200 45 -200 45
2045538623.1039 -4.858758 -46.41925 -200 45 -200 45 -200 45
2046538739.79 -4.865972 -46.366585 -200 45 -200 45 -200 45
2047538856.4761 -4.8689804 -46.35265 -200 45 -200 45 -200 45
2048538973.1622 -4.8737597 -46.327362 -200 45 -200 45 -200 45
2049539089.8483 -4.8813753 -46.29414 -200 45 -200 45 -200 45
2050539206.5344 -4.8859658 -46.24646 -200 45 -200 45 -200 45
2051539323.2205 -4.8937454 -46.241325 -200 45 -200 45 -200 45
2052539439.9067 -4.8998451 -46.209278 -200 45 -200 45 -200 45
2053539556.5928 -4.9045963 -46.199566 -200 45 -200 45 -200 45
2054539673.2789 -4.9120836 -46.191971 -200 45 -200 45 -200 45
2055539789.965 -4.9258275 -46.177334 -200 45 -200 45 -200 45
2056539906.6511 -4.9329133 -46.152798 -200 45 -200 45 -200 45
2057540023.3372 -4.9412003 -46.165337 -200 45 -200 45 -200 45
2058540140.0233 -4.9511085 -46.161861 -200 45 -200 45 -200 45
2059540256.7095 -4.9585161 -46.159893 -200 45 -200 45 -200 45
2060540373.3956 -4.970325 -46.176113 -200 45 -200 45 -200 45
2061540490.0817 -4.9785681 -46.185539 -200 45 -200 45 -200 45
2062540606.7678 -4.9847946 -46.211269 -200 45 -200 45 -200 45
2063540723.4539 -4.9924016 -46.245941 -200 45 -200 45 -200 45
2064540840.14 -4.9885001 -46.303848 -200 45 -200 45 -200 45
2065540956.8261 -4.9745121 -46.390446 -200 45 -200 45 -200 45
2066541073.5123 -5.0195637 -46.355305 -200 45 -200 45 -200 45
2067541190.1984 -5.0293374 -46.377151 -200 45 -200 45 -200 45
2068541306.8845 -5.0404539 -46.442009 -200 45 -200 45 -200 45
2069541423.5706 -5.0497408 -46.482738 -200 45 -200 45 -200 45
2070541540.2567 -5.0559182 -46.525139 -200 45 -200 45 -200 45
2071541656.9428 -5.0668163 -46.57106 -200 45 -200 45 -200 45
2072541773.6289 -5.0797396 -46.644543 -200 45 -200 45 -200 45
2073541890.3151 -5.0874295 -46.716591 -200 45 -200 45 -200 45
2074542007.0012 -5.0958633 -46.786133 -200 45 -200 45 -200 45
2075542123.6873 -5.1025581 -46.846123 -200 45 -200 45 -200 45
2076542240.3734 -5.110496 -46.918713 -200 45 -200 45 -200 45
2077542357.0595 -5.1254044 -46.984852 -200 45 -200 45 -200 45
2078542473.7456 -5.1269264 -47.058376 -200 45 -200 45 -200 45
2079542590.4317 -5.1350698 -47.155632 -200 45 -200 45 -200 45
2080542707.1179 -5.1404696 -47.244904 -200 45 -200 45 -200 45
2081542823.804 -5.1481872 -47.351383 -200 45 -200 45 -200 45
2082542940.4901 -5.1567569 -47.427132 -200 45 -200 45 -200 45
2083543057.1762 -5.1641827 -47.528183 -200 45 -200 45 -200 45
2084543173.8623 -5.1732202 -47.612663 -200 45 -200 45 -200 45
2085543290.5484 -5.1836858 -47.714855 -200 45 -200 45 -200 45
2086543407.2345 -5.1956701 -47.778694 -200 45 -200 45 -200 45
2087543523.9207 -5.204597 -47.872749 -200 45 -200 45 -200 45
2088543640.6068 -5.2214589 -47.954414 -200 45 -200 45 -200 45
2089543757.2929 -5.2344866 -48.046276 -200 45 -200 45 -200 45
2090543873.979 -5.2363005 -48.177135 -200 45 -200 45 -200 45
2091543990.6651 -5.2438025 -48.262638 -200 45 -200 45 -200 45
2092544107.3512 -5.2625308 -48.366474 -200 45 -200 45 -200 45
2093544224.0373 -5.285223 -48.441757 -200 45 -200 45 -200 45
2094544340.7235 -5.3093624 -48.481815 -200 45 -200 45 -200 45
2095544457.4096 -5.3224168 -48.50388 -200 45 -200 45 -200 45
2096544574.0957 -5.333766 -48.58522 -200 45 -200 45 -200 45
2097544690.7818 -5.3446851 -48.695057 -200 45 -200 45 -200 45
2098544807.4679 -5.3678002 -48.865078 -200 45 -200 45 -200 45
2099544924.154 -5.3985004 -49.026581 -200 45 -200 45 -200 45
2100545040.8401 -5.4516277 -49.171494 -200 45 -200 45 -200 45
2101545157.5263 -5.5631952 -49.058994 -200 45 -200 45 -200 45
2102545274.2124 -5.6476898 -48.935432 -200 45 -200 45 -200 45
2103545390.8985 -5.7235103 -48.804729 -200 45 -200 45 -200 45
2104545507.5846 -5.8402061 -48.820713 -200 45 -200 45 -200 45
2105545624.2707 -6.0446343 -48.661415 -200 45 -200 45 -200 45
2106545740.9568 -6.3690963 -47.569271 -200 45 -200 45 -200 45
2107545857.6429 -6.6484556 -44.121559 -200 45 -200 45 -200 45
2108545974.3291 -6.4025221 -39.701759 -200 45 -200 45 -200 45
2109546091.0152 -5.8882756 -38.063892 -200 45 -200 45 -200 45
2110546207.7013 -5.5145111 -38.305691 -200 45 -200 45 -200 45
2111546324.3874 -5.3058968 -38.796021 -200 45 -200 45 -200 45
2112546441.0735 -5.1510339 -39.034035 -200 45 -200 45 -200 45
2113546557.7596 -5.0020328 -39.161598 -200 45 -200 45 -200 45
2114546674.4457 -4.8619781 -39.549549 -200 45 -200 45 -200 45
2115546791.1319 -4.7799735 -40.174419 -200 45 -200 45 -200 45
2116546907.818 -4.774807 -40.316547 -200 45 -200 45 -200 45
2117547024.5041 -4.7295904 -39.830418 -200 45 -200 45 -200 45
2118547141.1902 -4.5627384 -39.259972 -200 45 -200 45 -200 45
2119547257.8763 -4.2978439 -39.496716 -200 45 -200 45 -200 45
2120547374.5624 -4.1108408 -40.679581 -200 45 -200 45 -200 45
2121547491.2485 -4.0257316 -42.026493 -200 45 -200 45 -200 45
2122547607.9347 -4.0191121 -43.344215 -200 45 -200 45 -200 45
2123547724.6208 -4.0727215 -44.343735 -200 45 -200 45 -200 45
2124547841.3069 -4.1366816 -44.974953 -200 45 -200 45 -200 45
2125547957.993 -4.1963201 -45.387344 -200 45 -200 45 -200 45
2126548074.6791 -4.2534833 -45.632576 -200 45 -200 45 -200 45
2127548191.3652 -4.3013854 -45.806957 -200 45 -200 45 -200 45
2128548308.0513 -4.3383517 -45.942211 -200 45 -200 45 -200 45
2129548424.7375 -4.3716249 -46.029305 -200 45 -200 45 -200 45
2130548541.4236 -4.4046626 -46.098595 -200 45 -200 45 -200 45
2131548658.1097 -4.4304204 -46.146 -200 45 -200 45 -200 45
2132548774.7958 -4.4500322 -46.198357 -200 45 -200 45 -200 45
2133548891.4819 -4.4749889 -46.226162 -200 45 -200 45 -200 45
2134549008.168 -4.501832 -46.218361 -200 45 -200 45 -200 45
2135549124.8541 -4.5233445 -46.216591 -200 45 -200 45 -200 45
2136549241.5403 -4.5425148 -46.223602 -200 45 -200 45 -200 45
2137549358.2264 -4.5658021 -46.225586 -200 45 -200 45 -200 45
2138549474.9125 -4.5834503 -46.232666 -200 45 -200 45 -200 45
2139549591.5986 -4.5988455 -46.251381 -200 45 -200 45 -200 45
2140549708.2847 -4.6120634 -46.254105 -200 45 -200 45 -200 45
2141549824.9708 -4.6255403 -46.265209 -200 45 -200 45 -200 45
2142549941.6569 -4.639854 -46.290752 -200 45 -200 45 -200 45
2143550058.3431 -4.6591597 -46.301868 -200 45 -200 45 -200 45
2144550175.0292 -4.662147 -46.333302 -200 45 -200 45 -200 45
2145550291.7153 -4.6664333 -46.394535 -200 45 -200 45 -200 45
2146550408.4014 -4.6866665 -46.365719 -200 45 -200 45 -200 45
2147550525.0875 -4.6980062 -46.430054 -200 45 -200 45 -200 45
2148550641.7736 -4.7132149 -46.462154 -200 45 -200 45 -200 45
2149550758.4597 -4.7259083 -46.519032 -200 45 -200 45 -200 45
2150550875.1459 -4.7360229 -46.55827 -200 45 -200 45 -200 45
2151550991.832 -4.7478528 -46.592724 -200 45 -200 45 -200 45
2152551108.5181 -4.7592697 -46.661583 -200 45 -200 45 -200 45
2153551225.2042 -4.7736979 -46.698624 -200 45 -200 45 -200 45
2154551341.8903 -4.7892246 -46.771626 -200 45 -200 45 -200 45
2155551458.5764 -4.7996907 -46.832798 -200 45 -200 45 -200 45
2156551575.2625 -4.8082314 -46.899773 -200 45 -200 45 -200 45
2157551691.9487 -4.8174696 -46.965317 -200 45 -200 45 -200 45
2158551808.6348 -4.8277564 -47.053261 -200 45 -200 45 -200 45
2159551925.3209 -4.8249774 -47.131062 -200 45 -200 45 -200 45
2160552042.007 -4.8284035 -47.217209 -200 45 -200 45 -200 45
2161552158.6931 -4.8303366 -47.303261 -200 45 -200 45 -200 45
2162552275.3792 -4.8394861 -47.386478 -200 45 -200 45 -200 45
2163552392.0653 -4.8458538 -47.481564 -200 45 -200 45 -200 45
2164552508.7515 -4.8513598 -47.555977 -200 45 -200 45 -200 45
2165552625.4376 -4.8479433 -47.658245 -200 45 -200 45 -200 45
2166552742.1237 -4.8501792 -47.752613 -200 45 -200 45 -200 45
2167552858.8098 -4.8562503 -47.822376 -200 45 -200 45 -200 45
2168552975.4959 -4.862195 -47.905312 -200 45 -200 45 -200 45
2169553092.182 -4.8659134 -48.000385 -200 45 -200 45 -200 45
2170553208.8681 -4.8684802 -48.071018 -200 45 -200 45 -200 45
2171553325.5543 -4.8702741 -48.166962 -200 45 -200 45 -200 45
2172553442.2404 -4.8665795 -48.246307 -200 45 -200 45 -200 45
2173553558.9265 -4.8668013 -48.332272 -200 45 -200 45 -200 45
2174553675.6126 -4.8666582 -48.412411 -200 45 -200 45 -200 45
2175553792.2987 -4.8668628 -48.471626 -200 45 -200 45 -200 45
2176553908.9848 -4.8614259 -48.561474 -200 45 -200 45 -200 45
2177554025.6709 -4.8368955 -48.701561 -200 45 -200 45 -200 45
2178554142.3571 -4.8088908 -48.835178 -200 45 -200 45 -200 45
2179554259.0432 -4.8294435 -48.819466 -200 45 -200 45 -200 45
2180554375.7293 -4.8421788 -48.847115 -200 45 -200 45 -200 45
2181554492.4154 -4.840868 -48.887444 -200 45 -200 45 -200 45
2182554609.1015 -4.8421125 -48.950439 -200 45 -200 45 -200 45
2183554725.7876 -4.8415709 -48.978073 -200 45 -200 45 -200 45
2184554842.4737 -4.837194 -49.008755 -200 45 -200 45 -200 45
2185554959.1599 -4.834847 -49.058064 -200 45 -200 45 -200 45
2186555075.846 -4.8336496 -49.082558 -200 45 -200 45 -200 45
2187555192.5321 -4.8281083 -49.089844 -200 45 -200 45 -200 45
2188555309.2182 -4.8227954 -49.113857 -200 45 -200 45 -200 45
2189555425.9043 -4.8213663 -49.132164 -200 45 -200 45 -200 45
2190555542.5904 -4.8197165 -49.120998 -200 45 -200 45 -200 45
2191555659.2765 -4.8128247 -49.154617 -200 45 -200 45 -200 45
2192555775.9627 -4.8044567 -49.144051 -200 45 -200 45 -200 45
2193555892.6488 -4.7900229 -49.161694 -200 45 -200 45 -200 45
2194556009.3349 -4.7845306 -49.158131 -200 45 -200 45 -200 45
2195556126.021 -4.7864285 -49.128117 -200 45 -200 45 -200 45
2196556242.7071 -4.7836571 -49.11359 -200 45 -200 45 -200 45
2197556359.3932 -4.780437 -49.078384 -200 45 -200 45 -200 45
2198556476.0793 -4.7811003 -49.039116 -200 45 -200 45 -200 45
2199556592.7655 -4.7797909 -49.001431 -200 45 -200 45 -200 45
2200556709.4516 -4.7775226 -48.974876 -200 45 -200 45 -200 45
2201556826.1377 -4.7834105 -48.942207 -200 45 -200 45 -200 45
2202556942.8238 -4.7761631 -48.90633 -200 45 -200 45 -200 45
2203557059.5099 -4.7776756 -48.849331 -200 45 -200 45 -200 45
2204557176.196 -4.7755928 -48.810535 -200 45 -200 45 -200 45
2205557292.8821 -4.7736869 -48.771072 -200 45 -200 45 -200 45
2206557409.5683 -4.7739854 -48.733727 -200 45 -200 45 -200 45
2207557526.2544 -4.777514 -48.675484 -200 45 -200 45 -200 45
2208557642.9405 -4.773675 -48.62764 -200 45 -200 45 -200 45
2209557759.6266 -4.7743964 -48.572453 -200 45 -200 45 -200 45
2210557876.3127 -4.7709303 -48.541424 -200 45 -200 45 -200 45
2211557992.9988 -4.7765288 -48.48027 -200 45 -200 45 -200 45
2212558109.6849 -4.7801447 -48.421818 -200 45 -200 45 -200 45
2213558226.3711 -4.7841091 -48.369228 -200 45 -200 45 -200 45
2214558343.0572 -4.7893867 -48.322636 -200 45 -200 45 -200 45
2215558459.7433 -4.792974 -48.271786 -200 45 -200 45 -200 45
2216558576.4294 -4.8023629 -48.212528 -200 45 -200 45 -200 45
2217558693.1155 -4.8109388 -48.156021 -200 45 -200 45 -200 45
2218558809.8016 -4.8162775 -48.135403 -200 45 -200 45 -200 45
2219558926.4877 -4.8200922 -48.103016 -200 45 -200 45 -200 45
2220559043.1739 -4.8235669 -48.059174 -200 45 -200 45 -200 45
2221559159.86 -4.8309083 -48.034069 -200 45 -200 45 -200 45
2222559276.5461 -4.8394103 -48.00539 -200 45 -200 45 -200 45
2223559393.2322 -4.8468924 -47.979191 -200 45 -200 45 -200 45
2224559509.9183 -4.8498683 -47.961548 -200 45 -200 45 -200 45
2225559626.6044 -4.8577437 -47.956852 -200 45 -200 45 -200 45
2226559743.2905 -4.8601661 -47.951771 -200 45 -200 45 -200 45
2227559859.9767 -4.8640289 -47.955536 -200 45 -200 45 -200 45
2228559976.6628 -4.8712673 -47.958683 -200 45 -200 45 -200 45
2229560093.3489 -4.8815308 -47.941181 -200 45 -200 45 -200 45
2230560210.035 -4.8937511 -47.945343 -200 45 -200 45 -200 45
2231560326.7211 -4.9020562 -47.962788 -200 45 -200 45 -200 45
2232560443.4072 -4.9087486 -47.995701 -200 45 -200 45 -200 45
2233560560.0933 -4.9249935 -48.014606 -200 45 -200 45 -200 45
2234560676.7795 -4.9388452 -48.039024 -200 45 -200 45 -200 45
2235560793.4656 -4.9476333 -48.068878 -200 45 -200 45 -200 45
2236560910.1517 -4.9568138 -48.112278 -200 45 -200 45 -200 45
2237561026.8378 -4.952168 -48.177612 -200 45 -200 45 -200 45
2238561143.5239 -4.9593496 -48.235386 -200 45 -200 45 -200 45
2239561260.21 -4.9641919 -48.2906 -200 45 -200 45 -200 45
2240561376.8961 -4.9630198 -48.343552 -200 45 -200 45 -200 45
2241561493.5823 -4.9698482 -48.414276 -200 45 -200 45 -200 45
2242561610.2684 -4.9759278 -48.493591 -200 45 -200 45 -200 45
2243561726.9545 -4.9780474 -48.564335 -200 45 -200 45 -200 45
2244561843.6406 -4.9808006 -48.63908 -200 45 -200 45 -200 45
2245561960.3267 -4.9848571 -48.714798 -200 45 -200 45 -200 45
2246562077.0128 -4.9900284 -48.786114 -200 45 -200 45 -200 45
2247562193.6989 -4.9967051 -48.875183 -200 45 -200 45 -200 45
2248562310.3851 -5.000761 -48.960815 -200 45 -200 45 -200 45
2249562427.0712 -5.008121 -49.017227 -200 45 -200 45 -200 45
2250562543.7573 -5.0091257 -49.123024 -200 45 -200 45 -200 45
2251562660.4434 -5.0055456 -49.174461 -200 45 -200 45 -200 45
2252562777.1295 -5.006783 -49.299301 -200 45 -200 45 -200 45
2253562893.8156 -5.0052252 -49.391781 -200 45 -200 45 -200 45
2254563010.5018 -5.0107241 -49.471684 -200 45 -200 45 -200 45
2255563127.1879 -5.0120125 -49.555035 -200 45 -200 45 -200 45
2256563243.874 -5.0091743 -49.649487 -200 45 -200 45 -200 45
2257563360.5601 -5.0003924 -49.730824 -200 45 -200 45 -200 45
2258563477.2462 -4.9937477 -49.811108 -200 45 -200 45 -200 45
2259563593.9323 -4.9923663 -49.894516 -200 45 -200 45 -200 45
2260563710.6184 -4.9896374 -49.97081 -200 45 -200 45 -200 45
2261563827.3046 -4.9845471 -50.042927 -200 45 -200 45 -200 45
2262563943.9907 -4.9810715 -50.087688 -200 45 -200 45 -200 45
2263564060.6768 -4.9781947 -50.168198 -200 45 -200 45 -200 45
2264564177.3629 -4.9720855 -50.215252 -200 45 -200 45 -200 45
2265564294.049 -4.9719191 -50.279251 -200 45 -200 45 -200 45
2266564410.7351 -4.9729056 -50.300869 -200 45 -200 45 -200 45
2267564527.4212 -4.9727755 -50.361546 -200 45 -200 45 -200 45
2268564644.1074 -4.9642115 -50.400547 -200 45 -200 45 -200 45
2269564760.7935 -4.9468489 -50.45541 -200 45 -200 45 -200 45
2270564877.4796 -4.9410577 -50.472218 -200 45 -200 45 -200 45
2271564994.1657 -4.9382 -50.512875 -200 45 -200 45 -200 45
2272565110.8518 -4.9315166 -50.51437 -200 45 -200 45 -200 45
2273565227.5379 -4.9213853 -50.549259 -200 45 -200 45 -200 45
2274565344.224 -4.9121275 -50.545788 -200 45 -200 45 -200 45
2275565460.9102 -4.9070868 -50.545528 -200 45 -200 45 -200 45
2276565577.5963 -4.9013243 -50.552597 -200 45 -200 45 -200 45
2277565694.2824 -4.8901367 -50.555763 -200 45 -200 45 -200 45
2278565810.9685 -4.8879619 -50.530731 -200 45 -200 45 -200 45
2279565927.6546 -4.8881578 -50.499683 -200 45 -200 45 -200 45
2280566044.3407 -4.8823438 -50.475391 -200 45 -200 45 -200 45
2281566161.0268 -4.8769922 -50.429417 -200 45 -200 45 -200 45
2282566277.713 -4.8773856 -50.409153 -200 45 -200 45 -200 45
2283566394.3991 -4.8754787 -50.372829 -200 45 -200 45 -200 45
2284566511.0852 -4.8747363 -50.342957 -200 45 -200 45 -200 45
2285566627.7713 -4.8673124 -50.292915 -200 45 -200 45 -200 45
2286566744.4574 -4.8641806 -50.256481 -200 45 -200 45 -200 45
2287566861.1435 -4.8591232 -50.211342 -200 45 -200 45 -200 45
2288566977.8296 -4.8601708 -50.138798 -200 45 -200 45 -200 45
2289567094.5158 -4.8535075 -50.105984 -200 45 -200 45 -200 45
2290567211.2019 -4.8565173 -50.031532 -200 45 -200 45 -200 45
2291567327.888 -4.8538208 -49.968891 -200 45 -200 45 -200 45
2292567444.5741 -4.8557968 -49.924492 -200 45 -200 45 -200 45
2293567561.2602 -4.8548732 -49.862232 -200 45 -200 45 -200 45
2294567677.9463 -4.8539696 -49.832981 -200 45 -200 45 -200 45
2295567794.6324 -4.8587089 -49.757324 -200 45 -200 45 -200 45
2296567911.3186 -4.8618436 -49.689178 -200 45 -200 45 -200 45
2297568028.0047 -4.8696165 -49.63028 -200 45 -200 45 -200 45
2298568144.6908 -4.8724813 -49.584457 -200 45 -200 45 -200 45
2299568261.3769 -4.8785262 -49.53194 -200 45 -200 45 -200 45
2300568378.063 -4.8801584 -49.479057 -200 45 -200 45 -200 45
2301568494.7491 -4.8835349 -49.430023 -200 45 -200 45 -200 45
2302568611.4352 -4.8906183 -49.379757 -200 45 -200 45 -200 45
2303568728.1214 -4.8954964 -49.330116 -200 45 -200 45 -200 45
2304568844.8075 -4.903729 -49.281731 -200 45 -200 45 -200 45
2305568961.4936 -4.905828 -49.261192 -200 45 -200 45 -200 45
2306569078.1797 -4.9134493 -49.247066 -200 45 -200 45 -200 45
2307569194.8658 -4.9161754 -49.200207 -200 45 -200 45 -200 45
2308569311.5519 -4.9254317 -49.176292 -200 45 -200 45 -200 45
2309569428.238 -4.9352627 -49.160542 -200 45 -200 45 -200 45
2310569544.9242 -4.945004 -49.137249 -200 45 -200 45 -200 45
2311569661.6103 -4.9543934 -49.137333 -200 45 -200 45 -200 45
2312569778.2964 -4.9636784 -49.132988 -200 45 -200 45 -200 45
2313569894.9825 -4.9719434 -49.132511 -200 45 -200 45 -200 45
2314570011.6686 -4.9803271 -49.143784 -200 45 -200 45 -200 45
2315570128.3547 -4.9921522 -49.153027 -200 45 -200 45 -200 45
2316570245.0408 -5.0014815 -49.172512 -200 45 -200 45 -200 45
2317570361.727 -5.0092921 -49.197544 -200 45 -200 45 -200 45
2318570478.4131 -5.0203934 -49.243542 -200 45 -200 45 -200 45
2319570595.0992 -5.0304461 -49.292793 -200 45 -200 45 -200 45
2320570711.7853 -5.0366325 -49.311005 -200 45 -200 45 -200 45
2321570828.4714 -5.0488977 -49.36256 -200 45 -200 45 -200 45
2322570945.1575 -5.0576415 -49.409885 -200 45 -200 45 -200 45
2323571061.8436 -5.0677299 -49.405479 -200 45 -200 45 -200 45
2324571178.5298 -5.071939 -49.432117 -200 45 -200 45 -200 45
2325571295.2159 -5.0772181 -49.456116 -200 45 -200 45 -200 45
2326571411.902 -5.0737038 -49.506783 -200 45 -200 45 -200 45
2327571528.5881 -5.0733676 -49.58131 -200 45 -200 45 -200 45
2328571645.2742 -5.0729413 -49.657719 -200 45 -200 45 -200 45
2329571761.9603 -5.0774918 -49.753689 -200 45 -200 45 -200 45
2330571878.6464 -5.0825019 -49.838799 -200 45 -200 45 -200 45
2331571995.3326 -5.0829878 -49.951347 -200 45 -200 45 -200 45
2332572112.0187 -5.0821033 -50.072144 -200 45 -200 45 -200 45
2333572228.7048 -5.0847926 -50.155792 -200 45 -200 45 -200 45
2334572345.3909 -5.0862079 -50.264568 -200 45 -200 45 -200 45
2335572462.077 -5.0853305 -50.357944 -200 45 -200 45 -200 45
2336572578.7631 -5.0853233 -50.454102 -200 45 -200 45 -200 45
2337572695.4492 -5.0804143 -50.556629 -200 45 -200 45 -200 45
2338572812.1354 -5.0761275 -50.674706 -200 45 -200 45 -200 45
2339572928.8215 -5.0758276 -50.76321 -200 45 -200 45 -200 45
2340573045.5076 -5.0723081 -50.852451 -200 45 -200 45 -200 45
2341573162.1937 -5.067811 -50.9571 -200 45 -200 45 -200 45
2342573278.8798 -5.0697837 -51.020271 -200 45 -200 45 -200 45
2343573395.5659 -5.0653148 -51.142796 -200 45 -200 45 -200 45
2344573512.252 -5.0639343 -51.211521 -200 45 -200 45 -200 45
2345573628.9382 -5.0579996 -51.300465 -200 45 -200 45 -200 45
2346573745.6243 -5.0550175 -51.379147 -200 45 -200 45 -200 45
2347573862.3104 -5.0515413 -51.462563 -200 45 -200 45 -200 45
2348573978.9965 -5.0462914 -51.51067 -200 45 -200 45 -200 45
2349574095.6826 -5.0409675 -51.577267 -200 45 -200 45 -200 45
2350574212.3687 -5.0368304 -51.642353 -200 45 -200 45 -200 45
2351574329.0548 -5.0308042 -51.700432 -200 45 -200 45 -200 45
2352574445.741 -5.0238914 -51.742744 -200 45 -200 45 -200 45
2353574562.4271 -5.0178962 -51.772972 -200 45 -200 45 -200 45
2354574679.1132 -5.005507 -51.821407 -200 45 -200 45 -200 45
2355574795.7993 -5.000535 -51.839447 -200 45 -200 45 -200 45
2356574912.4854 -4.9935026 -51.844933 -200 45 -200 45 -200 45
2357575029.1715 -4.9910731 -51.886772 -200 45 -200 45 -200 45
2358575145.8576 -4.9842815 -51.875542 -200 45 -200 45 -200 45
2359575262.5438 -4.9774809 -51.893509 -200 45 -200 45 -200 45
2360575379.2299 -4.9710121 -51.880627 -200 45 -200 45 -200 45
2361575495.916 -4.9658155 -51.864029 -200 45 -200 45 -200 45
2362575612.6021 -4.9634657 -51.833981 -200 45 -200 45 -200 45
2363575729.2882 -4.9561548 -51.829346 -200 45 -200 45 -200 45
2364575845.9743 -4.948998 -51.802402 -200 45 -200 45 -200 45
2365575962.6604 -4.9445925 -51.769962 -200 45 -200 45 -200 45
2366576079.3466 -4.9402599 -51.72496 -200 45 -200 45 -200 45
2367576196.0327 -4.9388065 -51.695267 -200 45 -200 45 -200 45
2368576312.7188 -4.9344335 -51.631866 -200 45 -200 45 -200 45
2369576429.4049 -4.9279971 -51.591499 -200 45 -200 45 -200 45
2370576546.091 -4.922389 -51.547466 -200 45 -200 45 -200 45
2371576662.7771 -4.9194622 -51.477036 -200 45 -200 45 -200 45
2372576779.4632 -4.9127674 -51.448349 -200 45 -200 45 -200 45
2373576896.1494 -4.9098911 -51.392826 -200 45 -200 45 -200 45
2374577012.8355 -4.9117622 -51.32687 -200 45 -200 45 -200 45
2375577129.5216 -4.910953 -51.267673 -200 45 -200 45 -200 45
2376577246.2077 -4.9157209 -51.192543 -200 45 -200 45 -200 45
2377577362.8938 -4.9160113 -51.143177 -200 45 -200 45 -200 45
2378577479.5799 -4.9217739 -51.037094 -200 45 -200 45 -200 45
2379577596.266 -4.9213591 -50.987827 -200 45 -200 45 -200 45
2380577712.9522 -4.9231739 -50.925663 -200 45 -200 45 -200 45
2381577829.6383 -4.925221 -50.86528 -200 45 -200 45 -200 45
2382577946.3244 -4.930234 -50.814331 -200 45 -200 45 -200 45
2383578063.0105 -4.9387302 -50.742893 -200 45 -200 45 -200 45
2384578179.6966 -4.9466 -50.694202 -200 45 -200 45 -200 45
2385578296.3827 -4.9439082 -50.629166 -200 45 -200 45 -200 45
2386578413.0688 -4.9441509 -50.578884 -200 45 -200 45 -200 45
2387578529.755 -4.9539108 -50.538738 -200 45 -200 45 -200 45
2388578646.4411 -4.9520006 -50.508228 -200 45 -200 45 -200 45
2389578763.1272 -4.9584818 -50.478451 -200 45 -200 45 -200 45
2390578879.8133 -4.9689312 -50.423115 -200 45 -200 45 -200 45
2391578996.4994 -4.9796724 -50.39838 -200 45 -200 45 -200 45
2392579113.1855 -4.9821944 -50.383495 -200 45 -200 45 -200 45
2393579229.8716 -5.0007882 -50.348148 -200 45 -200 45 -200 45
2394579346.5578 -5.0094438 -50.33073 -200 45 -200 45 -200 45
2395579463.2439 -5.0270019 -50.317173 -200 45 -200 45 -200 45
2396579579.93 -5.0287156 -50.322807 -200 45 -200 45 -200 45
2397579696.6161 -5.0342903 -50.326672 -200 45 -200 45 -200 45
2398579813.3022 -5.0413818 -50.34127 -200 45 -200 45 -200 45
2399579929.9883 -5.0532084 -50.360062 -200 45 -200 45 -200 45
2400580046.6744 -5.0663486 -50.374329 -200 45 -200 45 -200 45
2401580163.3606 -5.0704126 -50.401798 -200 45 -200 45 -200 45
2402580280.0467 -5.075089 -50.442009 -200 45 -200 45 -200 45
2403580396.7328 -5.0833702 -50.494305 -200 45 -200 45 -200 45
2404580513.4189 -5.092555 -50.537235 -200 45 -200 45 -200 45
2405580630.105 -5.0977931 -50.601765 -200 45 -200 45 -200 45
2406580746.7911 -5.1070156 -50.655167 -200 45 -200 45 -200 45
2407580863.4772 -5.1175485 -50.714844 -200 45 -200 45 -200 45
2408580980.1634 -5.1277533 -50.762894 -200 45 -200 45 -200 45
2409581096.8495 -5.1304688 -50.843857 -200 45 -200 45 -200 45
2410581213.5356 -5.1447587 -50.927612 -200 45 -200 45 -200 45
2411581330.2217 -5.1551948 -50.993408 -200 45 -200 45 -200 45
2412581446.9078 -5.1561813 -51.072029 -200 45 -200 45 -200 45
2413581563.5939 -5.160409 -51.17337 -200 45 -200 45 -200 45
2414581680.28 -5.161694 -51.263683 -200 45 -200 45 -200 45
2415581796.9662 -5.1668668 -51.376041 -200 45 -200 45 -200 45
2416581913.6523 -5.173408 -51.447533 -200 45 -200 45 -200 45
2417582030.3384 -5.1781931 -51.567242 -200 45 -200 45 -200 45
2418582147.0245 -5.1762567 -51.670635 -200 45 -200 45 -200 45
2419582263.7106 -5.1691313 -51.787975 -200 45 -200 45 -200 45
2420582380.3967 -5.1735096 -51.894352 -200 45 -200 45 -200 45
2421582497.0828 -5.1724544 -51.982891 -200 45 -200 45 -200 45
2422582613.769 -5.1658502 -52.114136 -200 45 -200 45 -200 45
2423582730.4551 -5.172224 -52.203106 -200 45 -200 45 -200 45
2424582847.1412 -5.1738477 -52.296474 -200 45 -200 45 -200 45
2425582963.8273 -5.1753979 -52.380192 -200 45 -200 45 -200 45
2426583080.5134 -5.1726685 -52.483608 -200 45 -200 45 -200 45
2427583197.1995 -5.1732574 -52.546635 -200 45 -200 45 -200 45
2428583313.8856 -5.170805 -52.635902 -200 45 -200 45 -200 45
2429583430.5718 -5.1657047 -52.719521 -200 45 -200 45 -200 45
2430583547.2579 -5.1583195 -52.788246 -200 45 -200 45 -200 45
2431583663.944 -5.1540089 -52.872238 -200 45 -200 45 -200 45
2432583780.6301 -5.1461911 -52.929703 -200 45 -200 45 -200 45
2433583897.3162 -5.1450191 -52.976215 -200 45 -200 45 -200 45
2434584014.0023 -5.1312785 -53.053238 -200 45 -200 45 -200 45
2435584130.6884 -5.1236358 -53.127079 -200 45 -200 45 -200 45
2436584247.3746 -5.1190314 -53.175053 -200 45 -200 45 -200 45
2437584364.0607 -5.1053662 -53.241508 -200 45 -200 45 -200 45
2438584480.7468 -5.1047001 -53.260544 -200 45 -200 45 -200 45
2439584597.4329 -5.0949397 -53.304501 -200 45 -200 45 -200 45
2440584714.119 -5.0881329 -53.288067 -200 45 -200 45 -200 45
2441584830.8051 -5.0899653 -53.316021 -200 45 -200 45 -200 45
2442584947.4912 -5.083797 -53.310722 -200 45 -200 45 -200 45
2443585064.1774 -5.0799375 -53.303406 -200 45 -200 45 -200 45
2444585180.8635 -5.0831037 -53.307957 -200 45 -200 45 -200 45
2445585297.5496 -5.0764418 -53.282177 -200 45 -200 45 -200 45
2446585414.2357 -5.0679402 -53.296101 -200 45 -200 45 -200 45
2447585530.9218 -5.0624671 -53.258919 -200 45 -200 45 -200 45
2448585647.6079 -5.0633588 -53.224358 -200 45 -200 45 -200 45
2449585764.294 -5.0508614 -53.182716 -200 45 -200 45 -200 45
2450585880.9802 -5.046175 -53.176041 -200 45 -200 45 -200 45
2451585997.6663 -5.0413036 -53.142544 -200 45 -200 45 -200 45
2452586114.3524 -5.045114 -53.081856 -200 45 -200 45 -200 45
2453586231.0385 -5.0407481 -53.01141 -200 45 -200 45 -200 45
2454586347.7246 -5.045373 -52.965202 -200 45 -200 45 -200 45
2455586464.4107 -5.0404215 -52.908878 -200 45 -200 45 -200 45
2456586581.0968 -5.0370302 -52.850807 -200 45 -200 45 -200 45
2457586697.783 -5.0431743 -52.787716 -200 45 -200 45 -200 45
2458586814.4691 -5.0521226 -52.702335 -200 45 -200 45 -200 45
2459586931.1552 -5.0624614 -52.639267 -200 45 -200 45 -200 45
2460587047.8413 -5.0656228 -52.562584 -200 45 -200 45 -200 45
2461587164.5274 -5.0723572 -52.48814 -200 45 -200 45 -200 45
2462587281.2135 -5.0781493 -52.44392 -200 45 -200 45 -200 45
2463587397.8997 -5.0864825 -52.37088 -200 45 -200 45 -200 45
2464587514.5858 -5.0997925 -52.268333 -200 45 -200 45 -200 45
2465587631.2719 -5.1100359 -52.217342 -200 45 -200 45 -200 45
2466587747.958 -5.122458 -52.167706 -200 45 -200 45 -200 45
2467587864.6441 -5.1278524 -52.132126 -200 45 -200 45 -200 45
2468587981.3302 -5.1372542 -52.104103 -200 45 -200 45 -200 45
2469588098.0163 -5.1735263 -51.979576 -200 45 -200 45 -200 45
2470588214.7025 -5.2080693 -51.899097 -200 45 -200 45 -200 45
2471588331.3886 -5.2395306 -51.803333 -200 45 -200 45 -200 45
2472588448.0747 -5.2755246 -51.690296 -200 45 -200 45 -200 45
2473588564.7608 -5.3177881 -51.554245 -200 45 -200 45 -200 45
2474588681.4469 -5.3701849 -51.31728 -200 45 -200 45 -200 45
2475588798.133 -5.4274688 -50.96883 -200 45 -200 45 -200 45
2476588914.8191 -5.476717 -50.505444 -200 45 -200 45 -200 45
2477589031.5053 -5.5075617 -49.858852 -200 45 -200 45 -200 45
2478589148.1914 -5.502378 -49.092529 -200 45 -200 45 -200 45
2479589264.8775 -5.4393201 -48.376686 -200 45 -200 45 -200 45
2480589381.5636 -5.3470826 -47.925938 -200 45 -200 45 -200 45
2481589498.2497 -5.2430396 -47.815937 -200 45 -200 45 -200 45
2482589614.9358 -5.1568108 -47.9828 -200 45 -200 45 -200 45
2483589731.6219 -5.0970764 -48.324795 -200 45 -200 45 -200 45
2484589848.3081 -5.0652347 -48.653435 -200 45 -200 45 -200 45
2485589964.9942 -5.0685453 -48.897785 -200 45 -200 45 -200 45
2486590081.6803 -5.0660973 -49.056747 -200 45 -200 45 -200 45
2487590198.3664 -5.0594926 -49.202728 -200 45 -200 45 -200 45
2488590315.0525 -5.0554595 -49.360214 -200 45 -200 45 -200 45
2489590431.7386 -5.0499682 -49.548855 -200 45 -200 45 -200 45
2490590548.4247 -5.0555091 -49.679455 -200 45 -200 45 -200 45
2491590665.1109 -5.0642891 -49.805588 -200 45 -200 45 -200 45
2492590781.797 -5.065711 -49.950066 -200 45 -200 45 -200 45
2493590898.4831 -5.0670915 -50.095226 -200 45 -200 45 -200 45
2494591015.1692 -5.0725098 -50.237915 -200 45 -200 45 -200 45
2495591131.8553 -5.071454 -50.33461 -200 45 -200 45 -200 45
2496591248.5414 -5.0804868 -50.423748 -200 45 -200 45 -200 45
2497591365.2275 -5.0759773 -50.465733 -200 45 -200 45 -200 45
2498591481.9137 -5.0517607 -50.560905 -200 45 -200 45 -200 45
2499591598.5998 -5.0153284 -50.716808 -200 45 -200 45 -200 45
2500591715.2859 -4.9851131 -51.013691 -200 45 -200 45 -200 45
2501591831.972 -4.9698834 -51.346268 -200 45 -200 45 -200 45
2502591948.6581 -4.9765673 -51.674786 -200 45 -200 45 -200 45
2503592065.3442 -4.9915242 -51.959724 -200 45 -200 45 -200 45
2504592182.0303 -4.999095 -52.223064 -200 45 -200 45 -200 45
2505592298.7165 -5.0130959 -52.414783 -200 45 -200 45 -200 45
2506592415.4026 -5.0259247 -52.59589 -200 45 -200 45 -200 45
2507592532.0887 -5.0398769 -52.756851 -200 45 -200 45 -200 45
2508592648.7748 -5.0420036 -52.897694 -200 45 -200 45 -200 45
2509592765.4609 -5.0447202 -53.04427 -200 45 -200 45 -200 45
2510592882.147 -5.047852 -53.164886 -200 45 -200 45 -200 45
2511592998.8331 -5.0526428 -53.284241 -200 45 -200 45 -200 45
2512593115.5193 -5.0524755 -53.3853 -200 45 -200 45 -200 45
2513593232.2054 -5.0490727 -53.486633 -200 45 -200 45 -200 45
2514593348.8915 -5.0429554 -53.600735 -200 45 -200 45 -200 45
2515593465.5776 -5.0388846 -53.697083 -200 45 -200 45 -200 45
2516593582.2637 -5.0342355 -53.787659 -200 45 -200 45 -200 45
2517593698.9498 -5.0294838 -53.854931 -200 45 -200 45 -200 45
2518593815.6359 -5.021451 -53.954021 -200 45 -200 45 -200 45
2519593932.3221 -5.0234728 -54.00621 -200 45 -200 45 -200 45
2520594049.0082 -5.0186701 -54.055897 -200 45 -200 45 -200 45
2521594165.6943 -5.0152073 -54.112995 -200 45 -200 45 -200 45
2522594282.3804 -5.0077448 -54.144188 -200 45 -200 45 -200 45
2523594399.0665 -5.0054317 -54.169697 -200 45 -200 45 -200 45
2524594515.7526 -4.996985 -54.201481 -200 45 -200 45 -200 45
2525594632.4387 -4.9897742 -54.222652 -200 45 -200 45 -200 45
2526594749.1249 -4.9833827 -54.23489 -200 45 -200 45 -200 45
2527594865.811 -4.9794464 -54.238968 -200 45 -200 45 -200 45
2528594982.4971 -4.9734535 -54.220299 -200 45 -200 45 -200 45
2529595099.1832 -4.96457 -54.224659 -200 45 -200 45 -200 45
2530595215.8693 -4.9541016 -54.246948 -200 45 -200 45 -200 45
2531595332.5554 -4.9403763 -54.230743 -200 45 -200 45 -200 45
2532595449.2415 -4.9404345 -54.176018 -200 45 -200 45 -200 45
2533595565.9277 -4.9342179 -54.175114 -200 45 -200 45 -200 45
2534595682.6138 -4.931901 -54.111641 -200 45 -200 45 -200 45
2535595799.2999 -4.9276304 -54.072235 -200 45 -200 45 -200 45
2536595915.986 -4.9223237 -54.017551 -200 45 -200 45 -200 45
2537596032.6721 -4.9216757 -53.960621 -200 45 -200 45 -200 45
2538596149.3582 -4.9199829 -53.903942 -200 45 -200 45 -200 45
2539596266.0443 -4.9241762 -53.833294 -200 45 -200 45 -200 45
2540596382.7305 -4.9215894 -53.778111 -200 45 -200 45 -200 45
2541596499.4166 -4.9199052 -53.71703 -200 45 -200 45 -200 45
2542596616.1027 -4.9130964 -53.637215 -200 45 -200 45 -200 45
2543596732.7888 -4.9165325 -53.566174 -200 45 -200 45 -200 45
2544596849.4749 -4.9159207 -53.488579 -200 45 -200 45 -200 45
2545596966.161 -4.9170623 -53.415699 -200 45 -200 45 -200 45
2546597082.8471 -4.9134159 -53.344723 -200 45 -200 45 -200 45
2547597199.5333 -4.9172106 -53.258945 -200 45 -200 45 -200 45
2548597316.2194 -4.919611 -53.190189 -200 45 -200 45 -200 45
2549597432.9055 -4.920249 -53.124702 -200 45 -200 45 -200 45
2550597549.5916 -4.9212289 -53.053177 -200 45 -200 45 -200 45
2551597666.2777 -4.9282465 -52.969975 -200 45 -200 45 -200 45
2552597782.9638 -4.9413886 -52.900959 -200 45 -200 45 -200 45
2553597899.6499 -4.9452782 -52.837704 -200 45 -200 45 -200 45
2554598016.3361 -4.9536815 -52.762817 -200 45 -200 45 -200 45
2555598133.0222 -4.964139 -52.686928 -200 45 -200 45 -200 45
2556598249.7083 -4.9757724 -52.633339 -200 45 -200 45 -200 45
2557598366.3944 -4.977057 -52.597881 -200 45 -200 45 -200 45
2558598483.0805 -4.9867535 -52.554367 -200 45 -200 45 -200 45
2559598599.7666 -4.9934888 -52.521366 -200 45 -200 45 -200 45
2560598716.4527 -5.0012803 -52.500645 -200 45 -200 45 -200 45
2561598833.1389 -5.0128798 -52.457523 -200 45 -200 45 -200 45
2562598949.825 -5.0166965 -52.467289 -200 45 -200 45 -200 45
2563599066.5111 -5.024106 -52.455029 -200 45 -200 45 -200 45
2564599183.1972 -5.0377359 -52.443874 -200 45 -200 45 -200 45
2565599299.8833 -5.0496383 -52.453709 -200 45 -200 45 -200 45
2566599416.5694 -5.0593152 -52.452675 -200 45 -200 45 -200 45
2567599533.2555 -5.068531 -52.468559 -200 45 -200 45 -200 45
2568599649.9417 -5.0782409 -52.487949 -200 45 -200 45 -200 45
2569599766.6278 -5.0916576 -52.520466 -200 45 -200 45 -200 45
2570599883.3139 -5.1020875 -52.525723 -200 45 -200 45 -200 45
2571600000 -5.1161351 -52.571949 -200 45 -200 45 -200 45
2572600116.6861 -5.1296849 -52.636047 -200 45 -200 45 -200 45
2573600233.3722 -5.1346107 -52.685757 -200 45 -200 45 -200 45
2574600350.0583 -5.1433582 -52.788223 -200 45 -200 45 -200 45
2575600466.7445 -5.1509914 -52.839504 -200 45 -200 45 -200 45
2576600583.4306 -5.158576 -52.911919 -200 45 -200 45 -200 45
2577600700.1167 -5.1662822 -53.005627 -200 45 -200 45 -200 45
2578600816.8028 -5.1731553 -53.081642 -200 45 -200 45 -200 45
2579600933.4889 -5.1766696 -53.164825 -200 45 -200 45 -200 45
2580601050.175 -5.1860452 -53.270962 -200 45 -200 45 -200 45
2581601166.8611 -5.1914759 -53.359692 -200 45 -200 45 -200 45
2582601283.5473 -5.1932921 -53.466644 -200 45 -200 45 -200 45
2583601400.2334 -5.1909032 -53.603977 -200 45 -200 45 -200 45
2584601516.9195 -5.1978407 -53.694275 -200 45 -200 45 -200 45
2585601633.6056 -5.2084017 -53.802242 -200 45 -200 45 -200 45
2586601750.2917 -5.2103319 -53.890961 -200 45 -200 45 -200 45
2587601866.9778 -5.214107 -54.012135 -200 45 -200 45 -200 45
2588601983.6639 -5.2175984 -54.129967 -200 45 -200 45 -200 45
2589602100.3501 -5.2193594 -54.248783 -200 45 -200 45 -200 45
2590602217.0362 -5.2160983 -54.363956 -200 45 -200 45 -200 45
2591602333.7223 -5.2138367 -54.481419 -200 45 -200 45 -200 45
2592602450.4084 -5.2118635 -54.579353 -200 45 -200 45 -200 45
2593602567.0945 -5.2122464 -54.696251 -200 45 -200 45 -200 45
2594602683.7806 -5.2071257 -54.787968 -200 45 -200 45 -200 45
2595602800.4667 -5.2044454 -54.858658 -200 45 -200 45 -200 45
2596602917.1529 -5.2012672 -54.935631 -200 45 -200 45 -200 45
2597603033.839 -5.1942959 -55.011787 -200 45 -200 45 -200 45
2598603150.5251 -5.1879373 -55.06776 -200 45 -200 45 -200 45
2599603267.2112 -5.1722789 -55.161938 -200 45 -200 45 -200 45
2600603383.8973 -5.1597948 -55.227177 -200 45 -200 45 -200 45
2601603500.5834 -5.1545982 -55.284733 -200 45 -200 45 -200 45
2602603617.2695 -5.1488991 -55.385166 -200 45 -200 45 -200 45
2603603733.9557 -5.1371617 -55.447723 -200 45 -200 45 -200 45
2604603850.6418 -5.128396 -55.498978 -200 45 -200 45 -200 45
2605603967.3279 -5.1209559 -55.588428 -200 45 -200 45 -200 45
2606604084.014 -5.1139259 -55.601803 -200 45 -200 45 -200 45
2607604200.7001 -5.1030526 -55.618492 -200 45 -200 45 -200 45
2608604317.3862 -5.0945196 -55.656845 -200 45 -200 45 -200 45
2609604434.0723 -5.080801 -55.693836 -200 45 -200 45 -200 45
2610604550.7585 -5.0652895 -55.715042 -200 45 -200 45 -200 45
2611604667.4446 -5.0446482 -55.740646 -200 45 -200 45 -200 45
2612604784.1307 -5.0517969 -55.696751 -200 45 -200 45 -200 45
2613604900.8168 -5.0467172 -55.708961 -200 45 -200 45 -200 45
2614605017.5029 -5.0344849 -55.704468 -200 45 -200 45 -200 45
2615605134.189 -5.0267835 -55.698303 -200 45 -200 45 -200 45
2616605250.8751 -5.018846 -55.656059 -200 45 -200 45 -200 45
2617605367.5613 -5.0134487 -55.624573 -200 45 -200 45 -200 45
2618605484.2474 -5.0089293 -55.59436 -200 45 -200 45 -200 45
2619605600.9335 -5.0066662 -55.521957 -200 45 -200 45 -200 45
2620605717.6196 -5.00141 -55.486126 -200 45 -200 45 -200 45
2621605834.3057 -4.9935727 -55.422192 -200 45 -200 45 -200 45
2622605950.9918 -4.9910889 -55.343307 -200 45 -200 45 -200 45
2623606067.6779 -4.9891253 -55.299606 -200 45 -200 45 -200 45
2624606184.3641 -4.9862952 -55.23035 -200 45 -200 45 -200 45
2625606301.0502 -4.9818077 -55.147572 -200 45 -200 45 -200 45
2626606417.7363 -4.9812489 -55.086266 -200 45 -200 45 -200 45
2627606534.4224 -4.9728713 -55.027088 -200 45 -200 45 -200 45
2628606651.1085 -4.9747849 -54.943707 -200 45 -200 45 -200 45
2629606767.7946 -4.975666 -54.862144 -200 45 -200 45 -200 45
2630606884.4807 -4.9780579 -54.78931 -200 45 -200 45 -200 45
2631607001.1669 -4.9812841 -54.691097 -200 45 -200 45 -200 45
2632607117.853 -4.9853535 -54.602856 -200 45 -200 45 -200 45
2633607234.5391 -4.990941 -54.51416 -200 45 -200 45 -200 45
2634607351.2252 -4.9945521 -54.45023 -200 45 -200 45 -200 45
2635607467.9113 -4.9991632 -54.378788 -200 45 -200 45 -200 45
2636607584.5974 -5.0048442 -54.322212 -200 45 -200 45 -200 45
2637607701.2835 -5.0092659 -54.241722 -200 45 -200 45 -200 45
2638607817.9697 -5.0147519 -54.172752 -200 45 -200 45 -200 45
2639607934.6558 -5.0215764 -54.109314 -200 45 -200 45 -200 45
2640608051.3419 -5.0307488 -54.060482 -200 45 -200 45 -200 45
2641608168.028 -5.0381403 -54.002411 -200 45 -200 45 -200 45
2642608284.7141 -5.0460758 -53.963886 -200 45 -200 45 -200 45
2643608401.4002 -5.0540428 -53.944885 -200 45 -200 45 -200 45
2644608518.0863 -5.0578303 -53.901546 -200 45 -200 45 -200 45
2645608634.7725 -5.0665512 -53.877377 -200 45 -200 45 -200 45
2646608751.4586 -5.0810056 -53.843681 -200 45 -200 45 -200 45
2647608868.1447 -5.0938673 -53.847561 -200 45 -200 45 -200 45
2648608984.8308 -5.1035662 -53.829288 -200 45 -200 45 -200 45
2649609101.5169 -5.1149302 -53.825016 -200 45 -200 45 -200 45
2650609218.203 -5.1295543 -53.821407 -200 45 -200 45 -200 45
2651609334.8891 -5.1454258 -53.849152 -200 45 -200 45 -200 45
2652609451.5753 -5.1549296 -53.836346 -200 45 -200 45 -200 45
2653609568.2614 -5.1602206 -53.894691 -200 45 -200 45 -200 45
2654609684.9475 -5.1707053 -53.934311 -200 45 -200 45 -200 45
2655609801.6336 -5.1860847 -53.966995 -200 45 -200 45 -200 45
2656609918.3197 -5.1938596 -54.016502 -200 45 -200 45 -200 45
2657610035.0058 -5.199533 -54.077984 -200 45 -200 45 -200 45
2658610151.6919 -5.2057877 -54.151924 -200 45 -200 45 -200 45
2659610268.3781 -5.2197928 -54.219284 -200 45 -200 45 -200 45
2660610385.0642 -5.2224741 -54.320126 -200 45 -200 45 -200 45
2661610501.7503 -5.2286396 -54.417347 -200 45 -200 45 -200 45
2662610618.4364 -5.2342863 -54.518429 -200 45 -200 45 -200 45
2663610735.1225 -5.2437391 -54.592823 -200 45 -200 45 -200 45
2664610851.8086 -5.2566895 -54.677326 -200 45 -200 45 -200 45
2665610968.4947 -5.2624745 -54.764046 -200 45 -200 45 -200 45
2666611085.1809 -5.274087 -54.867477 -200 45 -200 45 -200 45
2667611201.867 -5.2849545 -54.980911 -200 45 -200 45 -200 45
2668611318.5531 -5.2922087 -55.080067 -200 45 -200 45 -200 45
2669611435.2392 -5.285862 -55.216682 -200 45 -200 45 -200 45
2670611551.9253 -5.2876787 -55.3372 -200 45 -200 45 -200 45
2671611668.6114 -5.2906895 -55.458317 -200 45 -200 45 -200 45
2672611785.2975 -5.2939715 -55.555019 -200 45 -200 45 -200 45
2673611901.9837 -5.2843122 -55.679523 -200 45 -200 45 -200 45
2674612018.6698 -5.2841754 -55.808285 -200 45 -200 45 -200 45
2675612135.3559 -5.2804828 -55.916851 -200 45 -200 45 -200 45
2676612252.042 -5.2777839 -56.043118 -200 45 -200 45 -200 45
2677612368.7281 -5.271235 -56.133114 -200 45 -200 45 -200 45
2678612485.4142 -5.2657781 -56.253323 -200 45 -200 45 -200 45
2679612602.1004 -5.2626634 -56.359573 -200 45 -200 45 -200 45
2680612718.7865 -5.2649727 -56.443481 -200 45 -200 45 -200 45
2681612835.4726 -5.2554193 -56.53133 -200 45 -200 45 -200 45
2682612952.1587 -5.2550583 -56.628464 -200 45 -200 45 -200 45
2683613068.8448 -5.2525787 -56.709465 -200 45 -200 45 -200 45
2684613185.5309 -5.2431831 -56.770618 -200 45 -200 45 -200 45
2685613302.217 -5.2327104 -56.848961 -200 45 -200 45 -200 45
2686613418.9032 -5.2219853 -56.911018 -200 45 -200 45 -200 45
2687613535.5893 -5.2135282 -56.998779 -200 45 -200 45 -200 45
2688613652.2754 -5.2117124 -57.031929 -200 45 -200 45 -200 45
2689613768.9615 -5.2020612 -57.062023 -200 45 -200 45 -200 45
2690613885.6476 -5.1873498 -57.105686 -200 45 -200 45 -200 45
2691614002.3337 -5.1702328 -57.155163 -200 45 -200 45 -200 45
2692614119.0198 -5.1629953 -57.168907 -200 45 -200 45 -200 45
2693614235.706 -5.1546445 -57.183971 -200 45 -200 45 -200 45
2694614352.3921 -5.1434226 -57.189594 -200 45 -200 45 -200 45
2695614469.0782 -5.134625 -57.186878 -200 45 -200 45 -200 45
2696614585.7643 -5.1331172 -57.167637 -200 45 -200 45 -200 45
2697614702.4504 -5.129262 -57.156734 -200 45 -200 45 -200 45
2698614819.1365 -5.123549 -57.094204 -200 45 -200 45 -200 45
2699614935.8226 -5.1239376 -57.046177 -200 45 -200 45 -200 45
2700615052.5088 -5.1199999 -56.994492 -200 45 -200 45 -200 45
2701615169.1949 -5.112772 -56.928802 -200 45 -200 45 -200 45
2702615285.881 -5.0977993 -56.859035 -200 45 -200 45 -200 45
2703615402.5671 -5.0897045 -56.76149 -200 45 -200 45 -200 45
2704615519.2532 -5.0773287 -56.690014 -200 45 -200 45 -200 45
2705615635.9393 -5.0638409 -56.629597 -200 45 -200 45 -200 45
2706615752.6254 -5.0496969 -56.577641 -200 45 -200 45 -200 45
2707615869.3116 -5.0443635 -56.530628 -200 45 -200 45 -200 45
2708615985.9977 -5.0432181 -56.466747 -200 45 -200 45 -200 45
2709616102.6838 -5.0395875 -56.408722 -200 45 -200 45 -200 45
2710616219.3699 -5.0356598 -56.336884 -200 45 -200 45 -200 45
2711616336.056 -5.0310616 -56.261211 -200 45 -200 45 -200 45
2712616452.7421 -5.0335307 -56.192902 -200 45 -200 45 -200 45
2713616569.4282 -5.0363665 -56.107605 -200 45 -200 45 -200 45
2714616686.1144 -5.0429816 -56.002789 -200 45 -200 45 -200 45
2715616802.8005 -5.0464997 -55.922245 -200 45 -200 45 -200 45
2716616919.4866 -5.0475211 -55.829449 -200 45 -200 45 -200 45
2717617036.1727 -5.0493283 -55.764629 -200 45 -200 45 -200 45
2718617152.8588 -5.0557237 -55.677113 -200 45 -200 45 -200 45
2719617269.5449 -5.0597682 -55.606422 -200 45 -200 45 -200 45
2720617386.231 -5.061832 -55.535645 -200 45 -200 45 -200 45
2721617502.9172 -5.0680823 -55.457756 -200 45 -200 45 -200 45
2722617619.6033 -5.0648274 -55.417706 -200 45 -200 45 -200 45
2723617736.2894 -5.0549126 -55.403511 -200 45 -200 45 -200 45
2724617852.9755 -5.0707111 -55.332092 -200 45 -200 45 -200 45
2725617969.6616 -5.0915241 -55.229042 -200 45 -200 45 -200 45
2726618086.3477 -5.1016145 -55.18182 -200 45 -200 45 -200 45
2727618203.0338 -5.1116333 -55.158821 -200 45 -200 45 -200 45
2728618319.72 -5.1231875 -55.11731 -200 45 -200 45 -200 45
2729618436.4061 -5.1332569 -55.081497 -200 45 -200 45 -200 45
2730618553.0922 -5.1465039 -55.086018 -200 45 -200 45 -200 45
2731618669.7783 -5.1567593 -55.082779 -200 45 -200 45 -200 45
2732618786.4644 -5.1714201 -55.059788 -200 45 -200 45 -200 45
2733618903.1505 -5.1816134 -55.069675 -200 45 -200 45 -200 45
2734619019.8366 -5.1933551 -55.090122 -200 45 -200 45 -200 45
2735619136.5228 -5.2079048 -55.081753 -200 45 -200 45 -200 45
2736619253.2089 -5.2150187 -55.11998 -200 45 -200 45 -200 45
2737619369.895 -5.225513 -55.148754 -200 45 -200 45 -200 45
2738619486.5811 -5.2324033 -55.205101 -200 45 -200 45 -200 45
2739619603.2672 -5.2446022 -55.261749 -200 45 -200 45 -200 45
2740619719.9533 -5.2562599 -55.311516 -200 45 -200 45 -200 45
2741619836.6394 -5.2651491 -55.375961 -200 45 -200 45 -200 45
2742619953.3256 -5.2802901 -55.439922 -200 45 -200 45 -200 45
2743620070.0117 -5.2902837 -55.520184 -200 45 -200 45 -200 45
2744620186.6978 -5.3005686 -55.586277 -200 45 -200 45 -200 45
2745620303.3839 -5.3090386 -55.67123 -200 45 -200 45 -200 45
2746620420.07 -5.322876 -55.777267 -200 45 -200 45 -200 45
2747620536.7561 -5.3264594 -55.887154 -200 45 -200 45 -200 45
2748620653.4422 -5.3326154 -55.976688 -200 45 -200 45 -200 45
2749620770.1284 -5.342236 -56.094021 -200 45 -200 45 -200 45
2750620886.8145 -5.3479085 -56.181709 -200 45 -200 45 -200 45
2751621003.5006 -5.356596 -56.293724 -200 45 -200 45 -200 45
2752621120.1867 -5.360137 -56.438267 -200 45 -200 45 -200 45
2753621236.8728 -5.3569012 -56.558201 -200 45 -200 45 -200 45
2754621353.5589 -5.3568745 -56.677654 -200 45 -200 45 -200 45
2755621470.245 -5.3508601 -56.819641 -200 45 -200 45 -200 45
2756621586.9312 -5.3443537 -56.98645 -200 45 -200 45 -200 45
2757621703.6173 -5.352241 -57.09837 -200 45 -200 45 -200 45
2758621820.3034 -5.3592081 -57.180393 -200 45 -200 45 -200 45
2759621936.9895 -5.3546834 -57.327621 -200 45 -200 45 -200 45
2760622053.6756 -5.3594718 -57.42918 -200 45 -200 45 -200 45
2761622170.3617 -5.3512931 -57.54319 -200 45 -200 45 -200 45
2762622287.0478 -5.3590364 -57.63427 -200 45 -200 45 -200 45
2763622403.734 -5.3527775 -57.742065 -200 45 -200 45 -200 45
2764622520.4201 -5.3423615 -57.851067 -200 45 -200 45 -200 45
2765622637.1062 -5.3408337 -57.971962 -200 45 -200 45 -200 45
2766622753.7923 -5.33143 -58.055763 -200 45 -200 45 -200 45
2767622870.4784 -5.3278546 -58.133591 -200 45 -200 45 -200 45
2768622987.1645 -5.3170476 -58.225063 -200 45 -200 45 -200 45
2769623103.8506 -5.3109508 -58.305492 -200 45 -200 45 -200 45
2770623220.5368 -5.2961273 -58.389587 -200 45 -200 45 -200 45
2771623337.2229 -5.2868514 -58.449726 -200 45 -200 45 -200 45
2772623453.909 -5.2776341 -58.508705 -200 45 -200 45 -200 45
2773623570.5951 -5.267942 -58.537453 -200 45 -200 45 -200 45
2774623687.2812 -5.259201 -58.597141 -200 45 -200 45 -200 45
2775623803.9673 -5.2522235 -58.602573 -200 45 -200 45 -200 45
2776623920.6534 -5.2468605 -58.627003 -200 45 -200 45 -200 45
2777624037.3396 -5.2357087 -58.658531 -200 45 -200 45 -200 45
2778624154.0257 -5.227623 -58.642353 -200 45 -200 45 -200 45
2779624270.7118 -5.2197104 -58.640057 -200 45 -200 45 -200 45
2780624387.3979 -5.2113304 -58.642071 -200 45 -200 45 -200 45
2781624504.084 -5.1997395 -58.624191 -200 45 -200 45 -200 45
2782624620.7701 -5.1960015 -58.606602 -200 45 -200 45 -200 45
2783624737.4562 -5.1953259 -58.573566 -200 45 -200 45 -200 45
2784624854.1424 -5.1828051 -58.541946 -200 45 -200 45 -200 45
2785624970.8285 -5.1741481 -58.502537 -200 45 -200 45 -200 45
2786625087.5146 -5.1649275 -58.456673 -200 45 -200 45 -200 45
2787625204.2007 -5.1527152 -58.414825 -200 45 -200 45 -200 45
2788625320.8868 -5.1438856 -58.367691 -200 45 -200 45 -200 45
2789625437.5729 -5.1343675 -58.324368 -200 45 -200 45 -200 45
2790625554.259 -5.1298885 -58.253208 -200 45 -200 45 -200 45
2791625670.9452 -5.1379299 -58.155231 -200 45 -200 45 -200 45
2792625787.6313 -5.1460729 -58.067837 -200 45 -200 45 -200 45
2793625904.3174 -5.1433301 -57.966888 -200 45 -200 45 -200 45
2794626021.0035 -5.1520548 -57.873512 -200 45 -200 45 -200 45
2795626137.6896 -5.1518784 -57.796043 -200 45 -200 45 -200 45
2796626254.3757 -5.1553211 -57.721493 -200 45 -200 45 -200 45
2797626371.0618 -5.1525736 -57.645794 -200 45 -200 45 -200 45
2798626487.748 -5.1568742 -57.554249 -200 45 -200 45 -200 45
2799626604.4341 -5.1640921 -57.467361 -200 45 -200 45 -200 45
2800626721.1202 -5.1729665 -57.3866 -200 45 -200 45 -200 45
2801626837.8063 -5.1743736 -57.303772 -200 45 -200 45 -200 45
2802626954.4924 -5.1781116 -57.248318 -200 45 -200 45 -200 45
2803627071.1785 -5.1857886 -57.166386 -200 45 -200 45 -200 45
2804627187.8646 -5.1977291 -57.122952 -200 45 -200 45 -200 45
2805627304.5508 -5.2031937 -57.048874 -200 45 -200 45 -200 45
2806627421.2369 -5.2186999 -56.990746 -200 45 -200 45 -200 45
2807627537.923 -5.2266541 -56.935829 -200 45 -200 45 -200 45
2808627654.6091 -5.2482543 -56.880482 -200 45 -200 45 -200 45
2809627771.2952 -5.2637243 -56.828625 -200 45 -200 45 -200 45
2810627887.9813 -5.2834744 -56.783447 -200 45 -200 45 -200 45
2811628004.6674 -5.2985172 -56.747726 -200 45 -200 45 -200 45
2812628121.3536 -5.3182483 -56.739796 -200 45 -200 45 -200 45
2813628238.0397 -5.3357072 -56.723122 -200 45 -200 45 -200 45
2814628354.7258 -5.3582783 -56.728291 -200 45 -200 45 -200 45
2815628471.4119 -5.3846126 -56.718655 -200 45 -200 45 -200 45
2816628588.098 -5.4086628 -56.72707 -200 45 -200 45 -200 45
2817628704.7841 -5.4314346 -56.791714 -200 45 -200 45 -200 45
2818628821.4702 -5.4579978 -56.818104 -200 45 -200 45 -200 45
2819628938.1564 -5.494112 -56.85305 -200 45 -200 45 -200 45
2820629054.8425 -5.5266647 -56.917435 -200 45 -200 45 -200 45
2821629171.5286 -5.5644674 -56.951714 -200 45 -200 45 -200 45
2822629288.2147 -5.6085916 -57.017632 -200 45 -200 45 -200 45
2823629404.9008 -5.6689954 -57.075222 -200 45 -200 45 -200 45
2824629521.5869 -5.7385654 -57.059113 -200 45 -200 45 -200 45
2825629638.273 -5.8180919 -57.028435 -200 45 -200 45 -200 45
2826629754.9592 -5.9209633 -56.822407 -200 45 -200 45 -200 45
2827629871.6453 -6.0191545 -56.345524 -200 45 -200 45 -200 45
2828629988.3314 -6.1028814 -55.526958 -200 45 -200 45 -200 45
2829630105.0175 -6.1208096 -54.412228 -200 45 -200 45 -200 45
2830630221.7036 -6.0662622 -53.317463 -200 45 -200 45 -200 45
2831630338.3897 -5.9328265 -52.513111 -200 45 -200 45 -200 45
2832630455.0758 -5.7725806 -52.259403 -200 45 -200 45 -200 45
2833630571.762 -5.633708 -52.459949 -200 45 -200 45 -200 45
2834630688.4481 -5.5397158 -52.874607 -200 45 -200 45 -200 45
2835630805.1342 -5.4810705 -53.32177 -200 45 -200 45 -200 45
2836630921.8203 -5.4431324 -53.668438 -200 45 -200 45 -200 45
2837631038.5064 -5.4107714 -53.968464 -200 45 -200 45 -200 45
2838631155.1925 -5.37783 -54.233788 -200 45 -200 45 -200 45
2839631271.8786 -5.3478723 -54.476765 -200 45 -200 45 -200 45
2840631388.5648 -5.3164372 -54.820469 -200 45 -200 45 -200 45
2841631505.2509 -5.292583 -55.192841 -200 45 -200 45 -200 45
2842631621.937 -5.2829089 -55.533825 -200 45 -200 45 -200 45
2843631738.6231 -5.2842398 -55.829605 -200 45 -200 45 -200 45
2844631855.3092 -5.2763176 -56.057392 -200 45 -200 45 -200 45
2845631971.9953 -5.2726474 -56.267857 -200 45 -200 45 -200 45
2846632088.6814 -5.2621641 -56.407703 -200 45 -200 45 -200 45
2847632205.3676 -5.2457223 -56.566463 -200 45 -200 45 -200 45
2848632322.0537 -5.22965 -56.759712 -200 45 -200 45 -200 45
2849632438.7398 -5.2043643 -56.97073 -200 45 -200 45 -200 45
2850632555.4259 -5.184535 -57.239136 -200 45 -200 45 -200 45
2851632672.112 -5.1852007 -57.473686 -200 45 -200 45 -200 45
2852632788.7981 -5.2010288 -57.605507 -200 45 -200 45 -200 45
2853632905.4842 -5.2095785 -57.615311 -200 45 -200 45 -200 45
2854633022.1704 -5.2071548 -57.561939 -200 45 -200 45 -200 45
2855633138.8565 -5.1876063 -57.421471 -200 45 -200 45 -200 45
2856633255.5426 -5.1418858 -57.315041 -200 45 -200 45 -200 45
2857633372.2287 -5.0812149 -57.329487 -200 45 -200 45 -200 45
2858633488.9148 -5.0255556 -57.4991 -200 45 -200 45 -200 45
2859633605.6009 -4.9849629 -57.801842 -200 45 -200 45 -200 45
2860633722.287 -4.9631052 -58.060371 -200 45 -200 45 -200 45
2861633838.9732 -4.9453206 -58.338711 -200 45 -200 45 -200 45
2862633955.6593 -4.9379425 -58.546429 -200 45 -200 45 -200 45
2863634072.3454 -4.9362354 -58.723652 -200 45 -200 45 -200 45
2864634189.0315 -4.9326339 -58.866867 -200 45 -200 45 -200 45
2865634305.7176 -4.9331861 -58.965851 -200 45 -200 45 -200 45
2866634422.4037 -4.9324265 -59.044487 -200 45 -200 45 -200 45
2867634539.0898 -4.9364643 -59.081303 -200 45 -200 45 -200 45
2868634655.776 -4.9370408 -59.11095 -200 45 -200 45 -200 45
2869634772.4621 -4.9374852 -59.098778 -200 45 -200 45 -200 45
2870634889.1482 -4.9352241 -59.089634 -200 45 -200 45 -200 45
2871635005.8343 -4.9368277 -59.085201 -200 45 -200 45 -200 45
2872635122.5204 -4.940763 -59.030094 -200 45 -200 45 -200 45
2873635239.2065 -4.9464974 -58.994289 -200 45 -200 45 -200 45
2874635355.8926 -4.9493976 -58.934044 -200 45 -200 45 -200 45
2875635472.5788 -4.9513173 -58.864983 -200 45 -200 45 -200 45
2876635589.2649 -4.9526448 -58.80088 -200 45 -200 45 -200 45
2877635705.951 -4.9551539 -58.736217 -200 45 -200 45 -200 45
2878635822.6371 -4.956768 -58.664906 -200 45 -200 45 -200 45
2879635939.3232 -4.9619408 -58.563839 -200 45 -200 45 -200 45
2880636056.0093 -4.9656453 -58.485428 -200 45 -200 45 -200 45
2881636172.6954 -4.9596353 -58.412632 -200 45 -200 45 -200 45
2882636289.3816 -4.9552374 -58.33987 -200 45 -200 45 -200 45
2883636406.0677 -4.9619269 -58.256474 -200 45 -200 45 -200 45
2884636522.7538 -4.972055 -58.162827 -200 45 -200 45 -200 45
2885636639.4399 -4.9804759 -58.064751 -200 45 -200 45 -200 45
2886636756.126 -4.9910102 -57.983784 -200 45 -200 45 -200 45
2887636872.8121 -4.9989185 -57.903946 -200 45 -200 45 -200 45
2888636989.4983 -5.0054317 -57.806877 -200 45 -200 45 -200 45
2889637106.1844 -5.0151668 -57.737312 -200 45 -200 45 -200 45
2890637222.8705 -5.0254688 -57.663052 -200 45 -200 45 -200 45
2891637339.5566 -5.0358448 -57.608398 -200 45 -200 45 -200 45
2892637456.2427 -5.0473714 -57.569714 -200 45 -200 45 -200 45
2893637572.9288 -5.057889 -57.499142 -200 45 -200 45 -200 45
2894637689.6149 -5.0720778 -57.443737 -200 45 -200 45 -200 45
2895637806.3011 -5.0842443 -57.430744 -200 45 -200 45 -200 45
2896637922.9872 -5.094718 -57.363426 -200 45 -200 45 -200 45
2897638039.6733 -5.1041722 -57.356049 -200 45 -200 45 -200 45
2898638156.3594 -5.112134 -57.338783 -200 45 -200 45 -200 45
2899638273.0455 -5.1274376 -57.31712 -200 45 -200 45 -200 45
2900638389.7316 -5.1428204 -57.323639 -200 45 -200 45 -200 45
2901638506.4177 -5.1530209 -57.322166 -200 45 -200 45 -200 45
2902638623.1039 -5.165359 -57.319851 -200 45 -200 45 -200 45
2903638739.79 -5.1819081 -57.352867 -200 45 -200 45 -200 45
2904638856.4761 -5.1958637 -57.368561 -200 45 -200 45 -200 45
2905638973.1622 -5.2115231 -57.405212 -200 45 -200 45 -200 45
2906639089.8483 -5.2305059 -57.434475 -200 45 -200 45 -200 45
2907639206.5344 -5.2413573 -57.493809 -200 45 -200 45 -200 45
2908639323.2205 -5.2487278 -57.562889 -200 45 -200 45 -200 45
2909639439.9067 -5.2601237 -57.637188 -200 45 -200 45 -200 45
2910639556.5928 -5.2756357 -57.689056 -200 45 -200 45 -200 45
2911639673.2789 -5.2889328 -57.785469 -200 45 -200 45 -200 45
2912639789.965 -5.2943282 -57.867924 -200 45 -200 45 -200 45
2913639906.6511 -5.3032961 -57.991859 -200 45 -200 45 -200 45
2914640023.3372 -5.3104334 -58.09127 -200 45 -200 45 -200 45
2915640140.0233 -5.3122416 -58.195869 -200 45 -200 45 -200 45
2916640256.7095 -5.3252892 -58.327221 -200 45 -200 45 -200 45
2917640373.3956 -5.3329339 -58.438046 -200 45 -200 45 -200 45
2918640490.0817 -5.3350692 -58.556789 -200 45 -200 45 -200 45
2919640606.7678 -5.3489728 -58.650467 -200 45 -200 45 -200 45
2920640723.4539 -5.3526263 -58.780548 -200 45 -200 45 -200 45
2921640840.14 -5.3589616 -58.911736 -200 45 -200 45 -200 45
2922640956.8261 -5.3652611 -59.040394 -200 45 -200 45 -200 45
2923641073.5123 -5.3678017 -59.184048 -200 45 -200 45 -200 45
2924641190.1984 -5.3732219 -59.32225 -200 45 -200 45 -200 45
2925641306.8845 -5.3636308 -59.496433 -200 45 -200 45 -200 45
2926641423.5706 -5.3667541 -59.589439 -200 45 -200 45 -200 45
2927641540.2567 -5.3667417 -59.7173 -200 45 -200 45 -200 45
2928641656.9428 -5.363286 -59.849766 -200 45 -200 45 -200 45
2929641773.6289 -5.3556223 -59.981937 -200 45 -200 45 -200 45
2930641890.3151 -5.3470616 -60.118286 -200 45 -200 45 -200 45
2931642007.0012 -5.3339415 -60.24942 -200 45 -200 45 -200 45
2932642123.6873 -5.3234544 -60.381714 -200 45 -200 45 -200 45
2933642240.3734 -5.3010597 -60.534302 -200 45 -200 45 -200 45
2934642357.0595 -5.287652 -60.676144 -200 45 -200 45 -200 45
2935642473.7456 -5.2927961 -60.717884 -200 45 -200 45 -200 45
2936642590.4317 -5.3053741 -60.729782 -200 45 -200 45 -200 45
2937642707.1179 -5.3067365 -60.783329 -200 45 -200 45 -200 45
2938642823.804 -5.302259 -60.867157 -200 45 -200 45 -200 45
2939642940.4901 -5.2960095 -60.941681 -200 45 -200 45 -200 45
2940643057.1762 -5.2856479 -60.985332 -200 45 -200 45 -200 45
2941643173.8623 -5.2725725 -61.032665 -200 45 -200 45 -200 45
2942643290.5484 -5.2702174 -61.060608 -200 45 -200 45 -200 45
2943643407.2345 -5.2632761 -61.074707 -200 45 -200 45 -200 45
2944643523.9207 -5.2502432 -61.069653 -200 45 -200 45 -200 45
2945643640.6068 -5.2354016 -61.076748 -200 45 -200 45 -200 45
2946643757.2929 -5.2198324 -61.078194 -200 45 -200 45 -200 45
2947643873.979 -5.2163758 -61.020267 -200 45 -200 45 -200 45
2948643990.6651 -5.2009387 -60.958019 -200 45 -200 45 -200 45
2949644107.3512 -5.1814451 -60.911697 -200 45 -200 45 -200 45
2950644224.0373 -5.1682701 -60.834332 -200 45 -200 45 -200 45
2951644340.7235 -5.1546102 -60.808712 -200 45 -200 45 -200 45
2952644457.4096 -5.1438522 -60.782619 -200 45 -200 45 -200 45
2953644574.0957 -5.1392226 -60.733421 -200 45 -200 45 -200 45
2954644690.7818 -5.1306796 -60.692162 -200 45 -200 45 -200 45
2955644807.4679 -5.123889 -60.642448 -200 45 -200 45 -200 45
2956644924.154 -5.1104999 -60.587414 -200 45 -200 45 -200 45
2957645040.8401 -5.1085005 -60.539402 -200 45 -200 45 -200 45
2958645157.5263 -5.1029849 -60.463573 -200 45 -200 45 -200 45
2959645274.2124 -5.1002254 -60.392471 -200 45 -200 45 -200 45
2960645390.8985 -5.0971198 -60.309307 -200 45 -200 45 -200 45
2961645507.5846 -5.0872908 -60.220173 -200 45 -200 45 -200 45
2962645624.2707 -5.0777202 -60.142719 -200 45 -200 45 -200 45
2963645740.9568 -5.0823193 -60.049473 -200 45 -200 45 -200 45
2964645857.6429 -5.0796962 -59.973469 -200 45 -200 45 -200 45
2965645974.3291 -5.0780559 -59.845768 -200 45 -200 45 -200 45
2966646091.0152 -5.0757618 -59.755016 -200 45 -200 45 -200 45
2967646207.7013 -5.0811954 -59.639622 -200 45 -200 45 -200 45
2968646324.3874 -5.0840907 -59.53904 -200 45 -200 45 -200 45
2969646441.0735 -5.0899072 -59.450356 -200 45 -200 45 -200 45
2970646557.7596 -5.0909114 -59.358868 -200 45 -200 45 -200 45
2971646674.4457 -5.0996785 -59.294525 -200 45 -200 45 -200 45
2972646791.1319 -5.1011434 -59.230949 -200 45 -200 45 -200 45
2973646907.818 -5.1075816 -59.164288 -200 45 -200 45 -200 45
2974647024.5041 -5.1104012 -59.108166 -200 45 -200 45 -200 45
2975647141.1902 -5.1239719 -59.027882 -200 45 -200 45 -200 45
2976647257.8763 -5.1350279 -58.978485 -200 45 -200 45 -200 45
2977647374.5624 -5.1388683 -58.93816 -200 45 -200 45 -200 45
2978647491.2485 -5.1422768 -58.911285 -200 45 -200 45 -200 45
2979647607.9347 -5.1595335 -58.855808 -200 45 -200 45 -200 45
2980647724.6208 -5.1705194 -58.80069 -200 45 -200 45 -200 45
2981647841.3069 -5.1825938 -58.76841 -200 45 -200 45 -200 45
2982647957.993 -5.1933894 -58.751431 -200 45 -200 45 -200 45
2983648074.6791 -5.2076268 -58.742565 -200 45 -200 45 -200 45
2984648191.3652 -5.221148 -58.728722 -200 45 -200 45 -200 45
2985648308.0513 -5.2382622 -58.697384 -200 45 -200 45 -200 45
2986648424.7375 -5.2566199 -58.715652 -200 45 -200 45 -200 45
2987648541.4236 -5.2737103 -58.727428 -200 45 -200 45 -200 45
2988648658.1097 -5.2886071 -58.748234 -200 45 -200 45 -200 45
2989648774.7958 -5.3027415 -58.79604 -200 45 -200 45 -200 45
2990648891.4819 -5.3155913 -58.863049 -200 45 -200 45 -200 45
2991649008.168 -5.3247333 -58.931343 -200 45 -200 45 -200 45
2992649124.8541 -5.3332424 -58.977619 -200 45 -200 45 -200 45
2993649241.5403 -5.3357649 -59.063797 -200 45 -200 45 -200 45
2994649358.2264 -5.3504038 -59.133354 -200 45 -200 45 -200 45
2995649474.9125 -5.3630543 -59.234497 -200 45 -200 45 -200 45
2996649591.5986 -5.3726392 -59.314041 -200 45 -200 45 -200 45
2997649708.2847 -5.3771796 -59.424141 -200 45 -200 45 -200 45
2998649824.9708 -5.3784328 -59.563545 -200 45 -200 45 -200 45
2999649941.6569 -5.395225 -59.651546 -200 45 -200 45 -200 45
3000650058.3431 -5.408195 -59.751431 -200 45 -200 45 -200 45
3001650175.0292 -5.4225259 -59.848763 -200 45 -200 45 -200 45
3002650291.7153 -5.4332404 -59.985836 -200 45 -200 45 -200 45
3003650408.4014 -5.4375868 -60.099319 -200 45 -200 45 -200 45
3004650525.0875 -5.4408927 -60.235672 -200 45 -200 45 -200 45
3005650641.7736 -5.4423003 -60.379597 -200 45 -200 45 -200 45
3006650758.4597 -5.446373 -60.519718 -200 45 -200 45 -200 45
3007650875.1459 -5.4461432 -60.644089 -200 45 -200 45 -200 45
3008650991.832 -5.4490418 -60.789291 -200 45 -200 45 -200 45
3009651108.5181 -5.4378424 -60.953476 -200 45 -200 45 -200 45
3010651225.2042 -5.4185162 -61.143581 -200 45 -200 45 -200 45
3011651341.8903 -5.418963 -61.276592 -200 45 -200 45 -200 45
3012651458.5764 -5.4099379 -61.403858 -200 45 -200 45 -200 45
3013651575.2625 -5.4202762 -61.491238 -200 45 -200 45 -200 45
3014651691.9487 -5.4259968 -61.595554 -200 45 -200 45 -200 45
3015651808.6348 -5.4199462 -61.707897 -200 45 -200 45 -200 45
3016651925.3209 -5.4186816 -61.792065 -200 45 -200 45 -200 45
3017652042.007 -5.4162288 -61.88665 -200 45 -200 45 -200 45
3018652158.6931 -5.407444 -61.9953 -200 45 -200 45 -200 45
3019652275.3792 -5.40484 -62.102787 -200 45 -200 45 -200 45
3020652392.0653 -5.3968434 -62.160362 -200 45 -200 45 -200 45
3021652508.7515 -5.3892837 -62.25779 -200 45 -200 45 -200 45
3022652625.4376 -5.3829789 -62.32415 -200 45 -200 45 -200 45
3023652742.1237 -5.3733053 -62.394154 -200 45 -200 45 -200 45
3024652858.8098 -5.3596931 -62.465054 -200 45 -200 45 -200 45
3025652975.4959 -5.3408723 -62.530212 -200 45 -200 45 -200 45
3026653092.182 -5.3223443 -62.59602 -200 45 -200 45 -200 45
3027653208.8681 -5.3201427 -62.602776 -200 45 -200 45 -200 45
3028653325.5543 -5.3083334 -62.629303 -200 45 -200 45 -200 45
3029653442.2404 -5.3012013 -62.643162 -200 45 -200 45 -200 45
3030653558.9265 -5.2906885 -62.644516 -200 45 -200 45 -200 45
3031653675.6126 -5.2821426 -62.650513 -200 45 -200 45 -200 45
3032653792.2987 -5.2755113 -62.61776 -200 45 -200 45 -200 45
3033653908.9848 -5.2716522 -62.616783 -200 45 -200 45 -200 45
3034654025.6709 -5.26544 -62.568466 -200 45 -200 45 -200 45
3035654142.3571 -5.2590384 -62.538189 -200 45 -200 45 -200 45
3036654259.0432 -5.2489314 -62.480244 -200 45 -200 45 -200 45
3037654375.7293 -5.2423034 -62.450401 -200 45 -200 45 -200 45
3038654492.4154 -5.240869 -62.381218 -200 45 -200 45 -200 45
3039654609.1015 -5.2396235 -62.319096 -200 45 -200 45 -200 45
3040654725.7876 -5.2307172 -62.267879 -200 45 -200 45 -200 45
3041654842.4737 -5.2173057 -62.20623 -200 45 -200 45 -200 45
3042654959.1599 -5.1950068 -62.188465 -200 45 -200 45 -200 45
3043655075.846 -5.189826 -62.125626 -200 45 -200 45 -200 45
3044655192.5321 -5.1974173 -62.004368 -200 45 -200 45 -200 45
3045655309.2182 -5.1810646 -61.985477 -200 45 -200 45 -200 45
3046655425.9043 -5.2081623 -61.812897 -200 45 -200 45 -200 45
3047655542.5904 -5.2298169 -61.653446 -200 45 -200 45 -200 45
3048655659.2765 -5.2366138 -61.548092 -200 45 -200 45 -200 45
3049655775.9627 -5.2503672 -61.456841 -200 45 -200 45 -200 45
3050655892.6488 -5.2657599 -61.319138 -200 45 -200 45 -200 45
3051656009.3349 -5.2748418 -61.217899 -200 45 -200 45 -200 45
3052656126.021 -5.2854695 -61.117722 -200 45 -200 45 -200 45
3053656242.7071 -5.3077674 -61.006977 -200 45 -200 45 -200 45
3054656359.3932 -5.3368368 -60.868496 -200 45 -200 45 -200 45
3055656476.0793 -5.3703208 -60.697384 -200 45 -200 45 -200 45
3056656592.7655 -5.4026871 -60.397091 -200 45 -200 45 -200 45
3057656709.4516 -5.4187207 -60.044453 -200 45 -200 45 -200 45
3058656826.1377 -5.416204 -59.652859 -200 45 -200 45 -200 45
3059656942.8238 -5.3952866 -59.260811 -200 45 -200 45 -200 45
3060657059.5099 -5.3740048 -58.988194 -200 45 -200 45 -200 45
3061657176.196 -5.3414512 -58.827484 -200 45 -200 45 -200 45
3062657292.8821 -5.3105021 -58.78212 -200 45 -200 45 -200 45
3063657409.5683 -5.295022 -58.77935 -200 45 -200 45 -200 45
3064657526.2544 -5.2866125 -58.77367 -200 45 -200 45 -200 45
3065657642.9405 -5.2928333 -58.793728 -200 45 -200 45 -200 45
3066657759.6266 -5.2999187 -58.773922 -200 45 -200 45 -200 45
3067657876.3127 -5.2996011 -58.783607 -200 45 -200 45 -200 45
3068657992.9988 -5.3025999 -58.822315 -200 45 -200 45 -200 45
3069658109.6849 -5.2994709 -58.877659 -200 45 -200 45 -200 45
3070658226.3711 -5.3046155 -58.945713 -200 45 -200 45 -200 45
3071658343.0572 -5.3070054 -59.011894 -200 45 -200 45 -200 45
3072658459.7433 -5.3057809 -59.105732 -200 45 -200 45 -200 45
3073658576.4294 -5.3069119 -59.224113 -200 45 -200 45 -200 45
3074658693.1155 -5.2985063 -59.375416 -200 45 -200 45 -200 45
3075658809.8016 -5.2925019 -59.567974 -200 45 -200 45 -200 45
3076658926.4877 -5.2750611 -59.823647 -200 45 -200 45 -200 45
3077659043.1739 -5.3205333 -59.784004 -200 45 -200 45 -200 45
3078659159.86 -5.33599 -59.890747 -200 45 -200 45 -200 45
3079659276.5461 -5.364028 -59.970367 -200 45 -200 45 -200 45
3080659393.2322 -5.3896618 -60.103249 -200 45 -200 45 -200 45
3081659509.9183 -5.4081416 -60.220036 -200 45 -200 45 -200 45
3082659626.6044 -5.4256182 -60.340557 -200 45 -200 45 -200 45
3083659743.2905 -5.4372268 -60.52039 -200 45 -200 45 -200 45
3084659859.9767 -5.4470706 -60.644737 -200 45 -200 45 -200 45
3085659976.6628 -5.4602828 -60.786095 -200 45 -200 45 -200 45
3086660093.3489 -5.4785004 -60.919365 -200 45 -200 45 -200 45
3087660210.035 -5.4916949 -61.037323 -200 45 -200 45 -200 45
3088660326.7211 -5.4923182 -61.208038 -200 45 -200 45 -200 45
3089660443.4072 -5.4909253 -61.36684 -200 45 -200 45 -200 45
3090660560.0933 -5.4900937 -61.507248 -200 45 -200 45 -200 45
3091660676.7795 -5.5060349 -61.626434 -200 45 -200 45 -200 45
3092660793.4656 -5.512362 -61.750305 -200 45 -200 45 -200 45
3093660910.1517 -5.5127559 -61.885078 -200 45 -200 45 -200 45
3094661026.8378 -5.524312 -62.012089 -200 45 -200 45 -200 45
3095661143.5239 -5.5308919 -62.131378 -200 45 -200 45 -200 45
3096661260.21 -5.537612 -62.253227 -200 45 -200 45 -200 45
3097661376.8961 -5.5530386 -62.364738 -200 45 -200 45 -200 45
3098661493.5823 -5.5736313 -62.448139 -200 45 -200 45 -200 45
3099661610.2684 -5.5940285 -62.487728 -200 45 -200 45 -200 45
3100661726.9545 -5.6076422 -62.448032 -200 45 -200 45 -200 45
3101661843.6406 -5.6113815 -62.311119 -200 45 -200 45 -200 45
3102661960.3267 -5.6003509 -62.106651 -200 45 -200 45 -200 45
3103662077.0128 -5.5654855 -61.92527 -200 45 -200 45 -200 45
3104662193.6989 -5.5190077 -61.854836 -200 45 -200 45 -200 45
3105662310.3851 -5.4699326 -61.885983 -200 45 -200 45 -200 45
3106662427.0712 -5.4269123 -61.944019 -200 45 -200 45 -200 45
3107662543.7573 -5.3967595 -62.032784 -200 45 -200 45 -200 45
3108662660.4434 -5.3626022 -62.095585 -200 45 -200 45 -200 45
3109662777.1295 -5.3240867 -62.178642 -200 45 -200 45 -200 45
3110662893.8156 -5.2875986 -62.265636 -200 45 -200 45 -200 45
3111663010.5018 -5.2705798 -62.284149 -200 45 -200 45 -200 45
3112663127.1879 -5.2518172 -62.34338 -200 45 -200 45 -200 45
3113663243.874 -5.2328563 -62.375999 -200 45 -200 45 -200 45
3114663360.5601 -5.209693 -62.446358 -200 45 -200 45 -200 45
3115663477.2462 -5.1906681 -62.509823 -200 45 -200 45 -200 45
3116663593.9323 -5.1707687 -62.592346 -200 45 -200 45 -200 45
3117663710.6184 -5.1544838 -62.635876 -200 45 -200 45 -200 45
3118663827.3046 -5.1464114 -62.669724 -200 45 -200 45 -200 45
3119663943.9907 -5.139317 -62.672157 -200 45 -200 45 -200 45
3120664060.6768 -5.1298256 -62.686207 -200 45 -200 45 -200 45
3121664177.3629 -5.1130404 -62.682442 -200 45 -200 45 -200 45
3122664294.049 -5.0888281 -62.655567 -200 45 -200 45 -200 45
3123664410.7351 -5.0740013 -62.642174 -200 45 -200 45 -200 45
3124664527.4212 -5.0668845 -62.587013 -200 45 -200 45 -200 45
3125664644.1074 -5.060081 -62.554741 -200 45 -200 45 -200 45
3126664760.7935 -5.0534301 -62.519775 -200 45 -200 45 -200 45
3127664877.4796 -5.0520287 -62.493984 -200 45 -200 45 -200 45
3128664994.1657 -5.0469003 -62.479462 -200 45 -200 45 -200 45
3129665110.8518 -5.0503354 -62.43549 -200 45 -200 45 -200 45
3130665227.5379 -5.0554113 -62.367668 -200 45 -200 45 -200 45
3131665344.224 -5.0599885 -62.309475 -200 45 -200 45 -200 45
3132665460.9102 -5.0642023 -62.258583 -200 45 -200 45 -200 45
3133665577.5963 -5.0624785 -62.182823 -200 45 -200 45 -200 45
3134665694.2824 -5.0676599 -62.097485 -200 45 -200 45 -200 45
3135665810.9685 -5.0684938 -62.011303 -200 45 -200 45 -200 45
3136665927.6546 -5.0731072 -61.947964 -200 45 -200 45 -200 45
3137666044.3407 -5.0717974 -61.895947 -200 45 -200 45 -200 45
3138666161.0268 -5.0770802 -61.788692 -200 45 -200 45 -200 45
3139666277.713 -5.0853357 -61.709435 -200 45 -200 45 -200 45
3140666394.3991 -5.0943155 -61.638893 -200 45 -200 45 -200 45
3141666511.0852 -5.0996552 -61.569019 -200 45 -200 45 -200 45
3142666627.7713 -5.1030841 -61.522396 -200 45 -200 45 -200 45
3143666744.4574 -5.1148696 -61.479027 -200 45 -200 45 -200 45
3144666861.1435 -5.1308179 -61.391201 -200 45 -200 45 -200 45
3145666977.8296 -5.1501961 -61.322285 -200 45 -200 45 -200 45
3146667094.5158 -5.1659431 -61.25893 -200 45 -200 45 -200 45
3147667211.2019 -5.1788692 -61.236439 -200 45 -200 45 -200 45
3148667327.888 -5.1922045 -61.164673 -200 45 -200 45 -200 45
3149667444.5741 -5.2031713 -61.156628 -200 45 -200 45 -200 45
3150667561.2602 -5.2188382 -61.134666 -200 45 -200 45 -200 45
3151667677.9463 -5.2307 -61.116043 -200 45 -200 45 -200 45
3152667794.6324 -5.2411852 -61.117046 -200 45 -200 45 -200 45
3153667911.3186 -5.2445855 -61.151852 -200 45 -200 45 -200 45
3154668028.0047 -5.2408462 -61.266068 -200 45 -200 45 -200 45
3155668144.6908 -5.25422 -61.277187 -200 45 -200 45 -200 45
3156668261.3769 -5.283051 -61.25703 -200 45 -200 45 -200 45
3157668378.063 -5.2930427 -61.293545 -200 45 -200 45 -200 45
3158668494.7491 -5.3172874 -61.314938 -200 45 -200 45 -200 45
3159668611.4352 -5.3399224 -61.350571 -200 45 -200 45 -200 45
3160668728.1214 -5.3551593 -61.415649 -200 45 -200 45 -200 45
3161668844.8075 -5.369617 -61.47081 -200 45 -200 45 -200 45
3162668961.4936 -5.3827052 -61.546295 -200 45 -200 45 -200 45
3163669078.1797 -5.3989072 -61.629616 -200 45 -200 45 -200 45
3164669194.8658 -5.4112387 -61.73782 -200 45 -200 45 -200 45
3165669311.5519 -5.4193668 -61.833115 -200 45 -200 45 -200 45
3166669428.238 -5.4308052 -61.944408 -200 45 -200 45 -200 45
3167669544.9242 -5.4453626 -62.071236 -200 45 -200 45 -200 45
3168669661.6103 -5.4452629 -62.204296 -200 45 -200 45 -200 45
3169669778.2964 -5.445673 -62.320648 -200 45 -200 45 -200 45
3170669894.9825 -5.4517961 -62.488979 -200 45 -200 45 -200 45
3171670011.6686 -5.4605231 -62.596901 -200 45 -200 45 -200 45
3172670128.3547 -5.4632773 -62.720882 -200 45 -200 45 -200 45
3173670245.0408 -5.468812 -62.879025 -200 45 -200 45 -200 45
3174670361.727 -5.4696059 -63.019615 -200 45 -200 45 -200 45
3175670478.4131 -5.4720445 -63.160072 -200 45 -200 45 -200 45
3176670595.0992 -5.4720926 -63.299454 -200 45 -200 45 -200 45
3177670711.7853 -5.4804802 -63.430813 -200 45 -200 45 -200 45
3178670828.4714 -5.4818912 -63.561436 -200 45 -200 45 -200 45
3179670945.1575 -5.4783897 -63.721016 -200 45 -200 45 -200 45
3180671061.8436 -5.4726434 -63.844826 -200 45 -200 45 -200 45
3181671178.5298 -5.4670978 -63.997631 -200 45 -200 45 -200 45
3182671295.2159 -5.4646416 -64.123924 -200 45 -200 45 -200 45
3183671411.902 -5.4544549 -64.251465 -200 45 -200 45 -200 45
3184671528.5881 -5.445838 -64.358643 -200 45 -200 45 -200 45
3185671645.2742 -5.4322734 -64.50074 -200 45 -200 45 -200 45
3186671761.9603 -5.4065866 -64.650383 -200 45 -200 45 -200 45
3187671878.6464 -5.3833146 -64.804749 -200 45 -200 45 -200 45
3188671995.3326 -5.3580079 -64.991119 -200 45 -200 45 -200 45
3189672112.0187 -5.3521571 -65.04641 -200 45 -200 45 -200 45
3190672228.7048 -5.374331 -64.991417 -200 45 -200 45 -200 45
3191672345.3909 -5.3761029 -65.041252 -200 45 -200 45 -200 45
3192672462.077 -5.3752069 -65.075226 -200 45 -200 45 -200 45
3193672578.7631 -5.3611021 -65.124413 -200 45 -200 45 -200 45
3194672695.4492 -5.3523326 -65.170647 -200 45 -200 45 -200 45
3195672812.1354 -5.339994 -65.203659 -200 45 -200 45 -200 45
3196672928.8215 -5.3306079 -65.238586 -200 45 -200 45 -200 45
3197673045.5076 -5.320663 -65.238182 -200 45 -200 45 -200 45
3198673162.1937 -5.3109531 -65.225143 -200 45 -200 45 -200 45
3199673278.8798 -5.3009067 -65.230621 -200 45 -200 45 -200 45
3200673395.5659 -5.2821579 -65.223915 -200 45 -200 45 -200 45
3201673512.252 -5.2664771 -65.243156 -200 45 -200 45 -200 45
3202673628.9382 -5.2543592 -65.203598 -200 45 -200 45 -200 45
3203673745.6243 -5.252749 -65.148582 -200 45 -200 45 -200 45
3204673862.3104 -5.2469273 -65.098679 -200 45 -200 45 -200 45
3205673978.9965 -5.2398586 -65.046326 -200 45 -200 45 -200 45
3206674095.6826 -5.2366629 -64.992592 -200 45 -200 45 -200 45
3207674212.3687 -5.2293591 -64.931602 -200 45 -200 45 -200 45
3208674329.0548 -5.2257395 -64.872704 -200 45 -200 45 -200 45
3209674445.741 -5.225616 -64.759529 -200 45 -200 45 -200 45
3210674562.4271 -5.2215414 -64.69471 -200 45 -200 45 -200 45
3211674679.1132 -5.2213478 -64.608055 -200 45 -200 45 -200 45
3212674795.7993 -5.2211175 -64.525177 -200 45 -200 45 -200 45
3213674912.4854 -5.2149687 -64.44413 -200 45 -200 45 -200 45
3214675029.1715 -5.2161369 -64.345291 -200 45 -200 45 -200 45
3215675145.8576 -5.2172341 -64.2481 -200 45 -200 45 -200 45
3216675262.5438 -5.2177391 -64.150261 -200 45 -200 45 -200 45
3217675379.2299 -5.2199192 -64.059029 -200 45 -200 45 -200 45
3218675495.916 -5.2197986 -63.958241 -200 45 -200 45 -200 45
3219675612.6021 -5.2206173 -63.879864 -200 45 -200 45 -200 45
3220675729.2882 -5.2192035 -63.816849 -200 45 -200 45 -200 45
3221675845.9743 -5.220099 -63.770302 -200 45 -200 45 -200 45
3222675962.6604 -5.2373891 -63.633492 -200 45 -200 45 -200 45
3223676079.3466 -5.2645588 -63.477783 -200 45 -200 45 -200 45
3224676196.0327 -5.2877264 -63.371841 -200 45 -200 45 -200 45
3225676312.7188 -5.3118682 -63.223225 -200 45 -200 45 -200 45
3226676429.4049 -5.3248777 -63.130539 -200 45 -200 45 -200 45
3227676546.091 -5.3461461 -63.031532 -200 45 -200 45 -200 45
3228676662.7771 -5.3703136 -62.917004 -200 45 -200 45 -200 45
3229676779.4632 -5.3961177 -62.796051 -200 45 -200 45 -200 45
3230676896.1494 -5.4221072 -62.645737 -200 45 -200 45 -200 45
3231677012.8355 -5.4459233 -62.466015 -200 45 -200 45 -200 45
3232677129.5216 -5.463623 -62.262794 -200 45 -200 45 -200 45
3233677246.2077 -5.483521 -62.001938 -200 45 -200 45 -200 45
3234677362.8938 -5.4891486 -61.73457 -200 45 -200 45 -200 45
3235677479.5799 -5.4803295 -61.49852 -200 45 -200 45 -200 45
3236677596.266 -5.4606686 -61.331089 -200 45 -200 45 -200 45
3237677712.9522 -5.4445114 -61.22477 -200 45 -200 45 -200 45
3238677829.6383 -5.4253273 -61.215591 -200 45 -200 45 -200 45
3239677946.3244 -5.4147711 -61.269825 -200 45 -200 45 -200 45
3240678063.0105 -5.4067478 -61.35503 -200 45 -200 45 -200 45
3241678179.6966 -5.4063082 -61.451214 -200 45 -200 45 -200 45
3242678296.3827 -5.4046493 -61.594414 -200 45 -200 45 -200 45
3243678413.0688 -5.4169178 -61.712189 -200 45 -200 45 -200 45
3244678529.755 -5.4220171 -61.850178 -200 45 -200 45 -200 45
3245678646.4411 -5.4337759 -61.999733 -200 45 -200 45 -200 45
3246678763.1272 -5.4478216 -62.135258 -200 45 -200 45 -200 45
3247678879.8133 -5.4604368 -62.255646 -200 45 -200 45 -200 45
3248678996.4994 -5.4679384 -62.382065 -200 45 -200 45 -200 45
3249679113.1855 -5.479362 -62.502926 -200 45 -200 45 -200 45
3250679229.8716 -5.4860864 -62.640266 -200 45 -200 45 -200 45
3251679346.5578 -5.4976907 -62.78297 -200 45 -200 45 -200 45
3252679463.2439 -5.5078597 -62.894569 -200 45 -200 45 -200 45
3253679579.93 -5.5165677 -63.058323 -200 45 -200 45 -200 45
3254679696.6161 -5.5301933 -63.180855 -200 45 -200 45 -200 45
3255679813.3022 -5.5400548 -63.338757 -200 45 -200 45 -200 45
3256679929.9883 -5.5489321 -63.448135 -200 45 -200 45 -200 45
3257680046.6744 -5.5633397 -63.553871 -200 45 -200 45 -200 45
3258680163.3606 -5.5696859 -63.672806 -200 45 -200 45 -200 45
3259680280.0467 -5.5708666 -63.738514 -200 45 -200 45 -200 45
3260680396.7328 -5.5690255 -63.801407 -200 45 -200 45 -200 45
3261680513.4189 -5.5630488 -63.864803 -200 45 -200 45 -200 45
3262680630.105 -5.5526729 -63.945999 -200 45 -200 45 -200 45
3263680746.7911 -5.5392709 -64.059486 -200 45 -200 45 -200 45
3264680863.4772 -5.5203314 -64.152771 -200 45 -200 45 -200 45
3265680980.1634 -5.5036025 -64.300095 -200 45 -200 45 -200 45
3266681096.8495 -5.485837 -64.422348 -200 45 -200 45 -200 45
3267681213.5356 -5.4672103 -64.564941 -200 45 -200 45 -200 45
3268681330.2217 -5.447597 -64.687347 -200 45 -200 45 -200 45
3269681446.9078 -5.4241638 -64.8638 -200 45 -200 45 -200 45
3270681563.5939 -5.4093285 -65.041054 -200 45 -200 45 -200 45
3271681680.28 -5.4002891 -65.155571 -200 45 -200 45 -200 45
3272681796.9662 -5.3883939 -65.333488 -200 45 -200 45 -200 45
3273681913.6523 -5.3762474 -65.470924 -200 45 -200 45 -200 45
3274682030.3384 -5.365334 -65.575615 -200 45 -200 45 -200 45
3275682147.0245 -5.3535633 -65.698601 -200 45 -200 45 -200 45
3276682263.7106 -5.3456364 -65.782112 -200 45 -200 45 -200 45
3277682380.3967 -5.3317647 -65.854385 -200 45 -200 45 -200 45
3278682497.0828 -5.3235021 -65.909782 -200 45 -200 45 -200 45
3279682613.769 -5.3124719 -65.966705 -200 45 -200 45 -200 45
3280682730.4551 -5.294858 -66.009689 -200 45 -200 45 -200 45
3281682847.1412 -5.2760787 -66.042038 -200 45 -200 45 -200 45
3282682963.8273 -5.2685647 -66.066605 -200 45 -200 45 -200 45
3283683080.5134 -5.2524223 -66.067192 -200 45 -200 45 -200 45
3284683197.1995 -5.2470398 -66.048958 -200 45 -200 45 -200 45
3285683313.8856 -5.2364759 -66.048256 -200 45 -200 45 -200 45
3286683430.5718 -5.2288671 -65.98661 -200 45 -200 45 -200 45
3287683547.2579 -5.2197361 -65.981201 -200 45 -200 45 -200 45
3288683663.944 -5.2116632 -65.916992 -200 45 -200 45 -200 45
3289683780.6301 -5.2042975 -65.877083 -200 45 -200 45 -200 45
3290683897.3162 -5.1962862 -65.793633 -200 45 -200 45 -200 45
3291684014.0023 -5.1846852 -65.733627 -200 45 -200 45 -200 45
3292684130.6884 -5.1722269 -65.669403 -200 45 -200 45 -200 45
3293684247.3746 -5.1655989 -65.623672 -200 45 -200 45 -200 45
3294684364.0607 -5.1586823 -65.546097 -200 45 -200 45 -200 45
3295684480.7468 -5.1506476 -65.477768 -200 45 -200 45 -200 45
3296684597.4329 -5.1350551 -65.43602 -200 45 -200 45 -200 45
3297684714.119 -5.1363177 -65.357811 -200 45 -200 45 -200 45
3298684830.8051 -5.1308041 -65.288208 -200 45 -200 45 -200 45
3299684947.4912 -5.131567 -65.208275 -200 45 -200 45 -200 45
3300685064.1774 -5.1333556 -65.130844 -200 45 -200 45 -200 45
3301685180.8635 -5.1302176 -65.082283 -200 45 -200 45 -200 45
3302685297.5496 -5.1295838 -64.972603 -200 45 -200 45 -200 45
3303685414.2357 -5.1363459 -64.894585 -200 45 -200 45 -200 45
3304685530.9218 -5.1464224 -64.759651 -200 45 -200 45 -200 45
3305685647.6079 -5.1565366 -64.667351 -200 45 -200 45 -200 45
3306685764.294 -5.1636724 -64.580795 -200 45 -200 45 -200 45
3307685880.9802 -5.1679044 -64.478767 -200 45 -200 45 -200 45
3308685997.6663 -5.1746469 -64.408577 -200 45 -200 45 -200 45
3309686114.3524 -5.1844296 -64.307434 -200 45 -200 45 -200 45
3310686231.0385 -5.1919599 -64.226128 -200 45 -200 45 -200 45
3311686347.7246 -5.2029676 -64.156326 -200 45 -200 45 -200 45
3312686464.4107 -5.2061095 -64.098404 -200 45 -200 45 -200 45
3313686581.0968 -5.2111483 -64.050301 -200 45 -200 45 -200 45
3314686697.783 -5.2233362 -63.971462 -200 45 -200 45 -200 45
3315686814.4691 -5.2343192 -63.945454 -200 45 -200 45 -200 45
3316686931.1552 -5.2483554 -63.905216 -200 45 -200 45 -200 45
3317687047.8413 -5.2645688 -63.856033 -200 45 -200 45 -200 45
3318687164.5274 -5.2795711 -63.805122 -200 45 -200 45 -200 45
3319687281.2135 -5.2971048 -63.790894 -200 45 -200 45 -200 45
3320687397.8997 -5.3113947 -63.784672 -200 45 -200 45 -200 45
3321687514.5858 -5.3303976 -63.757919 -200 45 -200 45 -200 45
3322687631.2719 -5.3484426 -63.762024 -200 45 -200 45 -200 45
3323687747.958 -5.3585472 -63.781597 -200 45 -200 45 -200 45
3324687864.6441 -5.3639021 -63.811172 -200 45 -200 45 -200 45
3325687981.3302 -5.3857088 -63.850063 -200 45 -200 45 -200 45
3326688098.0163 -5.4005742 -63.897438 -200 45 -200 45 -200 45
3327688214.7025 -5.4163198 -63.939545 -200 45 -200 45 -200 45
3328688331.3886 -5.4231186 -64.001175 -200 45 -200 45 -200 45
3329688448.0747 -5.42518 -64.103706 -200 45 -200 45 -200 45
3330688564.7608 -5.4416699 -64.174438 -200 45 -200 45 -200 45
3331688681.4469 -5.4540038 -64.257774 -200 45 -200 45 -200 45
3332688798.133 -5.4644885 -64.342117 -200 45 -200 45 -200 45
3333688914.8191 -5.4765615 -64.447731 -200 45 -200 45 -200 45
3334689031.5053 -5.4792395 -64.549393 -200 45 -200 45 -200 45
3335689148.1914 -5.4977846 -64.665359 -200 45 -200 45 -200 45
3336689264.8775 -5.5070672 -64.797318 -200 45 -200 45 -200 45
3337689381.5636 -5.5193834 -64.917854 -200 45 -200 45 -200 45
3338689498.2497 -5.5246515 -65.031715 -200 45 -200 45 -200 45
3339689614.9358 -5.5321584 -65.150757 -200 45 -200 45 -200 45
3340689731.6219 -5.5347619 -65.316292 -200 45 -200 45 -200 45
3341689848.3081 -5.5332756 -65.435242 -200 45 -200 45 -200 45
3342689964.9942 -5.5363598 -65.58844 -200 45 -200 45 -200 45
3343690081.6803 -5.5362401 -65.719231 -200 45 -200 45 -200 45
3344690198.3664 -5.5317702 -65.896378 -200 45 -200 45 -200 45
3345690315.0525 -5.530869 -66.033646 -200 45 -200 45 -200 45
3346690431.7386 -5.5234632 -66.167145 -200 45 -200 45 -200 45
3347690548.4247 -5.526741 -66.304115 -200 45 -200 45 -200 45
3348690665.1109 -5.5232692 -66.443932 -200 45 -200 45 -200 45
3349690781.797 -5.5138936 -66.573776 -200 45 -200 45 -200 45
3350690898.4831 -5.5113587 -66.682663 -200 45 -200 45 -200 45
3351691015.1692 -5.5062022 -66.857201 -200 45 -200 45 -200 45
3352691131.8553 -5.5015965 -66.938095 -200 45 -200 45 -200 45
3353691248.5414 -5.4951482 -67.032005 -200 45 -200 45 -200 45
3354691365.2275 -5.4896917 -67.149879 -200 45 -200 45 -200 45
3355691481.9137 -5.4787402 -67.242294 -200 45 -200 45 -200 45
3356691598.5998 -5.4682455 -67.330963 -200 45 -200 45 -200 45
3357691715.2859 -5.4568138 -67.426018 -200 45 -200 45 -200 45
3358691831.972 -5.4454646 -67.491508 -200 45 -200 45 -200 45
3359691948.6581 -5.4347196 -67.572922 -200 45 -200 45 -200 45
3360692065.3442 -5.4144101 -67.66066 -200 45 -200 45 -200 45
3361692182.0303 -5.3985696 -67.705315 -200 45 -200 45 -200 45
3362692298.7165 -5.3887472 -67.734375 -200 45 -200 45 -200 45
3363692415.4026 -5.3772583 -67.76989 -200 45 -200 45 -200 45
3364692532.0887 -5.3641567 -67.765739 -200 45 -200 45 -200 45
3365692648.7748 -5.3544273 -67.79142 -200 45 -200 45 -200 45
3366692765.4609 -5.3382692 -67.810799 -200 45 -200 45 -200 45
3367692882.147 -5.3324456 -67.771553 -200 45 -200 45 -200 45
3368692998.8331 -5.323422 -67.767586 -200 45 -200 45 -200 45
3369693115.5193 -5.312593 -67.753845 -200 45 -200 45 -200 45
3370693232.2054 -5.3025203 -67.708282 -200 45 -200 45 -200 45
3371693348.8915 -5.2900181 -67.679207 -200 45 -200 45 -200 45
3372693465.5776 -5.2790971 -67.626678 -200 45 -200 45 -200 45
3373693582.2637 -5.2748127 -67.543755 -200 45 -200 45 -200 45
3374693698.9498 -5.2632327 -67.506966 -200 45 -200 45 -200 45
3375693815.6359 -5.2526021 -67.442688 -200 45 -200 45 -200 45
3376693932.3221 -5.2428126 -67.390923 -200 45 -200 45 -200 45
3377694049.0082 -5.2312341 -67.291527 -200 45 -200 45 -200 45
3378694165.6943 -5.2279143 -67.232552 -200 45 -200 45 -200 45
3379694282.3804 -5.2196951 -67.13134 -200 45 -200 45 -200 45
3380694399.0665 -5.2146988 -67.046638 -200 45 -200 45 -200 45
3381694515.7526 -5.212924 -66.939087 -200 45 -200 45 -200 45
3382694632.4387 -5.2112584 -66.853363 -200 45 -200 45 -200 45
3383694749.1249 -5.213079 -66.752571 -200 45 -200 45 -200 45
3384694865.811 -5.2199392 -66.628059 -200 45 -200 45 -200 45
3385694982.4971 -5.2211585 -66.518898 -200 45 -200 45 -200 45
3386695099.1832 -5.2206864 -66.416763 -200 45 -200 45 -200 45
3387695215.8693 -5.2227407 -66.317505 -200 45 -200 45 -200 45
3388695332.5554 -5.2237372 -66.211884 -200 45 -200 45 -200 45
3389695449.2415 -5.2329183 -66.104271 -200 45 -200 45 -200 45
3390695565.9277 -5.2392225 -66.004585 -200 45 -200 45 -200 45
3391695682.6138 -5.2435398 -65.905457 -200 45 -200 45 -200 45
3392695799.2999 -5.2419481 -65.8228 -200 45 -200 45 -200 45
3393695915.986 -5.2384915 -65.779648 -200 45 -200 45 -200 45
3394696032.6721 -5.2422891 -65.731995 -200 45 -200 45 -200 45
3395696149.3582 -5.2368255 -65.694443 -200 45 -200 45 -200 45
3396696266.0443 -5.2552376 -65.583786 -200 45 -200 45 -200 45
3397696382.7305 -5.2873268 -65.420975 -200 45 -200 45 -200 45
3398696499.4166 -5.2976265 -65.389282 -200 45 -200 45 -200 45
3399696616.1027 -5.3106174 -65.305901 -200 45 -200 45 -200 45
3400696732.7888 -5.3297939 -65.247673 -200 45 -200 45 -200 45
3401696849.4749 -5.3446369 -65.214928 -200 45 -200 45 -200 45
3402696966.161 -5.3567872 -65.174431 -200 45 -200 45 -200 45
3403697082.8471 -5.3701301 -65.171524 -200 45 -200 45 -200 45
3404697199.5333 -5.3806882 -65.16246 -200 45 -200 45 -200 45
3405697316.2194 -5.3990726 -65.134491 -200 45 -200 45 -200 45
3406697432.9055 -5.4171343 -65.143944 -200 45 -200 45 -200 45
3407697549.5916 -5.4272385 -65.157349 -200 45 -200 45 -200 45
3408697666.2777 -5.4309769 -65.193687 -200 45 -200 45 -200 45
3409697782.9638 -5.4447384 -65.219322 -200 45 -200 45 -200 45
3410697899.6499 -5.4593372 -65.270561 -200 45 -200 45 -200 45
3411698016.3361 -5.4736419 -65.318283 -200 45 -200 45 -200 45
3412698133.0222 -5.4804525 -65.390343 -200 45 -200 45 -200 45
3413698249.7083 -5.4941525 -65.44825 -200 45 -200 45 -200 45
3414698366.3944 -5.509686 -65.533577 -200 45 -200 45 -200 45
3415698483.0805 -5.5228167 -65.598381 -200 45 -200 45 -200 45
3416698599.7666 -5.537199 -65.685814 -200 45 -200 45 -200 45
3417698716.4527 -5.5562406 -65.771133 -200 45 -200 45 -200 45
3418698833.1389 -5.5637851 -65.893448 -200 45 -200 45 -200 45
3419698949.825 -5.5663877 -66.016632 -200 45 -200 45 -200 45
3420699066.5111 -5.5736518 -66.122116 -200 45 -200 45 -200 45
3421699183.1972 -5.5790858 -66.244896 -200 45 -200 45 -200 45
3422699299.8833 -5.5860343 -66.3815 -200 45 -200 45 -200 45
3423699416.5694 -5.5883632 -66.501854 -200 45 -200 45 -200 45
3424699533.2555 -5.5859494 -66.673157 -200 45 -200 45 -200 45
3425699649.9417 -5.5822601 -66.829727 -200 45 -200 45 -200 45
3426699766.6278 -5.5895667 -66.967453 -200 45 -200 45 -200 45
3427699883.3139 -5.583693 -67.125755 -200 45 -200 45 -200 45
3428700000 -5.5727324 -67.30323 -200 45 -200 45 -200 45
3429700116.6861 -5.5730305 -67.478455 -200 45 -200 45 -200 45
3430700233.3722 -5.5929379 -67.542839 -200 45 -200 45 -200 45
3431700350.0583 -5.591042 -67.668472 -200 45 -200 45 -200 45
3432700466.7445 -5.5912552 -67.834503 -200 45 -200 45 -200 45
3433700583.4306 -5.5888672 -67.934067 -200 45 -200 45 -200 45
3434700700.1167 -5.5815287 -68.076324 -200 45 -200 45 -200 45
3435700816.8028 -5.5742016 -68.202042 -200 45 -200 45 -200 45
3436700933.4889 -5.5675359 -68.314796 -200 45 -200 45 -200 45
3437701050.175 -5.5617967 -68.433533 -200 45 -200 45 -200 45
3438701166.8611 -5.5479059 -68.547523 -200 45 -200 45 -200 45
3439701283.5473 -5.540854 -68.649155 -200 45 -200 45 -200 45
3440701400.2334 -5.5199461 -68.780647 -200 45 -200 45 -200 45
3441701516.9195 -5.5112004 -68.847527 -200 45 -200 45 -200 45
3442701633.6056 -5.5027075 -68.918144 -200 45 -200 45 -200 45
3443701750.2917 -5.4924445 -68.978653 -200 45 -200 45 -200 45
3444701866.9778 -5.4767962 -69.044792 -200 45 -200 45 -200 45
3445701983.6639 -5.4579191 -69.090988 -200 45 -200 45 -200 45
3446702100.3501 -5.4497352 -69.161491 -200 45 -200 45 -200 45
3447702217.0362 -5.4395747 -69.184326 -200 45 -200 45 -200 45
3448702333.7223 -5.4321923 -69.186455 -200 45 -200 45 -200 45
3449702450.4084 -5.4290071 -69.193115 -200 45 -200 45 -200 45
3450702567.0945 -5.414216 -69.199455 -200 45 -200 45 -200 45
3451702683.7806 -5.4021244 -69.20015 -200 45 -200 45 -200 45
3452702800.4667 -5.3848405 -69.180115 -200 45 -200 45 -200 45
3453702917.1529 -5.3725252 -69.162407 -200 45 -200 45 -200 45
3454703033.839 -5.362998 -69.148438 -200 45 -200 45 -200 45
3455703150.5251 -5.3523731 -69.130455 -200 45 -200 45 -200 45
3456703267.2112 -5.3365231 -69.066788 -200 45 -200 45 -200 45
3457703383.8973 -5.3266511 -69.020119 -200 45 -200 45 -200 45
3458703500.5834 -5.3197937 -68.945671 -200 45 -200 45 -200 45
3459703617.2695 -5.3086343 -68.885933 -200 45 -200 45 -200 45
3460703733.9557 -5.2997217 -68.80233 -200 45 -200 45 -200 45
3461703850.6418 -5.2844357 -68.767159 -200 45 -200 45 -200 45
3462703967.3279 -5.2783084 -68.674271 -200 45 -200 45 -200 45
3463704084.014 -5.2857599 -68.542747 -200 45 -200 45 -200 45
3464704200.7001 -5.286716 -68.452492 -200 45 -200 45 -200 45
3465704317.3862 -5.2864237 -68.336937 -200 45 -200 45 -200 45
3466704434.0723 -5.2865796 -68.237038 -200 45 -200 45 -200 45
3467704550.7585 -5.2800698 -68.135635 -200 45 -200 45 -200 45
3468704667.4446 -5.2820764 -68.029877 -200 45 -200 45 -200 45
3469704784.1307 -5.2878594 -67.903793 -200 45 -200 45 -200 45
3470704900.8168 -5.2933269 -67.773926 -200 45 -200 45 -200 45
3471705017.5029 -5.2869563 -67.670464 -200 45 -200 45 -200 45
3472705134.189 -5.2820854 -67.574776 -200 45 -200 45 -200 45
3473705250.8751 -5.2717962 -67.480515 -200 45 -200 45 -200 45
3474705367.5613 -5.2951927 -67.29187 -200 45 -200 45 -200 45
3475705484.2474 -5.301055 -67.197861 -200 45 -200 45 -200 45
3476705600.9335 -5.3054399 -67.075317 -200 45 -200 45 -200 45
3477705717.6196 -5.3110318 -66.99794 -200 45 -200 45 -200 45
3478705834.3057 -5.3179436 -66.905472 -200 45 -200 45 -200 45
3479705950.9918 -5.3265061 -66.816261 -200 45 -200 45 -200 45
3480706067.6779 -5.342165 -66.735062 -200 45 -200 45 -200 45
3481706184.3641 -5.3515134 -66.674461 -200 45 -200 45 -200 45
3482706301.0502 -5.3680673 -66.607803 -200 45 -200 45 -200 45
3483706417.7363 -5.3713121 -66.574913 -200 45 -200 45 -200 45
3484706534.4224 -5.3819003 -66.517754 -200 45 -200 45 -200 45
3485706651.1085 -5.4007883 -66.474304 -200 45 -200 45 -200 45
3486706767.7946 -5.4125185 -66.444618 -200 45 -200 45 -200 45
3487706884.4807 -5.421402 -66.411087 -200 45 -200 45 -200 45
3488707001.1669 -5.4296117 -66.409927 -200 45 -200 45 -200 45
3489707117.853 -5.4368706 -66.413704 -200 45 -200 45 -200 45
3490707234.5391 -5.4512768 -66.42701 -200 45 -200 45 -200 45
3491707351.2252 -5.464478 -66.460823 -200 45 -200 45 -200 45
3492707467.9113 -5.4789114 -66.489128 -200 45 -200 45 -200 45
3493707584.5974 -5.4907894 -66.510475 -200 45 -200 45 -200 45
3494707701.2835 -5.5202117 -66.541367 -200 45 -200 45 -200 45
3495707817.9697 -5.5331731 -66.588058 -200 45 -200 45 -200 45
3496707934.6558 -5.5490923 -66.639977 -200 45 -200 45 -200 45
3497708051.3419 -5.5636978 -66.703087 -200 45 -200 45 -200 45
3498708168.028 -5.5734968 -66.7967 -200 45 -200 45 -200 45
3499708284.7141 -5.5851598 -66.887688 -200 45 -200 45 -200 45
3500708401.4002 -5.598743 -66.988792 -200 45 -200 45 -200 45
3501708518.0863 -5.6146393 -67.097458 -200 45 -200 45 -200 45
3502708634.7725 -5.6267509 -67.205887 -200 45 -200 45 -200 45
3503708751.4586 -5.6298647 -67.339035 -200 45 -200 45 -200 45
3504708868.1447 -5.6293077 -67.489479 -200 45 -200 45 -200 45
3505708984.8308 -5.6374321 -67.624275 -200 45 -200 45 -200 45
3506709101.5169 -5.6418018 -67.771591 -200 45 -200 45 -200 45
3507709218.203 -5.6481724 -67.891312 -200 45 -200 45 -200 45
3508709334.8891 -5.6597075 -68.033051 -200 45 -200 45 -200 45
3509709451.5753 -5.6621552 -68.159622 -200 45 -200 45 -200 45
3510709568.2614 -5.6703124 -68.336273 -200 45 -200 45 -200 45
3511709684.9475 -5.6758204 -68.456314 -200 45 -200 45 -200 45
3512709801.6336 -5.6770387 -68.610931 -200 45 -200 45 -200 45
3513709918.3197 -5.6781087 -68.755234 -200 45 -200 45 -200 45
3514710035.0058 -5.6799083 -68.910774 -200 45 -200 45 -200 45
3515710151.6919 -5.6773038 -69.018555 -200 45 -200 45 -200 45
3516710268.3781 -5.6739779 -69.171806 -200 45 -200 45 -200 45
3517710385.0642 -5.6778164 -69.299522 -200 45 -200 45 -200 45
3518710501.7503 -5.6713138 -69.391045 -200 45 -200 45 -200 45
3519710618.4364 -5.6585107 -69.491234 -200 45 -200 45 -200 45
3520710735.1225 -5.6384645 -69.624496 -200 45 -200 45 -200 45
3521710851.8086 -5.6240921 -69.764549 -200 45 -200 45 -200 45
3522710968.4947 -5.6121616 -69.854866 -200 45 -200 45 -200 45
3523711085.1809 -5.5963182 -69.972198 -200 45 -200 45 -200 45
3524711201.867 -5.5801291 -70.099083 -200 45 -200 45 -200 45
3525711318.5531 -5.5743766 -70.161057 -200 45 -200 45 -200 45
3526711435.2392 -5.5694766 -70.231651 -200 45 -200 45 -200 45
3527711551.9253 -5.5614567 -70.271858 -200 45 -200 45 -200 45
3528711668.6114 -5.5567975 -70.30407 -200 45 -200 45 -200 45
3529711785.2975 -5.5477262 -70.335205 -200 45 -200 45 -200 45
3530711901.9837 -5.5296617 -70.363976 -200 45 -200 45 -200 45
3531712018.6698 -5.5101185 -70.373062 -200 45 -200 45 -200 45
3532712135.3559 -5.4928126 -70.375862 -200 45 -200 45 -200 45
3533712252.042 -5.4828343 -70.402237 -200 45 -200 45 -200 45
3534712368.7281 -5.4688864 -70.413391 -200 45 -200 45 -200 45
3535712485.4142 -5.4505601 -70.391708 -200 45 -200 45 -200 45
3536712602.1004 -5.4290533 -70.427879 -200 45 -200 45 -200 45
3537712718.7865 -5.4058671 -70.440475 -200 45 -200 45 -200 45
3538712835.4726 -5.3974767 -70.410553 -200 45 -200 45 -200 45
3539712952.1587 -5.3812656 -70.372726 -200 45 -200 45 -200 45
3540713068.8448 -5.3689508 -70.319855 -200 45 -200 45 -200 45
3541713185.5309 -5.3625431 -70.277008 -200 45 -200 45 -200 45
3542713302.217 -5.3556957 -70.214142 -200 45 -200 45 -200 45
3543713418.9032 -5.3457193 -70.151375 -200 45 -200 45 -200 45
3544713535.5893 -5.3385515 -70.064857 -200 45 -200 45 -200 45
3545713652.2754 -5.3290787 -69.989197 -200 45 -200 45 -200 45
3546713768.9615 -5.3206015 -69.90641 -200 45 -200 45 -200 45
3547713885.6476 -5.3178144 -69.823059 -200 45 -200 45 -200 45
3548714002.3337 -5.3148856 -69.724098 -200 45 -200 45 -200 45
3549714119.0198 -5.3131976 -69.619186 -200 45 -200 45 -200 45
3550714235.706 -5.3086815 -69.534096 -200 45 -200 45 -200 45
3551714352.3921 -5.3035192 -69.413971 -200 45 -200 45 -200 45
3552714469.0782 -5.2960701 -69.331398 -200 45 -200 45 -200 45
3553714585.7643 -5.2922368 -69.211914 -200 45 -200 45 -200 45
3554714702.4504 -5.2977057 -69.128136 -200 45 -200 45 -200 45
3555714819.1365 -5.2978072 -69.010017 -200 45 -200 45 -200 45
3556714935.8226 -5.2937989 -68.923775 -200 45 -200 45 -200 45
3557715052.5088 -5.2950892 -68.841125 -200 45 -200 45 -200 45
3558715169.1949 -5.2981477 -68.728378 -200 45 -200 45 -200 45
3559715285.881 -5.3116636 -68.601471 -200 45 -200 45 -200 45
3560715402.5671 -5.3291793 -68.461479 -200 45 -200 45 -200 45
3561715519.2532 -5.3391886 -68.364571 -200 45 -200 45 -200 45
3562715635.9393 -5.3494515 -68.269493 -200 45 -200 45 -200 45
3563715752.6254 -5.3551431 -68.171066 -200 45 -200 45 -200 45
3564715869.3116 -5.3677506 -68.106339 -200 45 -200 45 -200 45
3565715985.9977 -5.3797131 -68.034714 -200 45 -200 45 -200 45
3566716102.6838 -5.392859 -67.950211 -200 45 -200 45 -200 45
3567716219.3699 -5.3961682 -67.891449 -200 45 -200 45 -200 45
3568716336.056 -5.3961368 -67.863503 -200 45 -200 45 -200 45
3569716452.7421 -5.3987603 -67.868958 -200 45 -200 45 -200 45
3570716569.4282 -5.4069376 -67.866905 -200 45 -200 45 -200 45
3571716686.1144 -5.4417338 -67.751656 -200 45 -200 45 -200 45
3572716802.8005 -5.4587145 -67.718605 -200 45 -200 45 -200 45
3573716919.4866 -5.4745264 -67.700867 -200 45 -200 45 -200 45
3574717036.1727 -5.4973474 -67.664566 -200 45 -200 45 -200 45
3575717152.8588 -5.5111914 -67.68705 -200 45 -200 45 -200 45
3576717269.5449 -5.5296321 -67.696098 -200 45 -200 45 -200 45
3577717386.231 -5.5443597 -67.714203 -200 45 -200 45 -200 45
3578717502.9172 -5.5585093 -67.75351 -200 45 -200 45 -200 45
3579717619.6033 -5.5720015 -67.810135 -200 45 -200 45 -200 45
3580717736.2894 -5.5894012 -67.855827 -200 45 -200 45 -200 45
3581717852.9755 -5.605763 -67.916031 -200 45 -200 45 -200 45
3582717969.6616 -5.6105742 -67.995361 -200 45 -200 45 -200 45
3583718086.3477 -5.6202002 -68.071991 -200 45 -200 45 -200 45
3584718203.0338 -5.6232276 -68.209579 -200 45 -200 45 -200 45
3585718319.72 -5.6384702 -68.292061 -200 45 -200 45 -200 45
3586718436.4061 -5.6532512 -68.37413 -200 45 -200 45 -200 45
3587718553.0922 -5.6656523 -68.498962 -200 45 -200 45 -200 45
3588718669.7783 -5.6689677 -68.635056 -200 45 -200 45 -200 45
3589718786.4644 -5.6759086 -68.788376 -200 45 -200 45 -200 45
3590718903.1505 -5.687387 -68.887871 -200 45 -200 45 -200 45
3591719019.8366 -5.692625 -69.035622 -200 45 -200 45 -200 45
3592719136.5228 -5.7121673 -69.142418 -200 45 -200 45 -200 45
3593719253.2089 -5.7109122 -69.323135 -200 45 -200 45 -200 45
3594719369.895 -5.7122645 -69.458466 -200 45 -200 45 -200 45
3595719486.5811 -5.7166553 -69.610107 -200 45 -200 45 -200 45
3596719603.2672 -5.716702 -69.757378 -200 45 -200 45 -200 45
3597719719.9533 -5.7155399 -69.919022 -200 45 -200 45 -200 45
3598719836.6394 -5.7167802 -70.066803 -200 45 -200 45 -200 45
3599719953.3256 -5.7098455 -70.23687 -200 45 -200 45 -200 45
3600720070.0117 -5.7046595 -70.375824 -200 45 -200 45 -200 45
3601720186.6978 -5.6961241 -70.524536 -200 45 -200 45 -200 45
3602720303.3839 -5.6923876 -70.675018 -200 45 -200 45 -200 45
3603720420.07 -5.6766224 -70.812531 -200 45 -200 45 -200 45
3604720536.7561 -5.6669445 -70.952454 -200 45 -200 45 -200 45
3605720653.4422 -5.6728892 -71.04406 -200 45 -200 45 -200 45
3606720770.1284 -5.6641445 -71.1651 -200 45 -200 45 -200 45
3607720886.8145 -5.6562548 -71.279739 -200 45 -200 45 -200 45
3608721003.5006 -5.6517029 -71.376862 -200 45 -200 45 -200 45
3609721120.1867 -5.6417198 -71.449654 -200 45 -200 45 -200 45
3610721236.8728 -5.6243286 -71.574501 -200 45 -200 45 -200 45
3611721353.5589 -5.6111197 -71.650803 -200 45 -200 45 -200 45
3612721470.245 -5.5996685 -71.710648 -200 45 -200 45 -200 45
3613721586.9312 -5.5930371 -71.774895 -200 45 -200 45 -200 45
3614721703.6173 -5.5808177 -71.826309 -200 45 -200 45 -200 45
3615721820.3034 -5.5614891 -71.866241 -200 45 -200 45 -200 45
3616721936.9895 -5.5387459 -71.924042 -200 45 -200 45 -200 45
3617722053.6756 -5.5153275 -71.961342 -200 45 -200 45 -200 45
3618722170.3617 -5.494277 -71.999413 -200 45 -200 45 -200 45
3619722287.0478 -5.4821658 -72.013084 -200 45 -200 45 -200 45
3620722403.734 -5.4831438 -71.949661 -200 45 -200 45 -200 45
3621722520.4201 -5.475563 -71.928513 -200 45 -200 45 -200 45
3622722637.1062 -5.4678082 -71.884056 -200 45 -200 45 -200 45
3623722753.7923 -5.4565554 -71.846748 -200 45 -200 45 -200 45
3624722870.4784 -5.4498119 -71.793045 -200 45 -200 45 -200 45
3625722987.1645 -5.4409437 -71.756371 -200 45 -200 45 -200 45
3626723103.8506 -5.432075 -71.703285 -200 45 -200 45 -200 45
3627723220.5368 -5.415792 -71.644592 -200 45 -200 45 -200 45
3628723337.2229 -5.4113698 -71.550941 -200 45 -200 45 -200 45
3629723453.909 -5.4071121 -71.475853 -200 45 -200 45 -200 45
3630723570.5951 -5.3991694 -71.389648 -200 45 -200 45 -200 45
3631723687.2812 -5.386704 -71.304413 -200 45 -200 45 -200 45
3632723803.9673 -5.3790007 -71.224129 -200 45 -200 45 -200 45
3633723920.6534 -5.3734055 -71.137665 -200 45 -200 45 -200 45
3634724037.3396 -5.3689446 -71.010353 -200 45 -200 45 -200 45
3635724154.0257 -5.3661594 -70.915375 -200 45 -200 45 -200 45
3636724270.7118 -5.3647709 -70.812614 -200 45 -200 45 -200 45
3637724387.3979 -5.3637691 -70.723892 -200 45 -200 45 -200 45
3638724504.084 -5.3661118 -70.593071 -200 45 -200 45 -200 45
3639724620.7701 -5.3674784 -70.476608 -200 45 -200 45 -200 45
3640724737.4562 -5.3788834 -70.335274 -200 45 -200 45 -200 45
3641724854.1424 -5.3770385 -70.236053 -200 45 -200 45 -200 45
3642724970.8285 -5.3807993 -70.127945 -200 45 -200 45 -200 45
3643725087.5146 -5.3831015 -70.036003 -200 45 -200 45 -200 45
3644725204.2007 -5.3918223 -69.930779 -200 45 -200 45 -200 45
3645725320.8868 -5.404861 -69.810791 -200 45 -200 45 -200 45
3646725437.5729 -5.4144812 -69.700539 -200 45 -200 45 -200 45
3647725554.259 -5.4183946 -69.631241 -200 45 -200 45 -200 45
3648725670.9452 -5.4205947 -69.56147 -200 45 -200 45 -200 45
3649725787.6313 -5.4287696 -69.50441 -200 45 -200 45 -200 45
3650725904.3174 -5.4330387 -69.439507 -200 45 -200 45 -200 45
3651726021.0035 -5.4363608 -69.389534 -200 45 -200 45 -200 45
3652726137.6896 -5.4504437 -69.338486 -200 45 -200 45 -200 45
3653726254.3757 -5.4807053 -69.249924 -200 45 -200 45 -200 45
3654726371.0618 -5.4956465 -69.202354 -200 45 -200 45 -200 45
3655726487.748 -5.5110054 -69.140221 -200 45 -200 45 -200 45
3656726604.4341 -5.5304999 -69.128189 -200 45 -200 45 -200 45
3657726721.1202 -5.545054 -69.096237 -200 45 -200 45 -200 45
3658726837.8063 -5.557292 -69.11171 -200 45 -200 45 -200 45
3659726954.4924 -5.5691261 -69.095268 -200 45 -200 45 -200 45
3660727071.1785 -5.5857177 -69.132332 -200 45 -200 45 -200 45
3661727187.8646 -5.6008534 -69.140884 -200 45 -200 45 -200 45
3662727304.5508 -5.6159329 -69.167786 -200 45 -200 45 -200 45
3663727421.2369 -5.6248631 -69.220055 -200 45 -200 45 -200 45
3664727537.923 -5.6349268 -69.277069 -200 45 -200 45 -200 45
3665727654.6091 -5.6520853 -69.334854 -200 45 -200 45 -200 45
3666727771.2952 -5.6648002 -69.431274 -200 45 -200 45 -200 45
3667727887.9813 -5.6729183 -69.502083 -200 45 -200 45 -200 45
3668728004.6674 -5.6826077 -69.58548 -200 45 -200 45 -200 45
3669728121.3536 -5.694591 -69.702637 -200 45 -200 45 -200 45
3670728238.0397 -5.7063804 -69.80442 -200 45 -200 45 -200 45
3671728354.7258 -5.7258344 -69.885887 -200 45 -200 45 -200 45
3672728471.4119 -5.743721 -69.996674 -200 45 -200 45 -200 45
3673728588.098 -5.7539845 -70.130966 -200 45 -200 45 -200 45
3674728704.7841 -5.7617512 -70.258316 -200 45 -200 45 -200 45
3675728821.4702 -5.7666059 -70.402588 -200 45 -200 45 -200 45
3676728938.1564 -5.7711458 -70.515854 -200 45 -200 45 -200 45
3677729054.8425 -5.7786922 -70.668892 -200 45 -200 45 -200 45
3678729171.5286 -5.7791991 -70.821777 -200 45 -200 45 -200 45
3679729288.2147 -5.7755566 -70.975288 -200 45 -200 45 -200 45
3680729404.9008 -5.7701426 -71.122375 -200 45 -200 45 -200 45
3681729521.5869 -5.7626743 -71.315063 -200 45 -200 45 -200 45
3682729638.273 -5.7551551 -71.485527 -200 45 -200 45 -200 45
3683729754.9592 -5.7408595 -71.723228 -200 45 -200 45 -200 45
3684729871.6453 -5.7204685 -71.914383 -200 45 -200 45 -200 45
3685729988.3314 -5.74512 -71.955399 -200 45 -200 45 -200 45
3686730105.0175 -5.7486153 -72.040985 -200 45 -200 45 -200 45
3687730221.7036 -5.7531166 -72.143311 -200 45 -200 45 -200 45
3688730338.3897 -5.7522979 -72.273293 -200 45 -200 45 -200 45
3689730455.0758 -5.7426224 -72.380356 -200 45 -200 45 -200 45
3690730571.762 -5.7348638 -72.528786 -200 45 -200 45 -200 45
3691730688.4481 -5.7271361 -72.63504 -200 45 -200 45 -200 45
3692730805.1342 -5.7151623 -72.721413 -200 45 -200 45 -200 45
3693730921.8203 -5.7079663 -72.813972 -200 45 -200 45 -200 45
3694731038.5064 -5.7016315 -72.906807 -200 45 -200 45 -200 45
3695731155.1925 -5.6837192 -72.982819 -200 45 -200 45 -200 45
3696731271.8786 -5.6631403 -73.088531 -200 45 -200 45 -200 45
3697731388.5648 -5.6465507 -73.157509 -200 45 -200 45 -200 45
3698731505.2509 -5.6272478 -73.237007 -200 45 -200 45 -200 45
3699731621.937 -5.6204972 -73.241585 -200 45 -200 45 -200 45
3700731738.6231 -5.6022348 -73.307411 -200 45 -200 45 -200 45
3701731855.3092 -5.5878515 -73.319565 -200 45 -200 45 -200 45
3702731971.9953 -5.5793653 -73.310593 -200 45 -200 45 -200 45
3703732088.6814 -5.570786 -73.326355 -200 45 -200 45 -200 45
3704732205.3676 -5.5666952 -73.31205 -200 45 -200 45 -200 45
3705732322.0537 -5.5612855 -73.306763 -200 45 -200 45 -200 45
3706732438.7398 -5.5469623 -73.271194 -200 45 -200 45 -200 45
3707732555.4259 -5.5332961 -73.203011 -200 45 -200 45 -200 45
3708732672.112 -5.5232162 -73.19606 -200 45 -200 45 -200 45
3709732788.7981 -5.5092826 -73.132042 -200 45 -200 45 -200 45
3710732905.4842 -5.4979286 -73.095528 -200 45 -200 45 -200 45
3711733022.1704 -5.479322 -73.049881 -200 45 -200 45 -200 45
3712733138.8565 -5.459013 -73.002907 -200 45 -200 45 -200 45
3713733255.5426 -5.4496222 -72.923637 -200 45 -200 45 -200 45
3714733372.2287 -5.4356647 -72.876366 -200 45 -200 45 -200 45
3715733488.9148 -5.4294958 -72.776375 -200 45 -200 45 -200 45
3716733605.6009 -5.4229012 -72.70594 -200 45 -200 45 -200 45
3717733722.287 -5.4190502 -72.600136 -200 45 -200 45 -200 45
3718733838.9732 -5.4257202 -72.464531 -200 45 -200 45 -200 45
3719733955.6593 -5.4330549 -72.314117 -200 45 -200 45 -200 45
3720734072.3454 -5.4402032 -72.183952 -200 45 -200 45 -200 45
3721734189.0315 -5.439889 -72.100433 -200 45 -200 45 -200 45
3722734305.7176 -5.4402499 -71.975502 -200 45 -200 45 -200 45
3723734422.4037 -5.4404368 -71.858856 -200 45 -200 45 -200 45
3724734539.0898 -5.4484663 -71.767136 -200 45 -200 45 -200 45
3725734655.776 -5.4532127 -71.622429 -200 45 -200 45 -200 45
3726734772.4621 -5.4542847 -71.531242 -200 45 -200 45 -200 45
3727734889.1482 -5.4568353 -71.423599 -200 45 -200 45 -200 45
3728735005.8343 -5.4499426 -71.363831 -200 45 -200 45 -200 45
3729735122.5204 -5.4530735 -71.287659 -200 45 -200 45 -200 45
3730735239.2065 -5.4638824 -71.175697 -200 45 -200 45 -200 45
3731735355.8926 -5.4822097 -71.055222 -200 45 -200 45 -200 45
3732735472.5788 -5.4858613 -70.98304 -200 45 -200 45 -200 45
3733735589.2649 -5.4982457 -70.903458 -200 45 -200 45 -200 45
3734735705.951 -5.5107198 -70.808662 -200 45 -200 45 -200 45
3735735822.6371 -5.530931 -70.748466 -200 45 -200 45 -200 45
3736735939.3232 -5.5501776 -70.643692 -200 45 -200 45 -200 45
3737736056.0093 -5.5643268 -70.613136 -200 45 -200 45 -200 45
3738736172.6954 -5.5761995 -70.551247 -200 45 -200 45 -200 45
3739736289.3816 -5.5935855 -70.529938 -200 45 -200 45 -200 45
3740736406.0677 -5.6088157 -70.495712 -200 45 -200 45 -200 45
3741736522.7538 -5.6214428 -70.479309 -200 45 -200 45 -200 45
3742736639.4399 -5.6372118 -70.495461 -200 45 -200 45 -200 45
3743736756.126 -5.6444626 -70.477127 -200 45 -200 45 -200 45
3744736872.8121 -5.6540685 -70.532494 -200 45 -200 45 -200 45
3745736989.4983 -5.6681633 -70.554153 -200 45 -200 45 -200 45
3746737106.1844 -5.6762204 -70.613556 -200 45 -200 45 -200 45
3747737222.8705 -5.6887612 -70.670288 -200 45 -200 45 -200 45
3748737339.5566 -5.7091742 -70.694809 -200 45 -200 45 -200 45
3749737456.2427 -5.7332616 -70.731293 -200 45 -200 45 -200 45
3750737572.9288 -5.748291 -70.805908 -200 45 -200 45 -200 45
3751737689.6149 -5.7674336 -70.873894 -200 45 -200 45 -200 45
3752737806.3011 -5.7858486 -70.944206 -200 45 -200 45 -200 45
3753737922.9872 -5.7977839 -71.053993 -200 45 -200 45 -200 45
3754738039.6733 -5.8096905 -71.149948 -200 45 -200 45 -200 45
3755738156.3594 -5.8227806 -71.269913 -200 45 -200 45 -200 45
3756738273.0455 -5.8349605 -71.387611 -200 45 -200 45 -200 45
3757738389.7316 -5.8489776 -71.504593 -200 45 -200 45 -200 45
3758738506.4177 -5.8530741 -71.643326 -200 45 -200 45 -200 45
3759738623.1039 -5.8494325 -71.804077 -200 45 -200 45 -200 45
3760738739.79 -5.846293 -71.955986 -200 45 -200 45 -200 45
3761738856.4761 -5.8428564 -72.16246 -200 45 -200 45 -200 45
3762738973.1622 -5.8407793 -72.326103 -200 45 -200 45 -200 45
3763739089.8483 -5.8632059 -72.408737 -200 45 -200 45 -200 45
3764739206.5344 -5.87005 -72.548592 -200 45 -200 45 -200 45
3765739323.2205 -5.8734779 -72.694397 -200 45 -200 45 -200 45
3766739439.9067 -5.8754358 -72.868988 -200 45 -200 45 -200 45
3767739556.5928 -5.8760147 -72.997108 -200 45 -200 45 -200 45
3768739673.2789 -5.8805842 -73.139374 -200 45 -200 45 -200 45
3769739789.965 -5.8809061 -73.299232 -200 45 -200 45 -200 45
3770739906.6511 -5.8753567 -73.45092 -200 45 -200 45 -200 45
3771740023.3372 -5.8705726 -73.578117 -200 45 -200 45 -200 45
3772740140.0233 -5.8653517 -73.718399 -200 45 -200 45 -200 45
3773740256.7095 -5.8515892 -73.851097 -200 45 -200 45 -200 45
3774740373.3956 -5.8409934 -73.990936 -200 45 -200 45 -200 45
3775740490.0817 -5.8249612 -74.11026 -200 45 -200 45 -200 45
3776740606.7678 -5.8135309 -74.242973 -200 45 -200 45 -200 45
3777740723.4539 -5.8074775 -74.30648 -200 45 -200 45 -200 45
3778740840.14 -5.7947378 -74.421501 -200 45 -200 45 -200 45
3779740956.8261 -5.7807608 -74.519119 -200 45 -200 45 -200 45
3780741073.5123 -5.7686977 -74.588531 -200 45 -200 45 -200 45
3781741190.1984 -5.7611504 -74.641182 -200 45 -200 45 -200 45
3782741306.8845 -5.7467275 -74.700722 -200 45 -200 45 -200 45
3783741423.5706 -5.744596 -74.733871 -200 45 -200 45 -200 45
3784741540.2567 -5.7383747 -74.752235 -200 45 -200 45 -200 45
3785741656.9428 -5.7247248 -74.770119 -200 45 -200 45 -200 45
3786741773.6289 -5.7069349 -74.783821 -200 45 -200 45 -200 45
3787741890.3151 -5.6966066 -74.830353 -200 45 -200 45 -200 45
3788742007.0012 -5.6906252 -74.799263 -200 45 -200 45 -200 45
3789742123.6873 -5.6808004 -74.777634 -200 45 -200 45 -200 45
3790742240.3734 -5.6701527 -74.762566 -200 45 -200 45 -200 45
3791742357.0595 -5.6524038 -74.742485 -200 45 -200 45 -200 45
3792742473.7456 -5.6321869 -74.706276 -200 45 -200 45 -200 45
3793742590.4317 -5.6165485 -74.685555 -200 45 -200 45 -200 45
3794742707.1179 -5.6012955 -74.672295 -200 45 -200 45 -200 45
3795742823.804 -5.6005354 -74.581711 -200 45 -200 45 -200 45
3796742940.4901 -5.60992 -74.467033 -200 45 -200 45 -200 45
3797743057.1762 -5.6037049 -74.343727 -200 45 -200 45 -200 45
3798743173.8623 -5.5973263 -74.275383 -200 45 -200 45 -200 45
3799743290.5484 -5.5967927 -74.185043 -200 45 -200 45 -200 45
3800743407.2345 -5.5967059 -74.072655 -200 45 -200 45 -200 45
3801743523.9207 -5.5928521 -73.975792 -200 45 -200 45 -200 45
3802743640.6068 -5.5896382 -73.875244 -200 45 -200 45 -200 45
3803743757.2929 -5.5902066 -73.761902 -200 45 -200 45 -200 45
3804743873.979 -5.5964956 -73.648064 -200 45 -200 45 -200 45
3805743990.6651 -5.598268 -73.533058 -200 45 -200 45 -200 45
3806744107.3512 -5.5971732 -73.411507 -200 45 -200 45 -200 45
3807744224.0373 -5.596652 -73.335701 -200 45 -200 45 -200 45
3808744340.7235 -5.6046443 -73.231461 -200 45 -200 45 -200 45
3809744457.4096 -5.6097374 -73.130646 -200 45 -200 45 -200 45
3810744574.0957 -5.6182957 -73.028404 -200 45 -200 45 -200 45
3811744690.7818 -5.6235638 -72.924118 -200 45 -200 45 -200 45
3812744807.4679 -5.6278028 -72.824562 -200 45 -200 45 -200 45
3813744924.154 -5.6437845 -72.714073 -200 45 -200 45 -200 45
3814745040.8401 -5.6711411 -72.601868 -200 45 -200 45 -200 45
3815745157.5263 -5.6912875 -72.500641 -200 45 -200 45 -200 45
3816745274.2124 -5.709156 -72.402901 -200 45 -200 45 -200 45
3817745390.8985 -5.7212434 -72.333511 -200 45 -200 45 -200 45
3818745507.5846 -5.7405419 -72.255051 -200 45 -200 45 -200 45
3819745624.2707 -5.757329 -72.179871 -200 45 -200 45 -200 45
3820745740.9568 -5.7854552 -72.109566 -200 45 -200 45 -200 45
3821745857.6429 -5.8082862 -72.06311 -200 45 -200 45 -200 45
3822745974.3291 -5.8319454 -72.035141 -200 45 -200 45 -200 45
3823746091.0152 -5.8509908 -72.02726 -200 45 -200 45 -200 45
3824746207.7013 -5.8656869 -72.033661 -200 45 -200 45 -200 45
3825746324.3874 -5.8988104 -71.993721 -200 45 -200 45 -200 45
3826746441.0735 -5.9260268 -72.025146 -200 45 -200 45 -200 45
3827746557.7596 -5.9561133 -72.033249 -200 45 -200 45 -200 45
3828746674.4457 -5.9958839 -72.027939 -200 45 -200 45 -200 45
3829746791.1319 -6.0336118 -72.058563 -200 45 -200 45 -200 45
3830746907.818 -6.0705414 -72.088776 -200 45 -200 45 -200 45
3831747024.5041 -6.1148477 -72.131317 -200 45 -200 45 -200 45
3832747141.1902 -6.1595049 -72.181953 -200 45 -200 45 -200 45
3833747257.8763 -6.2068348 -72.238701 -200 45 -200 45 -200 45
3834747374.5624 -6.2591133 -72.23938 -200 45 -200 45 -200 45
3835747491.2485 -6.3140197 -72.25811 -200 45 -200 45 -200 45
3836747607.9347 -6.3748298 -72.236572 -200 45 -200 45 -200 45
3837747724.6208 -6.4475474 -72.167252 -200 45 -200 45 -200 45
3838747841.3069 -6.5169621 -72.034027 -200 45 -200 45 -200 45
3839747957.993 -6.586669 -71.783318 -200 45 -200 45 -200 45
3840748074.6791 -6.6597986 -71.394302 -200 45 -200 45 -200 45
3841748191.3652 -6.7114468 -70.855202 -200 45 -200 45 -200 45
3842748308.0513 -6.7452374 -70.140465 -200 45 -200 45 -200 45
3843748424.7375 -6.7269187 -69.388123 -200 45 -200 45 -200 45
3844748541.4236 -6.6718364 -68.679092 -200 45 -200 45 -200 45
3845748658.1097 -6.5859075 -68.187836 -200 45 -200 45 -200 45
3846748774.7958 -6.4748583 -67.94735 -200 45 -200 45 -200 45
3847748891.4819 -6.3697004 -67.926819 -200 45 -200 45 -200 45
3848749008.168 -6.2743859 -68.111313 -200 45 -200 45 -200 45
3849749124.8541 -6.201673 -68.389336 -200 45 -200 45 -200 45
3850749241.5403 -6.1343083 -68.698097 -200 45 -200 45 -200 45
3851749358.2264 -6.0859504 -69.017769 -200 45 -200 45 -200 45
3852749474.9125 -6.0419712 -69.301353 -200 45 -200 45 -200 45
3853749591.5986 -6.0048952 -69.595161 -200 45 -200 45 -200 45
3854749708.2847 -5.9624805 -69.877419 -200 45 -200 45 -200 45
3855749824.9708 -5.9233518 -70.204803 -200 45 -200 45 -200 45
3856749941.6569 -5.8881416 -70.472519 -200 45 -200 45 -200 45
3857750058.3431 -5.862226 -70.788277 -200 45 -200 45 -200 45
3858750175.0292 -5.8417711 -71.075523 -200 45 -200 45 -200 45
3859750291.7153 -5.8215208 -71.30526 -200 45 -200 45 -200 45
3860750408.4014 -5.8036089 -71.542511 -200 45 -200 45 -200 45
3861750525.0875 -5.7862124 -71.76268 -200 45 -200 45 -200 45
3862750641.7736 -5.7718186 -71.95031 -200 45 -200 45 -200 45
3863750758.4597 -5.7602096 -72.071281 -200 45 -200 45 -200 45
3864750875.1459 -5.7393932 -72.200455 -200 45 -200 45 -200 45
3865750991.832 -5.7182078 -72.264023 -200 45 -200 45 -200 45
3866751108.5181 -5.6937222 -72.324883 -200 45 -200 45 -200 45
3867751225.2042 -5.6682277 -72.399719 -200 45 -200 45 -200 45
3868751341.8903 -5.6457372 -72.470543 -200 45 -200 45 -200 45
3869751458.5764 -5.6176505 -72.508575 -200 45 -200 45 -200 45
3870751575.2625 -5.5818024 -72.579208 -200 45 -200 45 -200 45
3871751691.9487 -5.5439763 -72.63588 -200 45 -200 45 -200 45
3872751808.6348 -5.5147018 -72.676491 -200 45 -200 45 -200 45
3873751925.3209 -5.4958901 -72.686638 -200 45 -200 45 -200 45
3874752042.007 -5.4700475 -72.659988 -200 45 -200 45 -200 45
3875752158.6931 -5.4374428 -72.611008 -200 45 -200 45 -200 45
3876752275.3792 -5.3967786 -72.61631 -200 45 -200 45 -200 45
3877752392.0653 -5.349916 -72.638588 -200 45 -200 45 -200 45
3878752508.7515 -5.3120265 -72.698631 -200 45 -200 45 -200 45
3879752625.4376 -5.2877955 -72.840324 -200 45 -200 45 -200 45
3880752742.1237 -5.2587514 -72.983765 -200 45 -200 45 -200 45
3881752858.8098 -5.2431564 -73.097939 -200 45 -200 45 -200 45
3882752975.4959 -5.2305908 -73.20784 -200 45 -200 45 -200 45
3883753092.182 -5.2223411 -73.301292 -200 45 -200 45 -200 45
3884753208.8681 -5.2164245 -73.35511 -200 45 -200 45 -200 45
3885753325.5543 -5.2194891 -73.385002 -200 45 -200 45 -200 45
3886753442.2404 -5.2197919 -73.403549 -200 45 -200 45 -200 45
3887753558.9265 -5.2181773 -73.41111 -200 45 -200 45 -200 45
3888753675.6126 -5.2139907 -73.430534 -200 45 -200 45 -200 45
3889753792.2987 -5.2210274 -73.395203 -200 45 -200 45 -200 45
3890753908.9848 -5.2266126 -73.357956 -200 45 -200 45 -200 45
3891754025.6709 -5.2429295 -73.2957 -200 45 -200 45 -200 45
3892754142.3571 -5.2531371 -73.237076 -200 45 -200 45 -200 45
3893754259.0432 -5.264421 -73.156181 -200 45 -200 45 -200 45
3894754375.7293 -5.2824163 -73.070824 -200 45 -200 45 -200 45
3895754492.4154 -5.2912087 -72.990746 -200 45 -200 45 -200 45
3896754609.1015 -5.3065004 -72.911011 -200 45 -200 45 -200 45
3897754725.7876 -5.3184919 -72.844208 -200 45 -200 45 -200 45
3898754842.4737 -5.3292603 -72.746689 -200 45 -200 45 -200 45
3899754959.1599 -5.3461885 -72.661316 -200 45 -200 45 -200 45
3900755075.846 -5.3633204 -72.571472 -200 45 -200 45 -200 45
3901755192.5321 -5.3857689 -72.488464 -200 45 -200 45 -200 45
3902755309.2182 -5.3941135 -72.440094 -200 45 -200 45 -200 45
3903755425.9043 -5.3999872 -72.377747 -200 45 -200 45 -200 45
3904755542.5904 -5.4049616 -72.368805 -200 45 -200 45 -200 45
3905755659.2765 -5.4289188 -72.296616 -200 45 -200 45 -200 45
3906755775.9627 -5.4545274 -72.201721 -200 45 -200 45 -200 45
3907755892.6488 -5.4740424 -72.171318 -200 45 -200 45 -200 45
3908756009.3349 -5.4911847 -72.163857 -200 45 -200 45 -200 45
3909756126.021 -5.5097156 -72.132133 -200 45 -200 45 -200 45
3910756242.7071 -5.5317435 -72.144333 -200 45 -200 45 -200 45
3911756359.3932 -5.5504022 -72.12352 -200 45 -200 45 -200 45
3912756476.0793 -5.5705171 -72.135216 -200 45 -200 45 -200 45
3913756592.7655 -5.5923095 -72.145805 -200 45 -200 45 -200 45
3914756709.4516 -5.6143165 -72.177834 -200 45 -200 45 -200 45
3915756826.1377 -5.6259804 -72.227432 -200 45 -200 45 -200 45
3916756942.8238 -5.6433244 -72.277191 -200 45 -200 45 -200 45
3917757059.5099 -5.6630611 -72.348503 -200 45 -200 45 -200 45
3918757176.196 -5.6804991 -72.404701 -200 45 -200 45 -200 45
3919757292.8821 -5.6932554 -72.488991 -200 45 -200 45 -200 45
3920757409.5683 -5.7074561 -72.589325 -200 45 -200 45 -200 45
3921757526.2544 -5.7221599 -72.70549 -200 45 -200 45 -200 45
3922757642.9405 -5.7403388 -72.811043 -200 45 -200 45 -200 45
3923757759.6266 -5.7573466 -72.926476 -200 45 -200 45 -200 45
3924757876.3127 -5.7640214 -73.070892 -200 45 -200 45 -200 45
3925757992.9988 -5.7835011 -73.183372 -200 45 -200 45 -200 45
3926758109.6849 -5.7953706 -73.330124 -200 45 -200 45 -200 45
3927758226.3711 -5.8151803 -73.464905 -200 45 -200 45 -200 45
3928758343.0572 -5.8258004 -73.608543 -200 45 -200 45 -200 45
3929758459.7433 -5.8292971 -73.770241 -200 45 -200 45 -200 45
3930758576.4294 -5.8383684 -73.943794 -200 45 -200 45 -200 45
3931758693.1155 -5.8476996 -74.097672 -200 45 -200 45 -200 45
3932758809.8016 -5.8592305 -74.273933 -200 45 -200 45 -200 45
3933758926.4877 -5.8655043 -74.437035 -200 45 -200 45 -200 45
3934759043.1739 -5.8662004 -74.616653 -200 45 -200 45 -200 45
3935759159.86 -5.8582888 -74.795357 -200 45 -200 45 -200 45
3936759276.5461 -5.8558064 -74.961563 -200 45 -200 45 -200 45
3937759393.2322 -5.8479271 -75.156303 -200 45 -200 45 -200 45
3938759509.9183 -5.8465571 -75.31192 -200 45 -200 45 -200 45
3939759626.6044 -5.8535962 -75.421822 -200 45 -200 45 -200 45
3940759743.2905 -5.8537307 -75.575096 -200 45 -200 45 -200 45
3941759859.9767 -5.8481355 -75.760132 -200 45 -200 45 -200 45
3942759976.6628 -5.8423629 -75.878967 -200 45 -200 45 -200 45
3943760093.3489 -5.8395076 -76.009521 -200 45 -200 45 -200 45
3944760210.035 -5.8315887 -76.162132 -200 45 -200 45 -200 45
3945760326.7211 -5.8203282 -76.27607 -200 45 -200 45 -200 45
3946760443.4072 -5.8122172 -76.38623 -200 45 -200 45 -200 45
3947760560.0933 -5.8053098 -76.467766 -200 45 -200 45 -200 45
3948760676.7795 -5.8004594 -76.574959 -200 45 -200 45 -200 45
3949760793.4656 -5.7921267 -76.684341 -200 45 -200 45 -200 45
3950760910.1517 -5.7742529 -76.750397 -200 45 -200 45 -200 45
3951761026.8378 -5.7565751 -76.854927 -200 45 -200 45 -200 45
3952761143.5239 -5.7393479 -76.928642 -200 45 -200 45 -200 45
3953761260.21 -5.7294283 -76.948341 -200 45 -200 45 -200 45
3954761376.8961 -5.7178369 -76.998932 -200 45 -200 45 -200 45
3955761493.5823 -5.704071 -77.02858 -200 45 -200 45 -200 45
3956761610.2684 -5.6956754 -77.031113 -200 45 -200 45 -200 45
3957761726.9545 -5.6964884 -77.029984 -200 45 -200 45 -200 45
3958761843.6406 -5.689683 -76.993034 -200 45 -200 45 -200 45
3959761960.3267 -5.6879911 -76.981972 -200 45 -200 45 -200 45
3960762077.0128 -5.686749 -76.916328 -200 45 -200 45 -200 45
3961762193.6989 -5.6812158 -76.875603 -200 45 -200 45 -200 45
3962762310.3851 -5.671217 -76.832039 -200 45 -200 45 -200 45
3963762427.0712 -5.6710467 -76.773277 -200 45 -200 45 -200 45
3964762543.7573 -5.671772 -76.665833 -200 45 -200 45 -200 45
3965762660.4434 -5.6733956 -76.594589 -200 45 -200 45 -200 45
3966762777.1295 -5.6718965 -76.483307 -200 45 -200 45 -200 45
3967762893.8156 -5.665134 -76.378937 -200 45 -200 45 -200 45
3968763010.5018 -5.6631327 -76.254051 -200 45 -200 45 -200 45
3969763127.1879 -5.6674652 -76.090752 -200 45 -200 45 -200 45
3970763243.874 -5.6716752 -75.948677 -200 45 -200 45 -200 45
3971763360.5601 -5.6800432 -75.740105 -200 45 -200 45 -200 45
3972763477.2462 -5.7069674 -75.437782 -200 45 -200 45 -200 45
3973763593.9323 -5.7136631 -75.174637 -200 45 -200 45 -200 45
3974763710.6184 -5.7160664 -74.892189 -200 45 -200 45 -200 45
3975763827.3046 -5.7176104 -74.553795 -200 45 -200 45 -200 45
3976763943.9907 -5.7150941 -74.238396 -200 45 -200 45 -200 45
3977764060.6768 -5.6976061 -73.953865 -200 45 -200 45 -200 45
3978764177.3629 -5.6838856 -73.691376 -200 45 -200 45 -200 45
3979764294.049 -5.6648908 -73.475655 -200 45 -200 45 -200 45
3980764410.7351 -5.651926 -73.284508 -200 45 -200 45 -200 45
3981764527.4212 -5.6397119 -73.131355 -200 45 -200 45 -200 45
3982764644.1074 -5.6269703 -72.985954 -200 45 -200 45 -200 45
3983764760.7935 -5.605649 -72.906387 -200 45 -200 45 -200 45
3984764877.4796 -5.5998254 -72.813919 -200 45 -200 45 -200 45
3985764994.1657 -5.598597 -72.749832 -200 45 -200 45 -200 45
3986765110.8518 -5.5924335 -72.670143 -200 45 -200 45 -200 45
3987765227.5379 -5.5882001 -72.626274 -200 45 -200 45 -200 45
3988765344.224 -5.5886192 -72.567276 -200 45 -200 45 -200 45
3989765460.9102 -5.5970945 -72.512421 -200 45 -200 45 -200 45
3990765577.5963 -5.6079779 -72.436852 -200 45 -200 45 -200 45
3991765694.2824 -5.6222205 -72.387413 -200 45 -200 45 -200 45
3992765810.9685 -5.6347947 -72.353569 -200 45 -200 45 -200 45
3993765927.6546 -5.6456532 -72.335564 -200 45 -200 45 -200 45
3994766044.3407 -5.6462278 -72.334587 -200 45 -200 45 -200 45
3995766161.0268 -5.6531734 -72.340256 -200 45 -200 45 -200 45
3996766277.713 -5.6627793 -72.366173 -200 45 -200 45 -200 45
3997766394.3991 -5.6749983 -72.399796 -200 45 -200 45 -200 45
3998766511.0852 -5.6802101 -72.451454 -200 45 -200 45 -200 45
3999766627.7713 -5.6829243 -72.528435 -200 45 -200 45 -200 45
4000766744.4574 -5.6915445 -72.619812 -200 45 -200 45 -200 45
4001766861.1435 -5.7026587 -72.685013 -200 45 -200 45 -200 45
4002766977.8296 -5.7079754 -72.820114 -200 45 -200 45 -200 45
4003767094.5158 -5.7058668 -72.980309 -200 45 -200 45 -200 45
4004767211.2019 -5.710187 -73.115959 -200 45 -200 45 -200 45
4005767327.888 -5.7531929 -73.093163 -200 45 -200 45 -200 45
4006767444.5741 -5.7736115 -73.178627 -200 45 -200 45 -200 45
4007767561.2602 -5.7885628 -73.320969 -200 45 -200 45 -200 45
4008767677.9463 -5.7959213 -73.450027 -200 45 -200 45 -200 45
4009767794.6324 -5.7997217 -73.637024 -200 45 -200 45 -200 45
4010767911.3186 -5.8066893 -73.808723 -200 45 -200 45 -200 45
4011768028.0047 -5.8101063 -74.010384 -200 45 -200 45 -200 45
4012768144.6908 -5.8237171 -74.223854 -200 45 -200 45 -200 45
4013768261.3769 -5.8320618 -74.436157 -200 45 -200 45 -200 45
4014768378.063 -5.8345761 -74.666786 -200 45 -200 45 -200 45
4015768494.7491 -5.8302827 -74.90715 -200 45 -200 45 -200 45
4016768611.4352 -5.8477159 -75.109512 -200 45 -200 45 -200 45
4017768728.1214 -5.8535395 -75.305763 -200 45 -200 45 -200 45
4018768844.8075 -5.8663869 -75.522606 -200 45 -200 45 -200 45
4019768961.4936 -5.8687763 -75.727295 -200 45 -200 45 -200 45
4020769078.1797 -5.8756895 -75.925705 -200 45 -200 45 -200 45
4021769194.8658 -5.8845263 -76.128235 -200 45 -200 45 -200 45
4022769311.5519 -5.8958602 -76.254593 -200 45 -200 45 -200 45
4023769428.238 -5.9057837 -76.468079 -200 45 -200 45 -200 45
4024769544.9242 -5.9109316 -76.614494 -200 45 -200 45 -200 45
4025769661.6103 -5.9135408 -76.772331 -200 45 -200 45 -200 45
4026769778.2964 -5.9154611 -76.911858 -200 45 -200 45 -200 45
4027769894.9825 -5.9221649 -77.037254 -200 45 -200 45 -200 45
4028770011.6686 -5.9274802 -77.158264 -200 45 -200 45 -200 45
4029770128.3547 -5.9289637 -77.235001 -200 45 -200 45 -200 45
4030770245.0408 -5.9292803 -77.303528 -200 45 -200 45 -200 45
4031770361.727 -5.9328766 -77.358124 -200 45 -200 45 -200 45
4032770478.4131 -5.9328923 -77.335358 -200 45 -200 45 -200 45
4033770595.0992 -5.9371333 -77.292061 -200 45 -200 45 -200 45
4034770711.7853 -5.9327359 -77.156258 -200 45 -200 45 -200 45
4035770828.4714 -5.9188476 -77.018875 -200 45 -200 45 -200 45
4036770945.1575 -5.8974686 -76.833618 -200 45 -200 45 -200 45
4037771061.8436 -5.8655529 -76.665421 -200 45 -200 45 -200 45
4038771178.5298 -5.8324628 -76.537109 -200 45 -200 45 -200 45
4039771295.2159 -5.789257 -76.457664 -200 45 -200 45 -200 45
4040771411.902 -5.7521324 -76.424049 -200 45 -200 45 -200 45
4041771528.5881 -5.7101245 -76.420334 -200 45 -200 45 -200 45
4042771645.2742 -5.6701722 -76.452965 -200 45 -200 45 -200 45
4043771761.9603 -5.6412611 -76.510681 -200 45 -200 45 -200 45
4044771878.6464 -5.6138349 -76.561783 -200 45 -200 45 -200 45
4045771995.3326 -5.5927262 -76.570755 -200 45 -200 45 -200 45
4046772112.0187 -5.5646739 -76.581734 -200 45 -200 45 -200 45
4047772228.7048 -5.5420103 -76.58551 -200 45 -200 45 -200 45
4048772345.3909 -5.516458 -76.640198 -200 45 -200 45 -200 45
4049772462.077 -5.5128241 -76.550896 -200 45 -200 45 -200 45
4050772578.7631 -5.51054 -76.440552 -200 45 -200 45 -200 45
4051772695.4492 -5.5005879 -76.34903 -200 45 -200 45 -200 45
4052772812.1354 -5.4918227 -76.273285 -200 45 -200 45 -200 45
4053772928.8215 -5.4773278 -76.173218 -200 45 -200 45 -200 45
4054773045.5076 -5.4735012 -76.060799 -200 45 -200 45 -200 45
4055773162.1937 -5.4677858 -75.967438 -200 45 -200 45 -200 45
4056773278.8798 -5.4531484 -75.874176 -200 45 -200 45 -200 45
4057773395.5659 -5.4452324 -75.797073 -200 45 -200 45 -200 45
4058773512.252 -5.4399943 -75.667816 -200 45 -200 45 -200 45
4059773628.9382 -5.4358902 -75.548508 -200 45 -200 45 -200 45
4060773745.6243 -5.4301295 -75.477829 -200 45 -200 45 -200 45
4061773862.3104 -5.42838 -75.368782 -200 45 -200 45 -200 45
4062773978.9965 -5.4221044 -75.263306 -200 45 -200 45 -200 45
4063774095.6826 -5.4212065 -75.178207 -200 45 -200 45 -200 45
4064774212.3687 -5.4171481 -75.104095 -200 45 -200 45 -200 45
4065774329.0548 -5.4161048 -75.006493 -200 45 -200 45 -200 45
4066774445.741 -5.4234595 -74.920128 -200 45 -200 45 -200 45
4067774562.4271 -5.4255834 -74.886215 -200 45 -200 45 -200 45
4068774679.1132 -5.434113 -74.79557 -200 45 -200 45 -200 45
4069774795.7993 -5.4459372 -74.746155 -200 45 -200 45 -200 45
4070774912.4854 -5.4606438 -74.707733 -200 45 -200 45 -200 45
4071775029.1715 -5.4745831 -74.639259 -200 45 -200 45 -200 45
4072775145.8576 -5.4865079 -74.605728 -200 45 -200 45 -200 45
4073775262.5438 -5.5029249 -74.56591 -200 45 -200 45 -200 45
4074775379.2299 -5.5141759 -74.545013 -200 45 -200 45 -200 45
4075775495.916 -5.5391889 -74.515053 -200 45 -200 45 -200 45
4076775612.6021 -5.5590005 -74.473351 -200 45 -200 45 -200 45
4077775729.2882 -5.5777297 -74.447311 -200 45 -200 45 -200 45
4078775845.9743 -5.5870385 -74.466866 -200 45 -200 45 -200 45
4079775962.6604 -5.6086526 -74.459114 -200 45 -200 45 -200 45
4080776079.3466 -5.6255436 -74.452324 -200 45 -200 45 -200 45
4081776196.0327 -5.6418991 -74.479088 -200 45 -200 45 -200 45
4082776312.7188 -5.6583166 -74.522873 -200 45 -200 45 -200 45
4083776429.4049 -5.680665 -74.541695 -200 45 -200 45 -200 45
4084776546.091 -5.6981907 -74.58387 -200 45 -200 45 -200 45
4085776662.7771 -5.7183461 -74.642784 -200 45 -200 45 -200 45
4086776779.4632 -5.7411361 -74.682297 -200 45 -200 45 -200 45
4087776896.1494 -5.7615347 -74.760338 -200 45 -200 45 -200 45
4088777012.8355 -5.7746272 -74.862183 -200 45 -200 45 -200 45
4089777129.5216 -5.7918043 -74.937798 -200 45 -200 45 -200 45
4090777246.2077 -5.800971 -75.055504 -200 45 -200 45 -200 45
4091777362.8938 -5.8210416 -75.172188 -200 45 -200 45 -200 45
4092777479.5799 -5.8331003 -75.278206 -200 45 -200 45 -200 45
4093777596.266 -5.8439627 -75.424744 -200 45 -200 45 -200 45
4094777712.9522 -5.8550601 -75.549973 -200 45 -200 45 -200 45
4095777829.6383 -5.8668752 -75.708122 -200 45 -200 45 -200 45
4096777946.3244 -5.8761325 -75.870689 -200 45 -200 45 -200 45
4097778063.0105 -5.8857822 -76.009399 -200 45 -200 45 -200 45
4098778179.6966 -5.8867426 -76.181961 -200 45 -200 45 -200 45
4099778296.3827 -5.8939238 -76.357002 -200 45 -200 45 -200 45
4100778413.0688 -5.900341 -76.500786 -200 45 -200 45 -200 45
4101778529.755 -5.9075885 -76.675941 -200 45 -200 45 -200 45
4102778646.4411 -5.9126377 -76.844208 -200 45 -200 45 -200 45
4103778763.1272 -5.9139719 -77.00766 -200 45 -200 45 -200 45
4104778879.8133 -5.9144335 -77.179291 -200 45 -200 45 -200 45
4105778996.4994 -5.9122477 -77.326508 -200 45 -200 45 -200 45
4106779113.1855 -5.911921 -77.520325 -200 45 -200 45 -200 45
4107779229.8716 -5.9061661 -77.666489 -200 45 -200 45 -200 45
4108779346.5578 -5.9054999 -77.827812 -200 45 -200 45 -200 45
4109779463.2439 -5.8978806 -77.985443 -200 45 -200 45 -200 45
4110779579.93 -5.8811898 -78.130959 -200 45 -200 45 -200 45
4111779696.6161 -5.864728 -78.318039 -200 45 -200 45 -200 45
4112779813.3022 -5.8666844 -78.413849 -200 45 -200 45 -200 45
4113779929.9883 -5.8590913 -78.536026 -200 45 -200 45 -200 45
4114780046.6744 -5.8469663 -78.662323 -200 45 -200 45 -200 45
4115780163.3606 -5.832427 -78.764114 -200 45 -200 45 -200 45
4116780280.0467 -5.8236551 -78.852394 -200 45 -200 45 -200 45
4117780396.7328 -5.8085785 -78.954933 -200 45 -200 45 -200 45
4118780513.4189 -5.7959971 -79.015762 -200 45 -200 45 -200 45
4119780630.105 -5.7844806 -79.081505 -200 45 -200 45 -200 45
4120780746.7911 -5.7689362 -79.140976 -200 45 -200 45 -200 45
4121780863.4772 -5.7589836 -79.193207 -200 45 -200 45 -200 45
4122780980.1634 -5.7401829 -79.200584 -200 45 -200 45 -200 45
4123781096.8495 -5.7311087 -79.244514 -200 45 -200 45 -200 45
4124781213.5356 -5.7164121 -79.26162 -200 45 -200 45 -200 45
4125781330.2217 -5.6992569 -79.236275 -200 45 -200 45 -200 45
4126781446.9078 -5.6779532 -79.260017 -200 45 -200 45 -200 45
4127781563.5939 -5.6654816 -79.214806 -200 45 -200 45 -200 45
4128781680.28 -5.6530495 -79.184273 -200 45 -200 45 -200 45
4129781796.9662 -5.6416373 -79.152847 -200 45 -200 45 -200 45
4130781913.6523 -5.6277905 -79.090515 -200 45 -200 45 -200 45
4131782030.3384 -5.6154461 -79.015419 -200 45 -200 45 -200 45
4132782147.0245 -5.6066194 -78.940605 -200 45 -200 45 -200 45
4133782263.7106 -5.593205 -78.872482 -200 45 -200 45 -200 45
4134782380.3967 -5.5906444 -78.782547 -200 45 -200 45 -200 45
4135782497.0828 -5.5794764 -78.675865 -200 45 -200 45 -200 45
4136782613.769 -5.5700707 -78.57692 -200 45 -200 45 -200 45
4137782730.4551 -5.5633607 -78.488663 -200 45 -200 45 -200 45
4138782847.1412 -5.5563455 -78.355263 -200 45 -200 45 -200 45
4139782963.8273 -5.5562005 -78.245804 -200 45 -200 45 -200 45
4140783080.5134 -5.5480542 -78.103912 -200 45 -200 45 -200 45
4141783197.1995 -5.5462828 -77.99099 -200 45 -200 45 -200 45
4142783313.8856 -5.5325575 -77.896294 -200 45 -200 45 -200 45
4143783430.5718 -5.5242004 -77.782471 -200 45 -200 45 -200 45
4144783547.2579 -5.5287967 -77.641319 -200 45 -200 45 -200 45
4145783663.944 -5.5272617 -77.535179 -200 45 -200 45 -200 45
4146783780.6301 -5.5382886 -77.356773 -200 45 -200 45 -200 45
4147783897.3162 -5.5484838 -77.213387 -200 45 -200 45 -200 45
4148784014.0023 -5.5537643 -77.074242 -200 45 -200 45 -200 45
4149784130.6884 -5.5637493 -76.935417 -200 45 -200 45 -200 45
4150784247.3746 -5.5726886 -76.834961 -200 45 -200 45 -200 45
4151784364.0607 -5.5780897 -76.698387 -200 45 -200 45 -200 45
4152784480.7468 -5.5912504 -76.596901 -200 45 -200 45 -200 45
4153784597.4329 -5.5983329 -76.47448 -200 45 -200 45 -200 45
4154784714.119 -5.6104641 -76.382645 -200 45 -200 45 -200 45
4155784830.8051 -5.6280274 -76.284752 -200 45 -200 45 -200 45
4156784947.4912 -5.6427526 -76.19294 -200 45 -200 45 -200 45
4157785064.1774 -5.6546717 -76.120872 -200 45 -200 45 -200 45
4158785180.8635 -5.6634488 -76.057236 -200 45 -200 45 -200 45
4159785297.5496 -5.6813984 -75.962677 -200 45 -200 45 -200 45
4160785414.2357 -5.698935 -75.932358 -200 45 -200 45 -200 45
4161785530.9218 -5.7156196 -75.875618 -200 45 -200 45 -200 45
4162785647.6079 -5.7330995 -75.842575 -200 45 -200 45 -200 45
4163785764.294 -5.7510595 -75.834297 -200 45 -200 45 -200 45
4164785880.9802 -5.7709675 -75.813965 -200 45 -200 45 -200 45
4165785997.6663 -5.7875214 -75.821907 -200 45 -200 45 -200 45
4166786114.3524 -5.8124199 -75.824646 -200 45 -200 45 -200 45
4167786231.0385 -5.8341413 -75.851463 -200 45 -200 45 -200 45
4168786347.7246 -5.8526888 -75.869347 -200 45 -200 45 -200 45
4169786464.4107 -5.8637133 -75.930672 -200 45 -200 45 -200 45
4170786581.0968 -5.886765 -75.984482 -200 45 -200 45 -200 45
4171786697.783 -5.9059501 -76.061317 -200 45 -200 45 -200 45
4172786814.4691 -5.9197474 -76.13266 -200 45 -200 45 -200 45
4173786931.1552 -5.936841 -76.230141 -200 45 -200 45 -200 45
4174787047.8413 -5.9505982 -76.334282 -200 45 -200 45 -200 45
4175787164.5274 -5.9615269 -76.455086 -200 45 -200 45 -200 45
4176787281.2135 -5.9694185 -76.590134 -200 45 -200 45 -200 45
4177787397.8997 -5.9925408 -76.691231 -200 45 -200 45 -200 45
4178787514.5858 -6.0036092 -76.846901 -200 45 -200 45 -200 45
4179787631.2719 -6.0102258 -77.013184 -200 45 -200 45 -200 45
4180787747.958 -6.0417819 -77.094398 -200 45 -200 45 -200 45
4181787864.6441 -6.0564113 -77.238693 -200 45 -200 45 -200 45
4182787981.3302 -6.0671215 -77.409782 -200 45 -200 45 -200 45
4183788098.0163 -6.076633 -77.56974 -200 45 -200 45 -200 45
4184788214.7025 -6.0818028 -77.740601 -200 45 -200 45 -200 45
4185788331.3886 -6.092833 -77.908707 -200 45 -200 45 -200 45
4186788448.0747 -6.1004 -78.069412 -200 45 -200 45 -200 45
4187788564.7608 -6.1117311 -78.216255 -200 45 -200 45 -200 45
4188788681.4469 -6.1150331 -78.37587 -200 45 -200 45 -200 45
4189788798.133 -6.1194148 -78.525604 -200 45 -200 45 -200 45
4190788914.8191 -6.1140733 -78.702209 -200 45 -200 45 -200 45
4191789031.5053 -6.1107078 -78.876907 -200 45 -200 45 -200 45
4192789148.1914 -6.1077819 -79.019295 -200 45 -200 45 -200 45
4193789264.8775 -6.1175575 -79.118561 -200 45 -200 45 -200 45
4194789381.5636 -6.1134644 -79.22876 -200 45 -200 45 -200 45
4195789498.2497 -6.1154852 -79.333778 -200 45 -200 45 -200 45
4196789614.9358 -6.1136465 -79.399696 -200 45 -200 45 -200 45
4197789731.6219 -6.108707 -79.469742 -200 45 -200 45 -200 45
4198789848.3081 -6.1082172 -79.517754 -200 45 -200 45 -200 45
4199789964.9942 -6.1068206 -79.504967 -200 45 -200 45 -200 45
4200790081.6803 -6.0939713 -79.498817 -200 45 -200 45 -200 45
4201790198.3664 -6.085288 -79.485977 -200 45 -200 45 -200 45
4202790315.0525 -6.066731 -79.411064 -200 45 -200 45 -200 45
4203790431.7386 -6.0429983 -79.334625 -200 45 -200 45 -200 45
4204790548.4247 -6.0097198 -79.24498 -200 45 -200 45 -200 45
4205790665.1109 -5.9744987 -79.145111 -200 45 -200 45 -200 45
4206790781.797 -5.9334998 -79.099777 -200 45 -200 45 -200 45
4207790898.4831 -5.8912563 -79.039345 -200 45 -200 45 -200 45
4208791015.1692 -5.8454843 -79.046005 -200 45 -200 45 -200 45
4209791131.8553 -5.7978883 -79.039574 -200 45 -200 45 -200 45
4210791248.5414 -5.7627764 -79.079933 -200 45 -200 45 -200 45
4211791365.2275 -5.7310319 -79.087418 -200 45 -200 45 -200 45
4212791481.9137 -5.7005577 -79.097168 -200 45 -200 45 -200 45
4213791598.5998 -5.6750669 -79.112373 -200 45 -200 45 -200 45
4214791715.2859 -5.6604071 -79.095711 -200 45 -200 45 -200 45
4215791831.972 -5.6340446 -79.11013 -200 45 -200 45 -200 45
4216791948.6581 -5.6113129 -79.082458 -200 45 -200 45 -200 45
4217792065.3442 -5.5913687 -79.057724 -200 45 -200 45 -200 45
4218792182.0303 -5.576139 -79.05426 -200 45 -200 45 -200 45
4219792298.7165 -5.5658665 -78.977097 -200 45 -200 45 -200 45
4220792415.4026 -5.5541811 -78.930176 -200 45 -200 45 -200 45
4221792532.0887 -5.5355954 -78.860489 -200 45 -200 45 -200 45
4222792648.7748 -5.5191078 -78.819473 -200 45 -200 45 -200 45
4223792765.4609 -5.5013709 -78.777222 -200 45 -200 45 -200 45
4224792882.147 -5.4986682 -78.677979 -200 45 -200 45 -200 45
4225792998.8331 -5.4978771 -78.600479 -200 45 -200 45 -200 45
4226793115.5193 -5.4990244 -78.495888 -200 45 -200 45 -200 45
4227793232.2054 -5.4978642 -78.396484 -200 45 -200 45 -200 45
4228793348.8915 -5.4999638 -78.285706 -200 45 -200 45 -200 45
4229793465.5776 -5.497129 -78.191658 -200 45 -200 45 -200 45
4230793582.2637 -5.507319 -78.077324 -200 45 -200 45 -200 45
4231793698.9498 -5.5127563 -77.952377 -200 45 -200 45 -200 45
4232793815.6359 -5.518486 -77.849365 -200 45 -200 45 -200 45
4233793932.3221 -5.5224137 -77.708717 -200 45 -200 45 -200 45
4234794049.0082 -5.5264206 -77.621605 -200 45 -200 45 -200 45
4235794165.6943 -5.5416532 -77.493759 -200 45 -200 45 -200 45
4236794282.3804 -5.5484514 -77.3881 -200 45 -200 45 -200 45
4237794399.0665 -5.5541997 -77.293358 -200 45 -200 45 -200 45
4238794515.7526 -5.564105 -77.18647 -200 45 -200 45 -200 45
4239794632.4387 -5.5740676 -77.097542 -200 45 -200 45 -200 45
4240794749.1249 -5.591764 -77.008842 -200 45 -200 45 -200 45
4241794865.811 -5.6015596 -76.922508 -200 45 -200 45 -200 45
4242794982.4971 -5.6089134 -76.884872 -200 45 -200 45 -200 45
4243795099.1832 -5.6191096 -76.8302 -200 45 -200 45 -200 45
4244795215.8693 -5.6386724 -76.784309 -200 45 -200 45 -200 45
4245795332.5554 -5.6608834 -76.696655 -200 45 -200 45 -200 45
4246795449.2415 -5.6933022 -76.650978 -200 45 -200 45 -200 45
4247795565.9277 -5.7147369 -76.603119 -200 45 -200 45 -200 45
4248795682.6138 -5.7289987 -76.601303 -200 45 -200 45 -200 45
4249795799.2999 -5.7438974 -76.592278 -200 45 -200 45 -200 45
4250795915.986 -5.7664542 -76.620773 -200 45 -200 45 -200 45
4251796032.6721 -5.7833443 -76.612831 -200 45 -200 45 -200 45
4252796149.3582 -5.8045297 -76.630203 -200 45 -200 45 -200 45
4253796266.0443 -5.8251038 -76.681503 -200 45 -200 45 -200 45
4254796382.7305 -5.8369751 -76.744148 -200 45 -200 45 -200 45
4255796499.4166 -5.8462071 -76.847855 -200 45 -200 45 -200 45
4256796616.1027 -5.8652687 -76.919456 -200 45 -200 45 -200 45
4257796732.7888 -5.8846335 -76.98996 -200 45 -200 45 -200 45
4258796849.4749 -5.8968163 -77.120163 -200 45 -200 45 -200 45
4259796966.161 -5.9199877 -77.202568 -200 45 -200 45 -200 45
4260797082.8471 -5.9418492 -77.312035 -200 45 -200 45 -200 45
4261797199.5333 -5.9551239 -77.429092 -200 45 -200 45 -200 45
4262797316.2194 -5.9746323 -77.572952 -200 45 -200 45 -200 45
4263797432.9055 -5.9854064 -77.693077 -200 45 -200 45 -200 45
4264797549.5916 -5.9994826 -77.857674 -200 45 -200 45 -200 45
4265797666.2777 -6.0096507 -78.048065 -200 45 -200 45 -200 45
4266797782.9638 -6.0151477 -78.210205 -200 45 -200 45 -200 45
4267797899.6499 -6.0272851 -78.378761 -200 45 -200 45 -200 45
4268798016.3361 -6.0318103 -78.559105 -200 45 -200 45 -200 45
4269798133.0222 -6.0369444 -78.727463 -200 45 -200 45 -200 45
4270798249.7083 -6.0296345 -78.92321 -200 45 -200 45 -200 45
4271798366.3944 -6.0297189 -79.111855 -200 45 -200 45 -200 45
4272798483.0805 -6.0323462 -79.298271 -200 45 -200 45 -200 45
4273798599.7666 -6.0273237 -79.487595 -200 45 -200 45 -200 45
4274798716.4527 -6.019136 -79.683594 -200 45 -200 45 -200 45
4275798833.1389 -6.010797 -79.856773 -200 45 -200 45 -200 45
4276798949.825 -6.0051136 -80.059685 -200 45 -200 45 -200 45
4277799066.5111 -6.0070682 -80.212906 -200 45 -200 45 -200 45
4278799183.1972 -6.0085788 -80.345589 -200 45 -200 45 -200 45
4279799299.8833 -6.0036602 -80.500381 -200 45 -200 45 -200 45
4280799416.5694 -5.9953361 -80.652786 -200 45 -200 45 -200 45
4281799533.2555 -5.9827666 -80.793648 -200 45 -200 45 -200 45
4282799649.9417 -5.9671712 -80.914474 -200 45 -200 45 -200 45
4283799766.6278 -5.9594297 -81.06324 -200 45 -200 45 -200 45
4284799883.3139 -5.9493423 -81.162392 -200 45 -200 45 -200 45
4285800000 -5.9329839 -81.246498 -200 45 -200 45 -200 45
4286800116.6861 -5.9064288 -81.347092 -200 45 -200 45 -200 45
4287800233.3722 -5.8845639 -81.469093 -200 45 -200 45 -200 45
4288800350.0583 -5.86975 -81.524345 -200 45 -200 45 -200 45
4289800466.7445 -5.8463516 -81.592606 -200 45 -200 45 -200 45
4290800583.4306 -5.8336163 -81.646553 -200 45 -200 45 -200 45
4291800700.1167 -5.8063259 -81.685394 -200 45 -200 45 -200 45
4292800816.8028 -5.7956953 -81.686897 -200 45 -200 45 -200 45
4293800933.4889 -5.7917752 -81.674011 -200 45 -200 45 -200 45
4294801050.175 -5.7827978 -81.668015 -200 45 -200 45 -200 45
4295801166.8611 -5.7673497 -81.644646 -200 45 -200 45 -200 45
4296801283.5473 -5.7491484 -81.620522 -200 45 -200 45 -200 45
4297801400.2334 -5.7367005 -81.586792 -200 45 -200 45 -200 45
4298801516.9195 -5.7201428 -81.524323 -200 45 -200 45 -200 45
4299801633.6056 -5.7044315 -81.512474 -200 45 -200 45 -200 45
4300801750.2917 -5.6936994 -81.405823 -200 45 -200 45 -200 45
4301801866.9778 -5.6750965 -81.345215 -200 45 -200 45 -200 45
4302801983.6639 -5.6499367 -81.26297 -200 45 -200 45 -200 45
4303802100.3501 -5.6291862 -81.243515 -200 45 -200 45 -200 45
4304802217.0362 -5.6366491 -81.084145 -200 45 -200 45 -200 45
4305802333.7223 -5.6219268 -80.97007 -200 45 -200 45 -200 45
4306802450.4084 -5.6131353 -80.847145 -200 45 -200 45 -200 45
4307802567.0945 -5.6061869 -80.715752 -200 45 -200 45 -200 45
4308802683.7806 -5.6027341 -80.577469 -200 45 -200 45 -200 45
4309802800.4667 -5.6035681 -80.436836 -200 45 -200 45 -200 45
4310802917.1529 -5.6071086 -80.280975 -200 45 -200 45 -200 45
4311803033.839 -5.6131182 -80.130798 -200 45 -200 45 -200 45
4312803150.5251 -5.6067886 -79.984444 -200 45 -200 45 -200 45
4313803267.2112 -5.6086855 -79.849228 -200 45 -200 45 -200 45
4314803383.8973 -5.6128263 -79.680267 -200 45 -200 45 -200 45
4315803500.5834 -5.617228 -79.551865 -200 45 -200 45 -200 45
4316803617.2695 -5.6238647 -79.409218 -200 45 -200 45 -200 45
4317803733.9557 -5.6293454 -79.259071 -200 45 -200 45 -200 45
4318803850.6418 -5.6315894 -79.129768 -200 45 -200 45 -200 45
4319803967.3279 -5.6332283 -79.019569 -200 45 -200 45 -200 45
4320804084.014 -5.6395717 -78.896629 -200 45 -200 45 -200 45
4321804200.7001 -5.6502695 -78.771355 -200 45 -200 45 -200 45
4322804317.3862 -5.6620326 -78.654213 -200 45 -200 45 -200 45
4323804434.0723 -5.6802559 -78.517036 -200 45 -200 45 -200 45
4324804550.7585 -5.6971641 -78.406181 -200 45 -200 45 -200 45
4325804667.4446 -5.7114315 -78.30394 -200 45 -200 45 -200 45
4326804784.1307 -5.7339091 -78.210701 -200 45 -200 45 -200 45
4327804900.8168 -5.7553453 -78.130959 -200 45 -200 45 -200 45
4328805017.5029 -5.7733016 -78.065941 -200 45 -200 45 -200 45
4329805134.189 -5.7925558 -77.98085 -200 45 -200 45 -200 45
4330805250.8751 -5.8105669 -77.966217 -200 45 -200 45 -200 45
4331805367.5613 -5.8264165 -77.935608 -200 45 -200 45 -200 45
4332805484.2474 -5.8496728 -77.863533 -200 45 -200 45 -200 45
4333805600.9335 -5.8703423 -77.891724 -200 45 -200 45 -200 45
4334805717.6196 -5.8789454 -77.891167 -200 45 -200 45 -200 45
4335805834.3057 -5.8936877 -77.930214 -200 45 -200 45 -200 45
4336805950.9918 -5.9079351 -77.96891 -200 45 -200 45 -200 45
4337806067.6779 -5.9417024 -77.947075 -200 45 -200 45 -200 45
4338806184.3641 -5.9570684 -77.997299 -200 45 -200 45 -200 45
4339806301.0502 -5.9841442 -78.049438 -200 45 -200 45 -200 45
4340806417.7363 -6.0124545 -78.083969 -200 45 -200 45 -200 45
4341806534.4224 -6.0417075 -78.127495 -200 45 -200 45 -200 45
4342806651.1085 -6.0682378 -78.172134 -200 45 -200 45 -200 45
4343806767.7946 -6.0940418 -78.252426 -200 45 -200 45 -200 45
4344806884.4807 -6.114069 -78.32151 -200 45 -200 45 -200 45
4345807001.1669 -6.1314015 -78.405884 -200 45 -200 45 -200 45
4346807117.853 -6.1490421 -78.451302 -200 45 -200 45 -200 45
4347807234.5391 -6.1682997 -78.541862 -200 45 -200 45 -200 45
4348807351.2252 -6.1654148 -78.630241 -200 45 -200 45 -200 45
4349807467.9113 -6.1686883 -78.714157 -200 45 -200 45 -200 45
4350807584.5974 -6.1617155 -78.823936 -200 45 -200 45 -200 45
4351807701.2835 -6.1557932 -78.945435 -200 45 -200 45 -200 45
4352807817.9697 -6.1591439 -79.08062 -200 45 -200 45 -200 45
4353807934.6558 -6.158226 -79.205437 -200 45 -200 45 -200 45
4354808051.3419 -6.143651 -79.384262 -200 45 -200 45 -200 45
4355808168.028 -6.1349502 -79.565765 -200 45 -200 45 -200 45
4356808284.7141 -6.1307583 -79.76123 -200 45 -200 45 -200 45
4357808401.4002 -6.1275988 -79.927849 -200 45 -200 45 -200 45
4358808518.0863 -6.1176209 -80.145103 -200 45 -200 45 -200 45
4359808634.7725 -6.1067386 -80.343307 -200 45 -200 45 -200 45
4360808751.4586 -6.0942292 -80.538574 -200 45 -200 45 -200 45
4361808868.1447 -6.0826983 -80.726738 -200 45 -200 45 -200 45
4362808984.8308 -6.0707493 -80.899948 -200 45 -200 45 -200 45
4363809101.5169 -6.0632863 -81.076424 -200 45 -200 45 -200 45
4364809218.203 -6.0506754 -81.224533 -200 45 -200 45 -200 45
4365809334.8891 -6.0288243 -81.382317 -200 45 -200 45 -200 45
4366809451.5753 -5.9992852 -81.581612 -200 45 -200 45 -200 45
4367809568.2614 -5.9841847 -81.719223 -200 45 -200 45 -200 45
4368809684.9475 -5.9706273 -81.849602 -200 45 -200 45 -200 45
4369809801.6336 -5.9499421 -81.983223 -200 45 -200 45 -200 45
4370809918.3197 -5.9281235 -82.107391 -200 45 -200 45 -200 45
4371810035.0058 -5.9069252 -82.217735 -200 45 -200 45 -200 45
4372810151.6919 -5.8938074 -82.298218 -200 45 -200 45 -200 45
4373810268.3781 -5.8737407 -82.38327 -200 45 -200 45 -200 45
4374810385.0642 -5.8593903 -82.461777 -200 45 -200 45 -200 45
4375810501.7503 -5.8455777 -82.506538 -200 45 -200 45 -200 45
4376810618.4364 -5.8245764 -82.562263 -200 45 -200 45 -200 45
4377810735.1225 -5.8054757 -82.600609 -200 45 -200 45 -200 45
4378810851.8086 -5.7836876 -82.624054 -200 45 -200 45 -200 45
4379810968.4947 -5.7626734 -82.638763 -200 45 -200 45 -200 45
4380811085.1809 -5.747211 -82.644295 -200 45 -200 45 -200 45
4381811201.867 -5.7318821 -82.606339 -200 45 -200 45 -200 45
4382811318.5531 -5.7180133 -82.578049 -200 45 -200 45 -200 45
4383811435.2392 -5.7013307 -82.52758 -200 45 -200 45 -200 45
4384811551.9253 -5.6878138 -82.485329 -200 45 -200 45 -200 45
4385811668.6114 -5.6681576 -82.407021 -200 45 -200 45 -200 45
4386811785.2976 -5.6548905 -82.348618 -200 45 -200 45 -200 45
4387811901.9837 -5.6419058 -82.260956 -200 45 -200 45 -200 45
4388812018.6698 -5.6347561 -82.142784 -200 45 -200 45 -200 45
4389812135.3559 -5.6350398 -82.011215 -200 45 -200 45 -200 45
4390812252.042 -5.6307855 -81.896736 -200 45 -200 45 -200 45
4391812368.7281 -5.6281757 -81.76651 -200 45 -200 45 -200 45
4392812485.4142 -5.6168437 -81.627007 -200 45 -200 45 -200 45
4393812602.1004 -5.6155033 -81.494324 -200 45 -200 45 -200 45
4394812718.7865 -5.6101956 -81.354462 -200 45 -200 45 -200 45
4395812835.4726 -5.6111813 -81.203346 -200 45 -200 45 -200 45
4396812952.1587 -5.6157207 -81.066734 -200 45 -200 45 -200 45
4397813068.8448 -5.6112494 -80.921028 -200 45 -200 45 -200 45
4398813185.5309 -5.6059017 -80.765007 -200 45 -200 45 -200 45
4399813302.217 -5.6024141 -80.662628 -200 45 -200 45 -200 45
4400813418.9032 -5.6077847 -80.479584 -200 45 -200 45 -200 45
4401813535.5893 -5.6216006 -80.32077 -200 45 -200 45 -200 45
4402813652.2754 -5.6309314 -80.171753 -200 45 -200 45 -200 45
4403813768.9615 -5.6405253 -80.029335 -200 45 -200 45 -200 45
4404813885.6476 -5.6509671 -79.889931 -200 45 -200 45 -200 45
4405814002.3337 -5.6626253 -79.765533 -200 45 -200 45 -200 45
4406814119.0198 -5.6786313 -79.613838 -200 45 -200 45 -200 45
4407814235.706 -5.6978931 -79.49752 -200 45 -200 45 -200 45
4408814352.3921 -5.712327 -79.380898 -200 45 -200 45 -200 45
4409814469.0782 -5.7237549 -79.269203 -200 45 -200 45 -200 45
4410814585.7643 -5.7425432 -79.168945 -200 45 -200 45 -200 45
4411814702.4504 -5.7551441 -79.086655 -200 45 -200 45 -200 45
4412814819.1365 -5.7667642 -79.044678 -200 45 -200 45 -200 45
4413814935.8226 -5.7872562 -78.945602 -200 45 -200 45 -200 45
4414815052.5088 -5.8022928 -78.911499 -200 45 -200 45 -200 45
4415815169.1949 -5.8275304 -78.854362 -200 45 -200 45 -200 45
4416815285.881 -5.8476624 -78.803619 -200 45 -200 45 -200 45
4417815402.5671 -5.8672757 -78.778503 -200 45 -200 45 -200 45
4418815519.2532 -5.8769894 -78.779121 -200 45 -200 45 -200 45
4419815635.9393 -5.8973155 -78.777962 -200 45 -200 45 -200 45
4420815752.6254 -5.9163146 -78.783546 -200 45 -200 45 -200 45
4421815869.3116 -5.9413819 -78.805641 -200 45 -200 45 -200 45
4422815985.9977 -5.9680696 -78.837372 -200 45 -200 45 -200 45
4423816102.6838 -5.9850898 -78.897247 -200 45 -200 45 -200 45
4424816219.3699 -6.0028663 -78.967911 -200 45 -200 45 -200 45
4425816336.056 -6.0219569 -79.037628 -200 45 -200 45 -200 45
4426816452.7421 -6.0382824 -79.170746 -200 45 -200 45 -200 45
4427816569.4282 -6.0550518 -79.264885 -200 45 -200 45 -200 45
4428816686.1144 -6.0688982 -79.37355 -200 45 -200 45 -200 45
4429816802.8005 -6.0794287 -79.534622 -200 45 -200 45 -200 45
4430816919.4866 -6.0802765 -79.716187 -200 45 -200 45 -200 45
4431817036.1727 -6.1021729 -79.837318 -200 45 -200 45 -200 45
4432817152.8588 -6.1198068 -79.990204 -200 45 -200 45 -200 45
4433817269.5449 -6.1317739 -80.145874 -200 45 -200 45 -200 45
4434817386.231 -6.1406345 -80.335426 -200 45 -200 45 -200 45
4435817502.9172 -6.1506515 -80.53598 -200 45 -200 45 -200 45
4436817619.6033 -6.1561069 -80.729248 -200 45 -200 45 -200 45
4437817736.2894 -6.1645212 -80.921783 -200 45 -200 45 -200 45
4438817852.9755 -6.1646609 -81.111519 -200 45 -200 45 -200 45
4439817969.6616 -6.1698327 -81.318504 -200 45 -200 45 -200 45
4440818086.3477 -6.1757197 -81.514992 -200 45 -200 45 -200 45
4441818203.0338 -6.171545 -81.70565 -200 45 -200 45 -200 45
4442818319.72 -6.1714997 -81.912804 -200 45 -200 45 -200 45
4443818436.4061 -6.1675887 -82.116089 -200 45 -200 45 -200 45
4444818553.0922 -6.1518688 -82.316734 -200 45 -200 45 -200 45
4445818669.7783 -6.1427741 -82.507652 -200 45 -200 45 -200 45
4446818786.4644 -6.1358523 -82.706711 -200 45 -200 45 -200 45
4447818903.1505 -6.1237259 -82.853065 -200 45 -200 45 -200 45
4448819019.8366 -6.1158118 -83.014572 -200 45 -200 45 -200 45
4449819136.5228 -6.1043434 -83.194214 -200 45 -200 45 -200 45
4450819253.2089 -6.0904469 -83.350288 -200 45 -200 45 -200 45
4451819369.895 -6.0713644 -83.496346 -200 45 -200 45 -200 45
4452819486.5811 -6.056407 -83.6474 -200 45 -200 45 -200 45
4453819603.2672 -6.0461116 -83.731918 -200 45 -200 45 -200 45
4454819719.9533 -6.0297599 -83.840157 -200 45 -200 45 -200 45
4455819836.6394 -6.0092883 -83.957726 -200 45 -200 45 -200 45
4456819953.3256 -5.9894505 -84.040115 -200 45 -200 45 -200 45
4457820070.0117 -5.9725575 -84.126625 -200 45 -200 45 -200 45
4458820186.6978 -5.9520955 -84.165794 -200 45 -200 45 -200 45
4459820303.3839 -5.9360542 -84.20993 -200 45 -200 45 -200 45
4460820420.07 -5.9110618 -84.239182 -200 45 -200 45 -200 45
4461820536.7561 -5.8938508 -84.2714 -200 45 -200 45 -200 45
4462820653.4422 -5.8662119 -84.29306 -200 45 -200 45 -200 45
4463820770.1284 -5.8522277 -84.253029 -200 45 -200 45 -200 45
4464820886.8145 -5.84168 -84.235001 -200 45 -200 45 -200 45
4465821003.5006 -5.8286414 -84.209465 -200 45 -200 45 -200 45
4466821120.1867 -5.8118782 -84.157356 -200 45 -200 45 -200 45
4467821236.8728 -5.7949548 -84.120552 -200 45 -200 45 -200 45
4468821353.5589 -5.7819905 -84.038101 -200 45 -200 45 -200 45
4469821470.245 -5.7652793 -83.960434 -200 45 -200 45 -200 45
4470821586.9312 -5.7555795 -83.869461 -200 45 -200 45 -200 45
4471821703.6173 -5.7448149 -83.789749 -200 45 -200 45 -200 45
4472821820.3034 -5.7348833 -83.684799 -200 45 -200 45 -200 45
4473821936.9895 -5.7275777 -83.559944 -200 45 -200 45 -200 45
4474822053.6756 -5.7197275 -83.415543 -200 45 -200 45 -200 45
4475822170.3617 -5.7125335 -83.267776 -200 45 -200 45 -200 45
4476822287.0478 -5.7098265 -83.166916 -200 45 -200 45 -200 45
4477822403.734 -5.7009153 -83.01078 -200 45 -200 45 -200 45
4478822520.4201 -5.6993423 -82.867828 -200 45 -200 45 -200 45
4479822637.1062 -5.6960492 -82.719337 -200 45 -200 45 -200 45
4480822753.7923 -5.6975865 -82.579765 -200 45 -200 45 -200 45
4481822870.4784 -5.6986537 -82.397583 -200 45 -200 45 -200 45
4482822987.1645 -5.7077208 -82.256447 -200 45 -200 45 -200 45
4483823103.8506 -5.7097631 -82.074089 -200 45 -200 45 -200 45
4484823220.5368 -5.7168665 -81.913948 -200 45 -200 45 -200 45
4485823337.2229 -5.7288723 -81.764977 -200 45 -200 45 -200 45
4486823453.909 -5.7418389 -81.607178 -200 45 -200 45 -200 45
4487823570.5951 -5.7488389 -81.447731 -200 45 -200 45 -200 45
4488823687.2812 -5.7664638 -81.273544 -200 45 -200 45 -200 45
4489823803.9673 -5.7782121 -81.134789 -200 45 -200 45 -200 45
4490823920.6534 -5.7942085 -80.980476 -200 45 -200 45 -200 45
4491824037.3396 -5.8175979 -80.843193 -200 45 -200 45 -200 45
4492824154.0257 -5.8344064 -80.692223 -200 45 -200 45 -200 45
4493824270.7118 -5.855207 -80.570839 -200 45 -200 45 -200 45
4494824387.3979 -5.8767991 -80.436417 -200 45 -200 45 -200 45
4495824504.084 -5.8949504 -80.300415 -200 45 -200 45 -200 45
4496824620.7701 -5.9212651 -80.158173 -200 45 -200 45 -200 45
4497824737.4562 -5.9503932 -80.009613 -200 45 -200 45 -200 45
4498824854.1424 -5.9787855 -79.865059 -200 45 -200 45 -200 45
4499824970.8285 -6.0023708 -79.717369 -200 45 -200 45 -200 45
4500825087.5146 -6.0226789 -79.58139 -200 45 -200 45 -200 45
4501825204.2007 -6.046073 -79.436378 -200 45 -200 45 -200 45
4502825320.8868 -6.0591817 -79.31311 -200 45 -200 45 -200 45
4503825437.5729 -6.0734086 -79.182785 -200 45 -200 45 -200 45
4504825554.259 -6.0821257 -79.133759 -200 45 -200 45 -200 45
4505825670.9452 -6.0855412 -79.069611 -200 45 -200 45 -200 45
4506825787.6313 -6.0967264 -79.064255 -200 45 -200 45 -200 45
4507825904.3174 -6.1026134 -79.097847 -200 45 -200 45 -200 45
4508826021.0035 -6.1063042 -79.197151 -200 45 -200 45 -200 45
4509826137.6896 -6.1086192 -79.301537 -200 45 -200 45 -200 45
4510826254.3757 -6.1208863 -79.432144 -200 45 -200 45 -200 45
4511826371.0618 -6.1303639 -79.561218 -200 45 -200 45 -200 45
4512826487.748 -6.1386437 -79.685867 -200 45 -200 45 -200 45
4513826604.4341 -6.150311 -79.889351 -200 45 -200 45 -200 45
4514826721.1202 -6.1608582 -80.075775 -200 45 -200 45 -200 45
4515826837.8063 -6.1739821 -80.240158 -200 45 -200 45 -200 45
4516826954.4924 -6.1810741 -80.458351 -200 45 -200 45 -200 45
4517827071.1785 -6.1969194 -80.644745 -200 45 -200 45 -200 45
4518827187.8646 -6.2059722 -80.868958 -200 45 -200 45 -200 45
4519827304.5508 -6.2105327 -81.113411 -200 45 -200 45 -200 45
4520827421.2369 -6.2183084 -81.346893 -200 45 -200 45 -200 45
4521827537.923 -6.2237778 -81.547798 -200 45 -200 45 -200 45
4522827654.6091 -6.2343836 -81.733627 -200 45 -200 45 -200 45
4523827771.2952 -6.2349792 -82.004517 -200 45 -200 45 -200 45
4524827887.9813 -6.2379904 -82.200745 -200 45 -200 45 -200 45
4525828004.6674 -6.2403364 -82.37162 -200 45 -200 45 -200 45
4526828121.3536 -6.2338538 -82.603546 -200 45 -200 45 -200 45
4527828238.0397 -6.2345762 -82.809532 -200 45 -200 45 -200 45
4528828354.7258 -6.2269421 -83.019783 -200 45 -200 45 -200 45
4529828471.4119 -6.2228436 -83.219978 -200 45 -200 45 -200 45
4530828588.098 -6.2187228 -83.379295 -200 45 -200 45 -200 45
4531828704.7841 -6.207458 -83.532669 -200 45 -200 45 -200 45
4532828821.4702 -6.1990643 -83.672455 -200 45 -200 45 -200 45
4533828938.1564 -6.1888289 -83.819595 -200 45 -200 45 -200 45
4534829054.8425 -6.1700873 -83.94825 -200 45 -200 45 -200 45
4535829171.5286 -6.1505327 -84.08847 -200 45 -200 45 -200 45
4536829288.2147 -6.1306801 -84.217712 -200 45 -200 45 -200 45
4537829404.9008 -6.1085553 -84.307236 -200 45 -200 45 -200 45
4538829521.5869 -6.0879192 -84.402885 -200 45 -200 45 -200 45
4539829638.273 -6.067843 -84.470177 -200 45 -200 45 -200 45
4540829754.9592 -6.0442753 -84.558441 -200 45 -200 45 -200 45
4541829871.6453 -6.0157037 -84.631561 -200 45 -200 45 -200 45
4542829988.3314 -5.9875522 -84.698746 -200 45 -200 45 -200 45
4543830105.0175 -5.9628921 -84.716377 -200 45 -200 45 -200 45
4544830221.7036 -5.9402514 -84.769409 -200 45 -200 45 -200 45
4545830338.3897 -5.9110785 -84.784828 -200 45 -200 45 -200 45
4546830455.0758 -5.8859172 -84.819038 -200 45 -200 45 -200 45
4547830571.762 -5.8632803 -84.834465 -200 45 -200 45 -200 45
4548830688.4481 -5.8364801 -84.830811 -200 45 -200 45 -200 45
4549830805.1342 -5.8135767 -84.839211 -200 45 -200 45 -200 45
4550830921.8203 -5.7927599 -84.78064 -200 45 -200 45 -200 45
4551831038.5064 -5.7758927 -84.763268 -200 45 -200 45 -200 45
4552831155.1925 -5.7510562 -84.724983 -200 45 -200 45 -200 45
4553831271.8786 -5.733674 -84.665054 -200 45 -200 45 -200 45
4554831388.5648 -5.7184 -84.616814 -200 45 -200 45 -200 45
4555831505.2509 -5.7050714 -84.506081 -200 45 -200 45 -200 45
4556831621.937 -5.6906495 -84.413712 -200 45 -200 45 -200 45
4557831738.6231 -5.6792169 -84.316711 -200 45 -200 45 -200 45
4558831855.3092 -5.6681762 -84.22139 -200 45 -200 45 -200 45
4559831971.9953 -5.6604528 -84.062134 -200 45 -200 45 -200 45
4560832088.6814 -5.6508079 -83.928177 -200 45 -200 45 -200 45
4561832205.3676 -5.6398673 -83.804176 -200 45 -200 45 -200 45
4562832322.0537 -5.6354847 -83.659203 -200 45 -200 45 -200 45
4563832438.7398 -5.6342444 -83.509285 -200 45 -200 45 -200 45
4564832555.4259 -5.6289859 -83.344353 -200 45 -200 45 -200 45
4565832672.112 -5.6322694 -83.182938 -200 45 -200 45 -200 45
4566832788.7981 -5.6322355 -83.047256 -200 45 -200 45 -200 45
4567832905.4842 -5.6321998 -82.878052 -200 45 -200 45 -200 45
4568833022.1704 -5.6351552 -82.710815 -200 45 -200 45 -200 45
4569833138.8565 -5.6356997 -82.559288 -200 45 -200 45 -200 45
4570833255.5426 -5.6439829 -82.40123 -200 45 -200 45 -200 45
4571833372.2287 -5.6519814 -82.245567 -200 45 -200 45 -200 45
4572833488.9148 -5.6605129 -82.116364 -200 45 -200 45 -200 45
4573833605.6009 -5.663866 -81.96476 -200 45 -200 45 -200 45
4574833722.287 -5.6804585 -81.82946 -200 45 -200 45 -200 45
4575833838.9732 -5.6924524 -81.69416 -200 45 -200 45 -200 45
4576833955.6593 -5.7080574 -81.558228 -200 45 -200 45 -200 45
4577834072.3454 -5.7209663 -81.425041 -200 45 -200 45 -200 45
4578834189.0315 -5.7397962 -81.312447 -200 45 -200 45 -200 45
4579834305.7176 -5.756835 -81.224571 -200 45 -200 45 -200 45
4580834422.4037 -5.7738366 -81.116127 -200 45 -200 45 -200 45
4581834539.0898 -5.7910566 -81.041656 -200 45 -200 45 -200 45
4582834655.776 -5.8129196 -80.952515 -200 45 -200 45 -200 45
4583834772.4621 -5.8345962 -80.90255 -200 45 -200 45 -200 45
4584834889.1482 -5.8498845 -80.87307 -200 45 -200 45 -200 45
4585835005.8343 -5.8681169 -80.842995 -200 45 -200 45 -200 45
4586835122.5204 -5.8935494 -80.804665 -200 45 -200 45 -200 45
4587835239.2065 -5.9143658 -80.841415 -200 45 -200 45 -200 45
4588835355.8926 -5.9322133 -80.864769 -200 45 -200 45 -200 45
4589835472.5788 -5.9545174 -80.889702 -200 45 -200 45 -200 45
4590835589.2649 -5.9730425 -80.955109 -200 45 -200 45 -200 45
4591835705.951 -5.9948545 -80.97953 -200 45 -200 45 -200 45
4592835822.6371 -6.0183349 -81.100754 -200 45 -200 45 -200 45
4593835939.3232 -6.0416203 -81.157501 -200 45 -200 45 -200 45
4594836056.0093 -6.0615659 -81.289696 -200 45 -200 45 -200 45
4595836172.6954 -6.081367 -81.432953 -200 45 -200 45 -200 45
4596836289.3816 -6.1055827 -81.52652 -200 45 -200 45 -200 45
4597836406.0677 -6.1190953 -81.667824 -200 45 -200 45 -200 45
4598836522.7538 -6.1434522 -81.815086 -200 45 -200 45 -200 45
4599836639.4399 -6.1588998 -81.981743 -200 45 -200 45 -200 45
4600836756.126 -6.1765165 -82.139847 -200 45 -200 45 -200 45
4601836872.8121 -6.1889205 -82.327881 -200 45 -200 45 -200 45
4602836989.4983 -6.2032413 -82.509453 -200 45 -200 45 -200 45
4603837106.1844 -6.2117767 -82.701996 -200 45 -200 45 -200 45
4604837222.8705 -6.2207608 -82.885422 -200 45 -200 45 -200 45
4605837339.5566 -6.2279038 -83.110435 -200 45 -200 45 -200 45
4606837456.2427 -6.2294374 -83.332474 -200 45 -200 45 -200 45
4607837572.9288 -6.2382493 -83.539101 -200 45 -200 45 -200 45
4608837689.6149 -6.2383347 -83.738289 -200 45 -200 45 -200 45
4609837806.3011 -6.2427402 -83.968147 -200 45 -200 45 -200 45
4610837922.9872 -6.24403 -84.17662 -200 45 -200 45 -200 45
4611838039.6733 -6.2420101 -84.370811 -200 45 -200 45 -200 45
4612838156.3594 -6.2337294 -84.581566 -200 45 -200 45 -200 45
4613838273.0455 -6.2322569 -84.767334 -200 45 -200 45 -200 45
4614838389.7316 -6.2239261 -84.972023 -200 45 -200 45 -200 45
4615838506.4177 -6.2128382 -85.173409 -200 45 -200 45 -200 45
4616838623.1039 -6.2039118 -85.343933 -200 45 -200 45 -200 45
4617838739.79 -6.1910124 -85.502754 -200 45 -200 45 -200 45
4618838856.4761 -6.1788244 -85.686615 -200 45 -200 45 -200 45
4619838973.1622 -6.1616139 -85.861679 -200 45 -200 45 -200 45
4620839089.8483 -6.1474624 -86.011063 -200 45 -200 45 -200 45
4621839206.5344 -6.1304736 -86.135529 -200 45 -200 45 -200 45
4622839323.2205 -6.1092386 -86.253265 -200 45 -200 45 -200 45
4623839439.9067 -6.0939817 -86.334419 -200 45 -200 45 -200 45
4624839556.5928 -6.0726066 -86.428009 -200 45 -200 45 -200 45
4625839673.2789 -6.0522676 -86.503708 -200 45 -200 45 -200 45
4626839789.965 -6.0367455 -86.553993 -200 45 -200 45 -200 45
4627839906.6511 -6.0154438 -86.629745 -200 45 -200 45 -200 45
4628840023.3372 -5.9944444 -86.654099 -200 45 -200 45 -200 45
4629840140.0233 -5.9787211 -86.647964 -200 45 -200 45 -200 45
4630840256.7095 -5.9546466 -86.65155 -200 45 -200 45 -200 45
4631840373.3956 -5.9350977 -86.663742 -200 45 -200 45 -200 45
4632840490.0817 -5.914669 -86.63588 -200 45 -200 45 -200 45
4633840606.7678 -5.8928556 -86.593803 -200 45 -200 45 -200 45
4634840723.4539 -5.8745484 -86.525879 -200 45 -200 45 -200 45
4635840840.14 -5.8570485 -86.448769 -200 45 -200 45 -200 45
4636840956.8261 -5.8361721 -86.352837 -200 45 -200 45 -200 45
4637841073.5123 -5.8170824 -86.290787 -200 45 -200 45 -200 45
4638841190.1984 -5.7995005 -86.201736 -200 45 -200 45 -200 45
4639841306.8845 -5.7798181 -86.094246 -200 45 -200 45 -200 45
4640841423.5706 -5.7674828 -85.980965 -200 45 -200 45 -200 45
4641841540.2567 -5.7524376 -85.842781 -200 45 -200 45 -200 45
4642841656.9428 -5.7420988 -85.703957 -200 45 -200 45 -200 45
4643841773.6289 -5.7276726 -85.564857 -200 45 -200 45 -200 45
4644841890.3151 -5.72086 -85.419266 -200 45 -200 45 -200 45
4645842007.0012 -5.7164297 -85.274628 -200 45 -200 45 -200 45
4646842123.6873 -5.7065539 -85.10746 -200 45 -200 45 -200 45
4647842240.3734 -5.7020812 -84.950439 -200 45 -200 45 -200 45
4648842357.0595 -5.6960549 -84.790009 -200 45 -200 45 -200 45
4649842473.7456 -5.696681 -84.595985 -200 45 -200 45 -200 45
4650842590.4317 -5.6994967 -84.466698 -200 45 -200 45 -200 45
4651842707.1179 -5.6965961 -84.294159 -200 45 -200 45 -200 45
4652842823.804 -5.6934667 -84.139587 -200 45 -200 45 -200 45
4653842940.4901 -5.6958141 -83.974846 -200 45 -200 45 -200 45
4654843057.1762 -5.7016397 -83.811874 -200 45 -200 45 -200 45
4655843173.8623 -5.7100635 -83.651505 -200 45 -200 45 -200 45
4656843290.5484 -5.7203007 -83.49527 -200 45 -200 45 -200 45
4657843407.2345 -5.7289391 -83.352493 -200 45 -200 45 -200 45
4658843523.9207 -5.7401385 -83.206909 -200 45 -200 45 -200 45
4659843640.6068 -5.7508101 -83.077255 -200 45 -200 45 -200 45
4660843757.2929 -5.7705421 -82.926689 -200 45 -200 45 -200 45
4661843873.979 -5.7844501 -82.818787 -200 45 -200 45 -200 45
4662843990.6651 -5.8003097 -82.694054 -200 45 -200 45 -200 45
4663844107.3512 -5.8154688 -82.60128 -200 45 -200 45 -200 45
4664844224.0373 -5.8340755 -82.512222 -200 45 -200 45 -200 45
4665844340.7235 -5.8534226 -82.449509 -200 45 -200 45 -200 45
4666844457.4096 -5.8717489 -82.383156 -200 45 -200 45 -200 45
4667844574.0957 -5.8943686 -82.328209 -200 45 -200 45 -200 45
4668844690.7818 -5.9163051 -82.27533 -200 45 -200 45 -200 45
4669844807.4679 -5.9379611 -82.241959 -200 45 -200 45 -200 45
4670844924.154 -5.9602423 -82.232361 -200 45 -200 45 -200 45
4671845040.8401 -5.9816546 -82.249573 -200 45 -200 45 -200 45
4672845157.5263 -6.0043335 -82.256165 -200 45 -200 45 -200 45
4673845274.2124 -6.026927 -82.278244 -200 45 -200 45 -200 45
4674845390.8985 -6.0486627 -82.337624 -200 45 -200 45 -200 45
4675845507.5846 -6.076756 -82.371895 -200 45 -200 45 -200 45
4676845624.2707 -6.099442 -82.448715 -200 45 -200 45 -200 45
4677845740.9568 -6.1182551 -82.508575 -200 45 -200 45 -200 45
4678845857.6429 -6.1428909 -82.620644 -200 45 -200 45 -200 45
4679845974.3291 -6.164319 -82.741425 -200 45 -200 45 -200 45
4680846091.0152 -6.1806622 -82.859215 -200 45 -200 45 -200 45
4681846207.7013 -6.196898 -82.99453 -200 45 -200 45 -200 45
4682846324.3874 -6.218864 -83.166489 -200 45 -200 45 -200 45
4683846441.0735 -6.2335496 -83.321861 -200 45 -200 45 -200 45
4684846557.7596 -6.2483778 -83.477455 -200 45 -200 45 -200 45
4685846674.4457 -6.2593226 -83.664734 -200 45 -200 45 -200 45
4686846791.1319 -6.2739286 -83.878349 -200 45 -200 45 -200 45
4687846907.818 -6.2839203 -84.073418 -200 45 -200 45 -200 45
4688847024.5041 -6.2968297 -84.27684 -200 45 -200 45 -200 45
4689847141.1902 -6.2997198 -84.478767 -200 45 -200 45 -200 45
4690847257.8763 -6.3093023 -84.69017 -200 45 -200 45 -200 45
4691847374.5624 -6.3088365 -84.886742 -200 45 -200 45 -200 45
4692847491.2485 -6.3110971 -85.104179 -200 45 -200 45 -200 45
4693847607.9347 -6.3179488 -85.322861 -200 45 -200 45 -200 45
4694847724.6208 -6.3164806 -85.530754 -200 45 -200 45 -200 45
4695847841.3069 -6.3126345 -85.750511 -200 45 -200 45 -200 45
4696847957.993 -6.3022399 -85.94857 -200 45 -200 45 -200 45
4697848074.6791 -6.2962084 -86.167641 -200 45 -200 45 -200 45
4698848191.3652 -6.2839365 -86.382454 -200 45 -200 45 -200 45
4699848308.0513 -6.2741003 -86.57309 -200 45 -200 45 -200 45
4700848424.7375 -6.26296 -86.759171 -200 45 -200 45 -200 45
4701848541.4236 -6.2467613 -86.938416 -200 45 -200 45 -200 45
4702848658.1097 -6.2348294 -87.103119 -200 45 -200 45 -200 45
4703848774.7958 -6.2188945 -87.24482 -200 45 -200 45 -200 45
4704848891.4819 -6.2024932 -87.396515 -200 45 -200 45 -200 45
4705849008.168 -6.1771293 -87.503891 -200 45 -200 45 -200 45
4706849124.8541 -6.162087 -87.64119 -200 45 -200 45 -200 45
4707849241.5403 -6.1435356 -87.73436 -200 45 -200 45 -200 45
4708849358.2264 -6.1237183 -87.807953 -200 45 -200 45 -200 45
4709849474.9125 -6.1097755 -87.906403 -200 45 -200 45 -200 45
4710849591.5986 -6.0856934 -87.954613 -200 45 -200 45 -200 45
4711849708.2847 -6.0639162 -88.006287 -200 45 -200 45 -200 45
4712849824.9708 -6.0390129 -88.053154 -200 45 -200 45 -200 45
4713849941.6569 -6.0150366 -88.062057 -200 45 -200 45 -200 45
4714850058.3431 -5.9997768 -88.083473 -200 45 -200 45 -200 45
4715850175.0292 -5.9748421 -88.059807 -200 45 -200 45 -200 45
4716850291.7153 -5.951252 -88.025047 -200 45 -200 45 -200 45
4717850408.4014 -5.9329095 -88.002686 -200 45 -200 45 -200 45
4718850525.0875 -5.9124246 -87.958328 -200 45 -200 45 -200 45
4719850641.7736 -5.89329 -87.881874 -200 45 -200 45 -200 45
4720850758.4597 -5.8740973 -87.783081 -200 45 -200 45 -200 45
4721850875.1459 -5.8572822 -87.672661 -200 45 -200 45 -200 45
4722850991.832 -5.8437829 -87.580215 -200 45 -200 45 -200 45
4723851108.5181 -5.826437 -87.484482 -200 45 -200 45 -200 45
4724851225.2042 -5.8163538 -87.349167 -200 45 -200 45 -200 45
4725851341.8903 -5.800828 -87.212769 -200 45 -200 45 -200 45
4726851458.5764 -5.7882376 -87.05648 -200 45 -200 45 -200 45
4727851575.2625 -5.779346 -86.917747 -200 45 -200 45 -200 45
4728851691.9487 -5.7705078 -86.757767 -200 45 -200 45 -200 45
4729851808.6348 -5.7616758 -86.580994 -200 45 -200 45 -200 45
4730851925.3209 -5.7549648 -86.433357 -200 45 -200 45 -200 45
4731852042.007 -5.7529607 -86.287865 -200 45 -200 45 -200 45
4732852158.6931 -5.7476172 -86.067711 -200 45 -200 45 -200 45
4733852275.3792 -5.7454405 -85.907333 -200 45 -200 45 -200 45
4734852392.0653 -5.747292 -85.757202 -200 45 -200 45 -200 45
4735852508.7515 -5.7454686 -85.552895 -200 45 -200 45 -200 45
4736852625.4376 -5.7467155 -85.375801 -200 45 -200 45 -200 45
4737852742.1237 -5.7520247 -85.195648 -200 45 -200 45 -200 45
4738852858.8098 -5.7592673 -85.034576 -200 45 -200 45 -200 45
4739852975.4959 -5.7708416 -84.85865 -200 45 -200 45 -200 45
4740853092.182 -5.7768922 -84.660706 -200 45 -200 45 -200 45
4741853208.8681 -5.7913084 -84.519867 -200 45 -200 45 -200 45
4742853325.5543 -5.8007283 -84.361298 -200 45 -200 45 -200 45
4743853442.2404 -5.8178587 -84.219475 -200 45 -200 45 -200 45
4744853558.9265 -5.8313298 -84.086655 -200 45 -200 45 -200 45
4745853675.6126 -5.8459401 -83.97216 -200 45 -200 45 -200 45
4746853792.2987 -5.8632016 -83.821922 -200 45 -200 45 -200 45
4747853908.9848 -5.8827105 -83.706284 -200 45 -200 45 -200 45
4748854025.6709 -5.8975587 -83.633888 -200 45 -200 45 -200 45
4749854142.3571 -5.9160328 -83.542816 -200 45 -200 45 -200 45
4750854259.0432 -5.9384384 -83.451149 -200 45 -200 45 -200 45
4751854375.7293 -5.9618878 -83.383484 -200 45 -200 45 -200 45
4752854492.4154 -5.9885621 -83.354088 -200 45 -200 45 -200 45
4753854609.1015 -6.0121522 -83.296844 -200 45 -200 45 -200 45
4754854725.7876 -6.0334129 -83.266647 -200 45 -200 45 -200 45
4755854842.4737 -6.0593448 -83.278 -200 45 -200 45 -200 45
4756854959.1599 -6.0837259 -83.295082 -200 45 -200 45 -200 45
4757855075.846 -6.1063361 -83.314728 -200 45 -200 45 -200 45
4758855192.5321 -6.1302071 -83.346947 -200 45 -200 45 -200 45
4759855309.2182 -6.1519151 -83.417 -200 45 -200 45 -200 45
4760855425.9043 -6.176785 -83.497292 -200 45 -200 45 -200 45
4761855542.5904 -6.2047315 -83.544502 -200 45 -200 45 -200 45
4762855659.2765 -6.2225699 -83.693497 -200 45 -200 45 -200 45
4763855775.9627 -6.2470317 -83.802368 -200 45 -200 45 -200 45
4764855892.6488 -6.2648129 -83.917488 -200 45 -200 45 -200 45
4765856009.3349 -6.2840877 -84.062592 -200 45 -200 45 -200 45
4766856126.021 -6.300755 -84.216469 -200 45 -200 45 -200 45
4767856242.7071 -6.315927 -84.39917 -200 45 -200 45 -200 45
4768856359.3932 -6.3338819 -84.57206 -200 45 -200 45 -200 45
4769856476.0793 -6.3490095 -84.740005 -200 45 -200 45 -200 45
4770856592.7655 -6.3623118 -84.951096 -200 45 -200 45 -200 45
4771856709.4516 -6.3704023 -85.135971 -200 45 -200 45 -200 45
4772856826.1377 -6.3837037 -85.374763 -200 45 -200 45 -200 45
4773856942.8238 -6.3927846 -85.597633 -200 45 -200 45 -200 45
4774857059.5099 -6.3969641 -85.815208 -200 45 -200 45 -200 45
4775857176.196 -6.401649 -86.024429 -200 45 -200 45 -200 45
4776857292.8821 -6.4027314 -86.268936 -200 45 -200 45 -200 45
4777857409.5683 -6.4041557 -86.488235 -200 45 -200 45 -200 45
4778857526.2544 -6.4000735 -86.733742 -200 45 -200 45 -200 45
4779857642.9405 -6.3952742 -86.942741 -200 45 -200 45 -200 45
4780857759.6266 -6.3882866 -87.169495 -200 45 -200 45 -200 45
4781857876.3127 -6.378746 -87.394325 -200 45 -200 45 -200 45
4782857992.9988 -6.3716998 -87.593102 -200 45 -200 45 -200 45
4783858109.6849 -6.3535957 -87.811638 -200 45 -200 45 -200 45
4784858226.3711 -6.3449121 -87.993614 -200 45 -200 45 -200 45
4785858343.0572 -6.3357382 -88.167679 -200 45 -200 45 -200 45
4786858459.7433 -6.3165212 -88.345901 -200 45 -200 45 -200 45
4787858576.4294 -6.3018394 -88.509033 -200 45 -200 45 -200 45
4788858693.1155 -6.2873464 -88.646774 -200 45 -200 45 -200 45
4789858809.8016 -6.2704101 -88.800781 -200 45 -200 45 -200 45
4790858926.4877 -6.2467217 -88.920631 -200 45 -200 45 -200 45
4791859043.1739 -6.2260318 -89.035881 -200 45 -200 45 -200 45
4792859159.86 -6.2040472 -89.13356 -200 45 -200 45 -200 45
4793859276.5461 -6.1851506 -89.189064 -200 45 -200 45 -200 45
4794859393.2322 -6.1638889 -89.279022 -200 45 -200 45 -200 45
4795859509.9183 -6.1394272 -89.314568 -200 45 -200 45 -200 45
4796859626.6044 -6.1140223 -89.350296 -200 45 -200 45 -200 45
4797859743.2905 -6.086175 -89.367554 -200 45 -200 45 -200 45
4798859859.9767 -6.0669894 -89.380081 -200 45 -200 45 -200 45
4799859976.6628 -6.0422349 -89.339645 -200 45 -200 45 -200 45
4800860093.3489 -6.0225368 -89.331581 -200 45 -200 45 -200 45
4801860210.035 -6.0007186 -89.264809 -200 45 -200 45 -200 45
4802860326.7211 -5.9800334 -89.224884 -200 45 -200 45 -200 45
4803860443.4072 -5.9592047 -89.175003 -200 45 -200 45 -200 45
4804860560.0933 -5.9416337 -89.049477 -200 45 -200 45 -200 45
4805860676.7795 -5.9284267 -88.970222 -200 45 -200 45 -200 45
4806860793.4656 -5.9078236 -88.847061 -200 45 -200 45 -200 45
4807860910.1517 -5.8887787 -88.734421 -200 45 -200 45 -200 45
4808861026.8378 -5.8720617 -88.602196 -200 45 -200 45 -200 45
4809861143.5239 -5.8627186 -88.461998 -200 45 -200 45 -200 45
4810861260.21 -5.8496723 -88.30777 -200 45 -200 45 -200 45
4811861376.8961 -5.8381333 -88.19165 -200 45 -200 45 -200 45
4812861493.5823 -5.8259983 -88.010796 -200 45 -200 45 -200 45
4813861610.2684 -5.816947 -87.843216 -200 45 -200 45 -200 45
4814861726.9545 -5.8096533 -87.662933 -200 45 -200 45 -200 45
4815861843.6406 -5.8071065 -87.501396 -200 45 -200 45 -200 45
4816861960.3267 -5.7999816 -87.289238 -200 45 -200 45 -200 45
4817862077.0128 -5.8018231 -87.126717 -200 45 -200 45 -200 45
4818862193.6989 -5.8018327 -86.954391 -200 45 -200 45 -200 45
4819862310.3851 -5.8058996 -86.746864 -200 45 -200 45 -200 45
4820862427.0712 -5.8090582 -86.552994 -200 45 -200 45 -200 45
4821862543.7573 -5.8134432 -86.36026 -200 45 -200 45 -200 45
4822862660.4434 -5.8223276 -86.173088 -200 45 -200 45 -200 45
4823862777.1295 -5.8287811 -85.995636 -200 45 -200 45 -200 45
4824862893.8156 -5.8414078 -85.816666 -200 45 -200 45 -200 45
4825863010.5018 -5.853703 -85.641823 -200 45 -200 45 -200 45
4826863127.1879 -5.8661165 -85.493645 -200 45 -200 45 -200 45
4827863243.874 -5.8819585 -85.335892 -200 45 -200 45 -200 45
4828863360.5601 -5.8903089 -85.192566 -200 45 -200 45 -200 45
4829863477.2462 -5.911417 -85.049515 -200 45 -200 45 -200 45
4830863593.9323 -5.9299073 -84.927399 -200 45 -200 45 -200 45
4831863710.6184 -5.9506707 -84.80191 -200 45 -200 45 -200 45
4832863827.3046 -5.9707723 -84.687836 -200 45 -200 45 -200 45
4833863943.9907 -5.9950709 -84.601425 -200 45 -200 45 -200 45
4834864060.6768 -6.0185375 -84.511353 -200 45 -200 45 -200 45
4835864177.3629 -6.0387516 -84.42926 -200 45 -200 45 -200 45
4836864294.049 -6.0640559 -84.372826 -200 45 -200 45 -200 45
4837864410.7351 -6.0923839 -84.339264 -200 45 -200 45 -200 45
4838864527.4212 -6.1225357 -84.302345 -200 45 -200 45 -200 45
4839864644.1074 -6.1472974 -84.289772 -200 45 -200 45 -200 45
4840864760.7935 -6.172873 -84.313591 -200 45 -200 45 -200 45
4841864877.4796 -6.1964045 -84.301788 -200 45 -200 45 -200 45
4842864994.1657 -6.2211671 -84.352631 -200 45 -200 45 -200 45
4843865110.8518 -6.2472448 -84.390984 -200 45 -200 45 -200 45
4844865227.5379 -6.2691488 -84.44722 -200 45 -200 45 -200 45
4845865344.224 -6.2944713 -84.526733 -200 45 -200 45 -200 45
4846865460.9102 -6.3135538 -84.62896 -200 45 -200 45 -200 45
4847865577.5963 -6.3378196 -84.737694 -200 45 -200 45 -200 45
4848865694.2824 -6.360024 -84.860512 -200 45 -200 45 -200 45
4849865810.9685 -6.3776646 -84.999977 -200 45 -200 45 -200 45
4850865927.6546 -6.3929772 -85.128769 -200 45 -200 45 -200 45
4851866044.3407 -6.4151998 -85.293777 -200 45 -200 45 -200 45
4852866161.0268 -6.4277515 -85.46402 -200 45 -200 45 -200 45
4853866277.713 -6.4418554 -85.678871 -200 45 -200 45 -200 45
4854866394.3991 -6.452991 -85.883308 -200 45 -200 45 -200 45
4855866511.0852 -6.4605498 -86.092445 -200 45 -200 45 -200 45
4856866627.7713 -6.4720669 -86.318474 -200 45 -200 45 -200 45
4857866744.4574 -6.4799056 -86.558022 -200 45 -200 45 -200 45
4858866861.1435 -6.4862223 -86.800743 -200 45 -200 45 -200 45
4859866977.8296 -6.4881463 -87.032074 -200 45 -200 45 -200 45
4860867094.5158 -6.4803815 -87.297203 -200 45 -200 45 -200 45
4861867211.2019 -6.4778414 -87.539917 -200 45 -200 45 -200 45
4862867327.888 -6.4809904 -87.775085 -200 45 -200 45 -200 45
4863867444.5741 -6.4796309 -88.032906 -200 45 -200 45 -200 45
4864867561.2602 -6.473052 -88.221931 -200 45 -200 45 -200 45
4865867677.9463 -6.467473 -88.474129 -200 45 -200 45 -200 45
4866867794.6324 -6.457612 -88.695541 -200 45 -200 45 -200 45
4867867911.3186 -6.4469538 -88.918015 -200 45 -200 45 -200 45
4868868028.0047 -6.4334044 -89.112366 -200 45 -200 45 -200 45
4869868144.6908 -6.4198899 -89.31546 -200 45 -200 45 -200 45
4870868261.3769 -6.4029822 -89.512939 -200 45 -200 45 -200 45
4871868378.063 -6.3832259 -89.66214 -200 45 -200 45 -200 45
4872868494.7491 -6.3666077 -89.844231 -200 45 -200 45 -200 45
4873868611.4352 -6.3453026 -89.989182 -200 45 -200 45 -200 45
4874868728.1214 -6.3263941 -90.112732 -200 45 -200 45 -200 45
4875868844.8075 -6.2956052 -90.268913 -200 45 -200 45 -200 45
4876868961.4936 -6.2718625 -90.338974 -200 45 -200 45 -200 45
4877869078.1797 -6.2494383 -90.419746 -200 45 -200 45 -200 45
4878869194.8658 -6.2268877 -90.522568 -200 45 -200 45 -200 45
4879869311.5519 -6.2044692 -90.540115 -200 45 -200 45 -200 45
4880869428.238 -6.1779904 -90.58313 -200 45 -200 45 -200 45
4881869544.9242 -6.1561251 -90.592628 -200 45 -200 45 -200 45
4882869661.6103 -6.1301341 -90.60936 -200 45 -200 45 -200 45
4883869778.2964 -6.1056361 -90.606354 -200 45 -200 45 -200 45
4884869894.9825 -6.0851798 -90.547913 -200 45 -200 45 -200 45
4885870011.6686 -6.0625978 -90.522415 -200 45 -200 45 -200 45
4886870128.3547 -6.0379982 -90.490211 -200 45 -200 45 -200 45
4887870245.0408 -6.0185275 -90.412949 -200 45 -200 45 -200 45
4888870361.727 -5.9940186 -90.344467 -200 45 -200 45 -200 45
4889870478.4131 -5.9779825 -90.233727 -200 45 -200 45 -200 45
4890870595.0992 -5.9571581 -90.141945 -200 45 -200 45 -200 45
4891870711.7853 -5.940093 -90.011627 -200 45 -200 45 -200 45
4892870828.4714 -5.9249854 -89.884331 -200 45 -200 45 -200 45
4893870945.1575 -5.9051347 -89.744148 -200 45 -200 45 -200 45
4894871061.8436 -5.8868999 -89.597153 -200 45 -200 45 -200 45
4895871178.5298 -5.8743005 -89.433434 -200 45 -200 45 -200 45
4896871295.2159 -5.8629465 -89.271927 -200 45 -200 45 -200 45
4897871411.902 -5.8652802 -89.077385 -200 45 -200 45 -200 45
4898871528.5881 -5.8579969 -88.865021 -200 45 -200 45 -200 45
4899871645.2742 -5.8534384 -88.711143 -200 45 -200 45 -200 45
4900871761.9603 -5.8569307 -88.502884 -200 45 -200 45 -200 45
4901871878.6464 -5.8519268 -88.3256 -200 45 -200 45 -200 45
4902871995.3326 -5.8501606 -88.123016 -200 45 -200 45 -200 45
4903872112.0187 -5.8530669 -87.928154 -200 45 -200 45 -200 45
4904872228.7048 -5.8509717 -87.732361 -200 45 -200 45 -200 45
4905872345.3909 -5.8609314 -87.497459 -200 45 -200 45 -200 45
4906872462.077 -5.8731141 -87.325073 -200 45 -200 45 -200 45
4907872578.7631 -5.8748317 -87.159729 -200 45 -200 45 -200 45
4908872695.4492 -5.8796115 -86.959213 -200 45 -200 45 -200 45
4909872812.1354 -5.8954377 -86.789948 -200 45 -200 45 -200 45
4910872928.8215 -5.9070125 -86.633995 -200 45 -200 45 -200 45
4911873045.5076 -5.9244194 -86.456642 -200 45 -200 45 -200 45
4912873162.1937 -5.9383454 -86.308357 -200 45 -200 45 -200 45
4913873278.8798 -5.9554806 -86.159454 -200 45 -200 45 -200 45
4914873395.5659 -5.9732437 -86.024216 -200 45 -200 45 -200 45
4915873512.252 -5.9975672 -85.916176 -200 45 -200 45 -200 45
4916873628.9382 -6.0239062 -85.781921 -200 45 -200 45 -200 45
4917873745.6243 -6.0467906 -85.665718 -200 45 -200 45 -200 45
4918873862.3104 -6.0672164 -85.608185 -200 45 -200 45 -200 45
4919873978.9965 -6.0903449 -85.522842 -200 45 -200 45 -200 45
4920874095.6826 -6.1152883 -85.455765 -200 45 -200 45 -200 45
4921874212.3687 -6.1432123 -85.431503 -200 45 -200 45 -200 45
4922874329.0548 -6.1695848 -85.411377 -200 45 -200 45 -200 45
4923874445.741 -6.1951776 -85.388634 -200 45 -200 45 -200 45
4924874562.4271 -6.2209969 -85.401466 -200 45 -200 45 -200 45
4925874679.1132 -6.2493858 -85.422035 -200 45 -200 45 -200 45
4926874795.7993 -6.2720184 -85.474213 -200 45 -200 45 -200 45
4927874912.4854 -6.298964 -85.495964 -200 45 -200 45 -200 45
4928875029.1715 -6.3298163 -85.604691 -200 45 -200 45 -200 45
4929875145.8576 -6.353898 -85.649765 -200 45 -200 45 -200 45
4930875262.5438 -6.3842864 -85.75808 -200 45 -200 45 -200 45
4931875379.2299 -6.4087386 -85.890137 -200 45 -200 45 -200 45
4932875495.916 -6.4392176 -86.016441 -200 45 -200 45 -200 45
4933875612.6021 -6.463419 -86.149864 -200 45 -200 45 -200 45
4934875729.2882 -6.4822259 -86.307648 -200 45 -200 45 -200 45
4935875845.9743 -6.503696 -86.48642 -200 45 -200 45 -200 45
4936875962.6604 -6.5209584 -86.692146 -200 45 -200 45 -200 45
4937876079.3466 -6.5445724 -86.842537 -200 45 -200 45 -200 45
4938876196.0327 -6.5625153 -87.048256 -200 45 -200 45 -200 45
4939876312.7188 -6.5710731 -87.272186 -200 45 -200 45 -200 45
4940876429.4049 -6.5818753 -87.53228 -200 45 -200 45 -200 45
4941876546.091 -6.590652 -87.72477 -200 45 -200 45 -200 45
4942876662.7771 -6.6023488 -87.953964 -200 45 -200 45 -200 45
4943876779.4632 -6.6099267 -88.199287 -200 45 -200 45 -200 45
4944876896.1494 -6.6144428 -88.450844 -200 45 -200 45 -200 45
4945877012.8355 -6.6139364 -88.659027 -200 45 -200 45 -200 45
4946877129.5216 -6.6168628 -88.900558 -200 45 -200 45 -200 45
4947877246.2077 -6.6169267 -89.11306 -200 45 -200 45 -200 45
4948877362.8938 -6.6172915 -89.306297 -200 45 -200 45 -200 45
4949877479.5799 -6.6165323 -89.56308 -200 45 -200 45 -200 45
4950877596.266 -6.6046095 -89.759727 -200 45 -200 45 -200 45
4951877712.9522 -6.5969944 -89.95475 -200 45 -200 45 -200 45
4952877829.6383 -6.58074 -90.164185 -200 45 -200 45 -200 45
4953877946.3244 -6.5640073 -90.339287 -200 45 -200 45 -200 45
4954878063.0105 -6.5513744 -90.510475 -200 45 -200 45 -200 45
4955878179.6966 -6.5312085 -90.667763 -200 45 -200 45 -200 45
4956878296.3827 -6.5073791 -90.814766 -200 45 -200 45 -200 45
4957878413.0688 -6.4862056 -90.895012 -200 45 -200 45 -200 45
4958878529.755 -6.4649339 -91.036949 -200 45 -200 45 -200 45
4959878646.4411 -6.4390163 -91.106361 -200 45 -200 45 -200 45
4960878763.1272 -6.4065728 -91.212708 -200 45 -200 45 -200 45
4961878879.8133 -6.3753557 -91.31189 -200 45 -200 45 -200 45
4962878996.4994 -6.3507376 -91.302269 -200 45 -200 45 -200 45
4963879113.1855 -6.3271956 -91.345581 -200 45 -200 45 -200 45
4964879229.8716 -6.3099246 -91.35157 -200 45 -200 45 -200 45
4965879346.5578 -6.2799721 -91.364166 -200 45 -200 45 -200 45
4966879463.2439 -6.2479005 -91.355255 -200 45 -200 45 -200 45
4967879579.93 -6.2178288 -91.301064 -200 45 -200 45 -200 45
4968879696.6161 -6.1897063 -91.282593 -200 45 -200 45 -200 45
4969879813.3022 -6.1614656 -91.25412 -200 45 -200 45 -200 45
4970879929.9883 -6.1318021 -91.174187 -200 45 -200 45 -200 45
4971880046.6744 -6.1058125 -91.08432 -200 45 -200 45 -200 45
4972880163.3606 -6.0768027 -91.027489 -200 45 -200 45 -200 45
4973880280.0467 -6.0475435 -90.925552 -200 45 -200 45 -200 45
4974880396.7328 -6.0289555 -90.828049 -200 45 -200 45 -200 45
4975880513.4189 -6.006175 -90.703407 -200 45 -200 45 -200 45
4976880630.105 -5.9893503 -90.566414 -200 45 -200 45 -200 45
4977880746.7911 -5.9710736 -90.428085 -200 45 -200 45 -200 45
4978880863.4772 -5.9568844 -90.263741 -200 45 -200 45 -200 45
4979880980.1634 -5.9371157 -90.148727 -200 45 -200 45 -200 45
4980881096.8495 -5.9234037 -89.95253 -200 45 -200 45 -200 45
4981881213.5356 -5.9166398 -89.791412 -200 45 -200 45 -200 45
4982881330.2217 -5.9065552 -89.618019 -200 45 -200 45 -200 45
4983881446.9078 -5.8944039 -89.451073 -200 45 -200 45 -200 45
4984881563.5939 -5.8883853 -89.274979 -200 45 -200 45 -200 45
4985881680.28 -5.8856668 -89.096832 -200 45 -200 45 -200 45
4986881796.9662 -5.8834529 -88.903259 -200 45 -200 45 -200 45
4987881913.6523 -5.8792367 -88.729012 -200 45 -200 45 -200 45
4988882030.3384 -5.8802075 -88.54657 -200 45 -200 45 -200 45
4989882147.0245 -5.8833714 -88.340065 -200 45 -200 45 -200 45
4990882263.7106 -5.8888102 -88.174904 -200 45 -200 45 -200 45
4991882380.3967 -5.8988409 -87.996651 -200 45 -200 45 -200 45
4992882497.0828 -5.9071932 -87.80307 -200 45 -200 45 -200 45
4993882613.769 -5.9165549 -87.657013 -200 45 -200 45 -200 45
4994882730.4551 -5.9237714 -87.483017 -200 45 -200 45 -200 45
4995882847.1412 -5.9431391 -87.336914 -200 45 -200 45 -200 45
4996882963.8273 -5.967339 -87.168564 -200 45 -200 45 -200 45
4997883080.5134 -5.9824004 -87.041519 -200 45 -200 45 -200 45
4998883197.1995 -6.0017672 -86.887451 -200 45 -200 45 -200 45
4999883313.8856 -6.0224199 -86.781891 -200 45 -200 45 -200 45
5000883430.5718 -6.0437608 -86.673775 -200 45 -200 45 -200 45
5001883547.2579 -6.0690422 -86.555054 -200 45 -200 45 -200 45
5002883663.944 -6.0900249 -86.464226 -200 45 -200 45 -200 45
5003883780.6301 -6.1076546 -86.389336 -200 45 -200 45 -200 45
5004883897.3162 -6.1225615 -86.383018 -200 45 -200 45 -200 45
5005884014.0023 -6.1423831 -86.313278 -200 45 -200 45 -200 45
5006884130.6884 -6.1767654 -86.263702 -200 45 -200 45 -200 45
5007884247.3746 -6.2137761 -86.196587 -200 45 -200 45 -200 45
5008884364.0607 -6.2450957 -86.21508 -200 45 -200 45 -200 45
5009884480.7468 -6.2707977 -86.213676 -200 45 -200 45 -200 45
5010884597.4329 -6.2983437 -86.223473 -200 45 -200 45 -200 45
5011884714.119 -6.3258333 -86.24865 -200 45 -200 45 -200 45
5012884830.8051 -6.3462009 -86.323883 -200 45 -200 45 -200 45
5013884947.4912 -6.3713975 -86.413803 -200 45 -200 45 -200 45
5014885064.1774 -6.3927593 -86.518005 -200 45 -200 45 -200 45
5015885180.8635 -6.4182453 -86.651085 -200 45 -200 45 -200 45
5016885297.5496 -6.4416647 -86.764328 -200 45 -200 45 -200 45
5017885414.2357 -6.4576426 -86.936371 -200 45 -200 45 -200 45
5018885530.9218 -6.4765797 -87.10965 -200 45 -200 45 -200 45
5019885647.6079 -6.490149 -87.289917 -200 45 -200 45 -200 45
5020885764.294 -6.5089235 -87.495308 -200 45 -200 45 -200 45
5021885880.9802 -6.5272856 -87.711327 -200 45 -200 45 -200 45
5022885997.6663 -6.53585 -87.922432 -200 45 -200 45 -200 45
5023886114.3524 -6.5472507 -88.164024 -200 45 -200 45 -200 45
5024886231.0385 -6.5615497 -88.371513 -200 45 -200 45 -200 45
5025886347.7246 -6.5686455 -88.646935 -200 45 -200 45 -200 45
5026886464.4107 -6.5785456 -88.883369 -200 45 -200 45 -200 45
5027886581.0968 -6.5841122 -89.130127 -200 45 -200 45 -200 45
5028886697.783 -6.5879469 -89.381058 -200 45 -200 45 -200 45
5029886814.4691 -6.5864482 -89.6185 -200 45 -200 45 -200 45
5030886931.1552 -6.5860362 -89.881256 -200 45 -200 45 -200 45
5031887047.8413 -6.576726 -90.137627 -200 45 -200 45 -200 45
5032887164.5274 -6.5714931 -90.379807 -200 45 -200 45 -200 45
5033887281.2135 -6.5633903 -90.6203 -200 45 -200 45 -200 45
5034887397.8997 -6.5487404 -90.866173 -200 45 -200 45 -200 45
5035887514.5858 -6.5325856 -91.06308 -200 45 -200 45 -200 45
5036887631.2719 -6.5213165 -91.32933 -200 45 -200 45 -200 45
5037887747.958 -6.5028415 -91.524307 -200 45 -200 45 -200 45
5038887864.6441 -6.48351 -91.690117 -200 45 -200 45 -200 45
5039887981.3302 -6.4660549 -91.880615 -200 45 -200 45 -200 45
5040888098.0163 -6.4475408 -92.049973 -200 45 -200 45 -200 45
5041888214.7025 -6.4255137 -92.227089 -200 45 -200 45 -200 45
5042888331.3886 -6.4061537 -92.378242 -200 45 -200 45 -200 45
5043888448.0747 -6.3842344 -92.496902 -200 45 -200 45 -200 45
5044888564.7608 -6.3605518 -92.601906 -200 45 -200 45 -200 45
5045888681.4469 -6.3347831 -92.686356 -200 45 -200 45 -200 45
5046888798.133 -6.3086448 -92.768806 -200 45 -200 45 -200 45
5047888914.8191 -6.2852349 -92.832603 -200 45 -200 45 -200 45
5048889031.5053 -6.2638111 -92.873741 -200 45 -200 45 -200 45
5049889148.1914 -6.2349906 -92.885002 -200 45 -200 45 -200 45
5050889264.8775 -6.2086205 -92.945755 -200 45 -200 45 -200 45
5051889381.5636 -6.1833348 -92.912445 -200 45 -200 45 -200 45
5052889498.2497 -6.1582146 -92.888351 -200 45 -200 45 -200 45
5053889614.9358 -6.1364026 -92.838234 -200 45 -200 45 -200 45
5054889731.6219 -6.1113806 -92.782692 -200 45 -200 45 -200 45
5055889848.3081 -6.0903883 -92.72361 -200 45 -200 45 -200 45
5056889964.9942 -6.0728831 -92.623978 -200 45 -200 45 -200 45
5057890081.6803 -6.0508275 -92.518539 -200 45 -200 45 -200 45
5058890198.3664 -6.0373607 -92.385094 -200 45 -200 45 -200 45
5059890315.0525 -6.0191011 -92.301064 -200 45 -200 45 -200 45
5060890431.7386 -6.0025225 -92.133461 -200 45 -200 45 -200 45
5061890548.4247 -5.9911432 -92.003151 -200 45 -200 45 -200 45
5062890665.1109 -5.9759178 -91.831833 -200 45 -200 45 -200 45
5063890781.797 -5.963788 -91.642548 -200 45 -200 45 -200 45
5064890898.4831 -5.9551153 -91.465981 -200 45 -200 45 -200 45
5065891015.1692 -5.9441032 -91.307663 -200 45 -200 45 -200 45
5066891131.8553 -5.9390969 -91.090828 -200 45 -200 45 -200 45
5067891248.5414 -5.9333043 -90.89386 -200 45 -200 45 -200 45
5068891365.2275 -5.9322381 -90.681732 -200 45 -200 45 -200 45
5069891481.9137 -5.9236813 -90.493019 -200 45 -200 45 -200 45
5070891598.5998 -5.926055 -90.27179 -200 45 -200 45 -200 45
5071891715.2859 -5.9257169 -90.047806 -200 45 -200 45 -200 45
5072891831.972 -5.9334455 -89.836494 -200 45 -200 45 -200 45
5073891948.6581 -5.9393511 -89.632828 -200 45 -200 45 -200 45
5074892065.3442 -5.9493337 -89.413979 -200 45 -200 45 -200 45
5075892182.0303 -5.9585776 -89.219604 -200 45 -200 45 -200 45
5076892298.7165 -5.9637527 -88.991272 -200 45 -200 45 -200 45
5077892415.4026 -5.9784603 -88.810944 -200 45 -200 45 -200 45
5078892532.0887 -5.9915509 -88.641441 -200 45 -200 45 -200 45
5079892648.7748 -6.0056672 -88.466408 -200 45 -200 45 -200 45
5080892765.4609 -6.0226989 -88.325729 -200 45 -200 45 -200 45
5081892882.147 -6.0326452 -88.18129 -200 45 -200 45 -200 45
5082892998.8331 -6.0544267 -88.038246 -200 45 -200 45 -200 45
5083893115.5193 -6.0712495 -87.908356 -200 45 -200 45 -200 45
5084893232.2054 -6.0983977 -87.79454 -200 45 -200 45 -200 45
5085893348.8915 -6.1211262 -87.693398 -200 45 -200 45 -200 45
5086893465.5776 -6.1426654 -87.602798 -200 45 -200 45 -200 45
5087893582.2637 -6.1699328 -87.527908 -200 45 -200 45 -200 45
5088893698.9498 -6.1960974 -87.458496 -200 45 -200 45 -200 45
5089893815.6359 -6.2211313 -87.442467 -200 45 -200 45 -200 45
5090893932.3221 -6.2542071 -87.412338 -200 45 -200 45 -200 45
5091894049.0082 -6.2813492 -87.377777 -200 45 -200 45 -200 45
5092894165.6943 -6.3098154 -87.401642 -200 45 -200 45 -200 45
5093894282.3804 -6.3408213 -87.417656 -200 45 -200 45 -200 45
5094894399.0665 -6.3624673 -87.487167 -200 45 -200 45 -200 45
5095894515.7526 -6.3916311 -87.544083 -200 45 -200 45 -200 45
5096894632.4387 -6.4196925 -87.606674 -200 45 -200 45 -200 45
5097894749.1249 -6.4439592 -87.725151 -200 45 -200 45 -200 45
5098894865.811 -6.4668765 -87.861748 -200 45 -200 45 -200 45
5099894982.4971 -6.4932117 -87.975815 -200 45 -200 45 -200 45
5100895099.1832 -6.5170174 -88.133125 -200 45 -200 45 -200 45
5101895215.8693 -6.5394707 -88.313019 -200 45 -200 45 -200 45
5102895332.5554 -6.5652761 -88.465569 -200 45 -200 45 -200 45
5103895449.2415 -6.5845809 -88.663582 -200 45 -200 45 -200 45
5104895565.9277 -6.6035609 -88.859871 -200 45 -200 45 -200 45
5105895682.6138 -6.6238403 -89.103851 -200 45 -200 45 -200 45
5106895799.2999 -6.6411643 -89.317589 -200 45 -200 45 -200 45
5107895915.986 -6.6522489 -89.545502 -200 45 -200 45 -200 45
5108896032.6721 -6.6605864 -89.784637 -200 45 -200 45 -200 45
5109896149.3582 -6.6740451 -90.039925 -200 45 -200 45 -200 45
5110896266.0443 -6.6786451 -90.319077 -200 45 -200 45 -200 45
5111896382.7305 -6.684938 -90.524734 -200 45 -200 45 -200 45
5112896499.4166 -6.6880069 -90.792023 -200 45 -200 45 -200 45
5113896616.1027 -6.678791 -91.091621 -200 45 -200 45 -200 45
5114896732.7888 -6.6752315 -91.37693 -200 45 -200 45 -200 45
5115896849.4749 -6.6772327 -91.617317 -200 45 -200 45 -200 45
5116896966.161 -6.6739922 -91.85379 -200 45 -200 45 -200 45
5117897082.8471 -6.6658978 -92.118111 -200 45 -200 45 -200 45
5118897199.5333 -6.6549168 -92.348907 -200 45 -200 45 -200 45
5119897316.2194 -6.6414475 -92.585152 -200 45 -200 45 -200 45
5120897432.9055 -6.6251988 -92.82431 -200 45 -200 45 -200 45
5121897549.5916 -6.6125088 -93.027794 -200 45 -200 45 -200 45
5122897666.2777 -6.5938382 -93.218613 -200 45 -200 45 -200 45
5123897782.9638 -6.5777097 -93.378281 -200 45 -200 45 -200 45
5124897899.6499 -6.5569258 -93.575714 -200 45 -200 45 -200 45
5125898016.3361 -6.5347853 -93.723656 -200 45 -200 45 -200 45
5126898133.0222 -6.5091734 -93.861374 -200 45 -200 45 -200 45
5127898249.7083 -6.4871993 -93.98317 -200 45 -200 45 -200 45
5128898366.3944 -6.4570017 -94.107697 -200 45 -200 45 -200 45
5129898483.0805 -6.4289565 -94.1875 -200 45 -200 45 -200 45
5130898599.7666 -6.4061236 -94.262672 -200 45 -200 45 -200 45
5131898716.4527 -6.3781004 -94.329628 -200 45 -200 45 -200 45
5132898833.1389 -6.3525548 -94.383087 -200 45 -200 45 -200 45
5133898949.825 -6.3274279 -94.368881 -200 45 -200 45 -200 45
5134899066.5111 -6.2959495 -94.369965 -200 45 -200 45 -200 45
5135899183.1972 -6.2703843 -94.366615 -200 45 -200 45 -200 45
5136899299.8833 -6.2464437 -94.33786 -200 45 -200 45 -200 45
5137899416.5694 -6.2260518 -94.272842 -200 45 -200 45 -200 45
5138899533.2555 -6.2023787 -94.215828 -200 45 -200 45 -200 45
5139899649.9417 -6.1779118 -94.129471 -200 45 -200 45 -200 45
5140899766.6278 -6.1574793 -94.023842 -200 45 -200 45 -200 45
5141899883.3139 -6.1346421 -93.935959 -200 45 -200 45 -200 45
5142900000 -6.119864 -93.825142 -200 45 -200 45 -200 45
5143900116.6861 -6.0976372 -93.666603 -200 45 -200 45 -200 45
5144900233.3722 -6.0759106 -93.519501 -200 45 -200 45 -200 45
5145900350.0583 -6.0566778 -93.378426 -200 45 -200 45 -200 45
5146900466.7445 -6.0392323 -93.237846 -200 45 -200 45 -200 45
5147900583.4306 -6.0236163 -93.064651 -200 45 -200 45 -200 45
5148900700.1167 -6.0090966 -92.890007 -200 45 -200 45 -200 45
5149900816.8028 -5.9929676 -92.739845 -200 45 -200 45 -200 45
5150900933.4889 -6.0122499 -92.433289 -200 45 -200 45 -200 45
5151901050.175 -6.0076351 -92.240402 -200 45 -200 45 -200 45
5152901166.8611 -6.0046968 -92.020943 -200 45 -200 45 -200 45
5153901283.5473 -6.0012193 -91.828499 -200 45 -200 45 -200 45
5154901400.2334 -6.0056677 -91.603424 -200 45 -200 45 -200 45
5155901516.9195 -6.0109105 -91.36573 -200 45 -200 45 -200 45
5156901633.6056 -6.0127459 -91.17144 -200 45 -200 45 -200 45
5157901750.2917 -6.0259175 -90.944618 -200 45 -200 45 -200 45
5158901866.9778 -6.0357385 -90.744781 -200 45 -200 45 -200 45
5159901983.6639 -6.0512705 -90.542885 -200 45 -200 45 -200 45
5160902100.3501 -6.0543528 -90.345985 -200 45 -200 45 -200 45
5161902217.0362 -6.0628204 -90.158783 -200 45 -200 45 -200 45
5162902333.7223 -6.0791616 -89.988419 -200 45 -200 45 -200 45
5163902450.4084 -6.0961637 -89.813881 -200 45 -200 45 -200 45
5164902567.0945 -6.1135125 -89.631348 -200 45 -200 45 -200 45
5165902683.7806 -6.1415987 -89.50145 -200 45 -200 45 -200 45
5166902800.4667 -6.1580586 -89.318489 -200 45 -200 45 -200 45
5167902917.1529 -6.1857028 -89.184746 -200 45 -200 45 -200 45
5168903033.839 -6.2108731 -89.05117 -200 45 -200 45 -200 45
5169903150.5251 -6.2431164 -88.957375 -200 45 -200 45 -200 45
5170903267.2112 -6.2766376 -88.842834 -200 45 -200 45 -200 45
5171903383.8973 -6.3042736 -88.769936 -200 45 -200 45 -200 45
5172903500.5834 -6.3282099 -88.712975 -200 45 -200 45 -200 45
5173903617.2695 -6.3553648 -88.674347 -200 45 -200 45 -200 45
5174903733.9557 -6.3891487 -88.631477 -200 45 -200 45 -200 45
5175903850.6418 -6.4224925 -88.636391 -200 45 -200 45 -200 45
5176903967.3279 -6.4418368 -88.633278 -200 45 -200 45 -200 45
5177904084.014 -6.4769998 -88.681015 -200 45 -200 45 -200 45
5178904200.7001 -6.5085993 -88.712708 -200 45 -200 45 -200 45
5179904317.3862 -6.5444484 -88.775612 -200 45 -200 45 -200 45
5180904434.0723 -6.5701022 -88.841248 -200 45 -200 45 -200 45
5181904550.7585 -6.6038141 -88.936142 -200 45 -200 45 -200 45
5182904667.4446 -6.6348104 -89.047119 -200 45 -200 45 -200 45
5183904784.1307 -6.6758699 -89.097076 -200 45 -200 45 -200 45
5184904900.8168 -6.7133789 -89.213432 -200 45 -200 45 -200 45
5185905017.5029 -6.7445235 -89.36673 -200 45 -200 45 -200 45
5186905134.189 -6.7694492 -89.505356 -200 45 -200 45 -200 45
5187905250.8751 -6.7941041 -89.647369 -200 45 -200 45 -200 45
5188905367.5613 -6.8173332 -89.838562 -200 45 -200 45 -200 45
5189905484.2474 -6.8415661 -89.987717 -200 45 -200 45 -200 45
5190905600.9335 -6.8651714 -90.17926 -200 45 -200 45 -200 45
5191905717.6196 -6.8738356 -90.387276 -200 45 -200 45 -200 45
5192905834.3057 -6.8803501 -90.623032 -200 45 -200 45 -200 45
5193905950.9918 -6.8778405 -90.836082 -200 45 -200 45 -200 45
5194906067.6779 -6.8811669 -91.069519 -200 45 -200 45 -200 45
5195906184.3641 -6.8778987 -91.322289 -200 45 -200 45 -200 45
5196906301.0502 -6.8832092 -91.584007 -200 45 -200 45 -200 45
5197906417.7363 -6.8773775 -91.851997 -200 45 -200 45 -200 45
5198906534.4224 -6.8702416 -92.106148 -200 45 -200 45 -200 45
5199906651.1085 -6.8666534 -92.377228 -200 45 -200 45 -200 45
5200906767.7946 -6.8600044 -92.627403 -200 45 -200 45 -200 45
5201906884.4807 -6.8552699 -92.879021 -200 45 -200 45 -200 45
5202907001.1669 -6.8427272 -93.154373 -200 45 -200 45 -200 45
5203907117.853 -6.828238 -93.416214 -200 45 -200 45 -200 45
5204907234.5391 -6.810617 -93.654015 -200 45 -200 45 -200 45
5205907351.2252 -6.7821546 -93.898705 -200 45 -200 45 -200 45
5206907467.9113 -6.7614565 -94.132156 -200 45 -200 45 -200 45
5207907584.5974 -6.7417164 -94.344292 -200 45 -200 45 -200 45
5208907701.2835 -6.7118225 -94.531601 -200 45 -200 45 -200 45
5209907817.9697 -6.6854844 -94.689369 -200 45 -200 45 -200 45
5210907934.6558 -6.6639047 -94.864243 -200 45 -200 45 -200 45
5211908051.3419 -6.6306014 -95.008354 -200 45 -200 45 -200 45
5212908168.028 -6.5949035 -95.149048 -200 45 -200 45 -200 45
5213908284.7141 -6.5682473 -95.260651 -200 45 -200 45 -200 45
5214908401.4002 -6.5479021 -95.335014 -200 45 -200 45 -200 45
5215908518.0863 -6.5366697 -95.368408 -200 45 -200 45 -200 45
5216908634.7725 -6.5140858 -95.419769 -200 45 -200 45 -200 45
5217908751.4586 -6.4901004 -95.438622 -200 45 -200 45 -200 45
5218908868.1447 -6.4606352 -95.467361 -200 45 -200 45 -200 45
5219908984.8308 -6.4321547 -95.458351 -200 45 -200 45 -200 45
5220909101.5169 -6.4084339 -95.428375 -200 45 -200 45 -200 45
5221909218.203 -6.3859935 -95.359642 -200 45 -200 45 -200 45
5222909334.8891 -6.3667569 -95.314041 -200 45 -200 45 -200 45
5223909451.5753 -6.3432407 -95.23291 -200 45 -200 45 -200 45
5224909568.2614 -6.3116512 -95.152206 -200 45 -200 45 -200 45
5225909684.9475 -6.290772 -95.057495 -200 45 -200 45 -200 45
5226909801.6336 -6.2804785 -94.927933 -200 45 -200 45 -200 45
5227909918.3197 -6.2607865 -94.786156 -200 45 -200 45 -200 45
5228910035.0058 -6.2510896 -94.614243 -200 45 -200 45 -200 45
5229910151.6919 -6.2391772 -94.452423 -200 45 -200 45 -200 45
5230910268.3781 -6.2295318 -94.255127 -200 45 -200 45 -200 45
5231910385.0642 -6.2254658 -94.058662 -200 45 -200 45 -200 45
5232910501.7503 -6.2235179 -93.854317 -200 45 -200 45 -200 45
5233910618.4364 -6.2202129 -93.644722 -200 45 -200 45 -200 45
5234910735.1225 -6.2162976 -93.41684 -200 45 -200 45 -200 45
5235910851.8086 -6.2139697 -93.159721 -200 45 -200 45 -200 45
5236910968.4947 -6.2154489 -92.933121 -200 45 -200 45 -200 45
5237911085.1809 -6.2155933 -92.677994 -200 45 -200 45 -200 45
5238911201.867 -6.2211804 -92.420258 -200 45 -200 45 -200 45
5239911318.5531 -6.218667 -92.155853 -200 45 -200 45 -200 45
5240911435.2392 -6.2285948 -91.86879 -200 45 -200 45 -200 45
5241911551.9253 -6.2358012 -91.63765 -200 45 -200 45 -200 45
5242911668.6114 -6.2468667 -91.368484 -200 45 -200 45 -200 45
5243911785.2976 -6.2555289 -91.120003 -200 45 -200 45 -200 45
5244911901.9837 -6.2617898 -90.849457 -200 45 -200 45 -200 45
5245912018.6698 -6.2773628 -90.61187 -200 45 -200 45 -200 45
5246912135.3559 -6.2962546 -90.339722 -200 45 -200 45 -200 45
5247912252.042 -6.314477 -90.085739 -200 45 -200 45 -200 45
5248912368.7281 -6.3380308 -89.844719 -200 45 -200 45 -200 45
5249912485.4142 -6.3594494 -89.630844 -200 45 -200 45 -200 45
5250912602.1004 -6.3748269 -89.408661 -200 45 -200 45 -200 45
5251912718.7865 -6.3926864 -89.190796 -200 45 -200 45 -200 45
5252912835.4726 -6.4147964 -89.034111 -200 45 -200 45 -200 45
5253912952.1587 -6.4370666 -88.862549 -200 45 -200 45 -200 45
5254913068.8448 -6.4595494 -88.701668 -200 45 -200 45 -200 45
5255913185.5309 -6.474833 -88.656326 -200 45 -200 45 -200 45
5256913302.217 -6.4908781 -88.552795 -200 45 -200 45 -200 45
5257913418.9032 -6.5231757 -88.448288 -200 45 -200 45 -200 45
5258913535.5893 -6.5471854 -88.407402 -200 45 -200 45 -200 45
5259913652.2754 -6.5904346 -88.326576 -200 45 -200 45 -200 45
5260913768.9615 -6.614141 -88.323875 -200 45 -200 45 -200 45
5261913885.6476 -6.6513171 -88.302429 -200 45 -200 45 -200 45
5262914002.3337 -6.6866736 -88.332344 -200 45 -200 45 -200 45
5263914119.0198 -6.7192206 -88.384544 -200 45 -200 45 -200 45
5264914235.706 -6.7549148 -88.416588 -200 45 -200 45 -200 45
5265914352.3921 -6.7851768 -88.480637 -200 45 -200 45 -200 45
5266914469.0782 -6.8170605 -88.551186 -200 45 -200 45 -200 45
5267914585.7643 -6.8510861 -88.64315 -200 45 -200 45 -200 45
5268914702.4504 -6.8872275 -88.741333 -200 45 -200 45 -200 45
5269914819.1365 -6.9192424 -88.848228 -200 45 -200 45 -200 45
5270914935.8226 -6.9421015 -88.988708 -200 45 -200 45 -200 45
5271915052.5088 -6.9693947 -89.094231 -200 45 -200 45 -200 45
5272915169.1949 -6.991272 -89.220726 -200 45 -200 45 -200 45
5273915285.881 -7.0166559 -89.330162 -200 45 -200 45 -200 45
5274915402.5671 -7.0328135 -89.466743 -200 45 -200 45 -200 45
5275915519.2532 -7.0430093 -89.596947 -200 45 -200 45 -200 45
5276915635.9393 -7.0487657 -89.701431 -200 45 -200 45 -200 45
5277915752.6254 -7.0513039 -89.843773 -200 45 -200 45 -200 45
5278915869.3116 -7.0553703 -90.007973 -200 45 -200 45 -200 45
5279915985.9977 -7.0526671 -90.177979 -200 45 -200 45 -200 45
5280916102.6838 -7.0395441 -90.360748 -200 45 -200 45 -200 45
5281916219.3699 -7.0176611 -90.571892 -200 45 -200 45 -200 45
5282916336.056 -7.001081 -90.803223 -200 45 -200 45 -200 45
5283916452.7421 -6.9833016 -91.035828 -200 45 -200 45 -200 45
5284916569.4282 -6.9549851 -91.2742 -200 45 -200 45 -200 45
5285916686.1144 -6.9251289 -91.536964 -200 45 -200 45 -200 45
5286916802.8005 -6.8932943 -91.789261 -200 45 -200 45 -200 45
5287916919.4866 -6.8613062 -92.038628 -200 45 -200 45 -200 45
5288917036.1727 -6.8326569 -92.31958 -200 45 -200 45 -200 45
5289917152.8588 -6.7949338 -92.560493 -200 45 -200 45 -200 45
5290917269.5449 -6.7585402 -92.816917 -200 45 -200 45 -200 45
5291917386.231 -6.7319474 -93.033195 -200 45 -200 45 -200 45
5292917502.9172 -6.7006998 -93.237564 -200 45 -200 45 -200 45
5293917619.6033 -6.6716056 -93.447182 -200 45 -200 45 -200 45
5294917736.2894 -6.6322503 -93.627831 -200 45 -200 45 -200 45
5295917852.9755 -6.5994744 -93.792274 -200 45 -200 45 -200 45
5296917969.6616 -6.5641699 -93.934929 -200 45 -200 45 -200 45
5297918086.3477 -6.5252085 -94.088661 -200 45 -200 45 -200 45
5298918203.0338 -6.4842796 -94.201889 -200 45 -200 45 -200 45
5299918319.72 -6.4522614 -94.312225 -200 45 -200 45 -200 45
5300918436.4061 -6.4124269 -94.406311 -200 45 -200 45 -200 45
5301918553.0922 -6.3708153 -94.473419 -200 45 -200 45 -200 45
5302918669.7783 -6.3350058 -94.531441 -200 45 -200 45 -200 45
5303918786.4644 -6.2936068 -94.589653 -200 45 -200 45 -200 45
5304918903.1505 -6.2578959 -94.57859 -200 45 -200 45 -200 45
5305919019.8366 -6.2248759 -94.591805 -200 45 -200 45 -200 45
5306919136.5228 -6.1924753 -94.568604 -200 45 -200 45 -200 45
5307919253.2089 -6.1644921 -94.527992 -200 45 -200 45 -200 45
5308919369.895 -6.1333594 -94.493668 -200 45 -200 45 -200 45
5309919486.5811 -6.1057553 -94.422371 -200 45 -200 45 -200 45
5310919603.2672 -6.0760493 -94.336494 -200 45 -200 45 -200 45
5311919719.9533 -6.0519104 -94.251534 -200 45 -200 45 -200 45
5312919836.6394 -6.0250859 -94.150101 -200 45 -200 45 -200 45
5313919953.3256 -6.0026932 -94.058899 -200 45 -200 45 -200 45
5314920070.0117 -5.9796329 -93.910652 -200 45 -200 45 -200 45
5315920186.6978 -5.9612918 -93.795387 -200 45 -200 45 -200 45
5316920303.3839 -5.9490771 -93.663559 -200 45 -200 45 -200 45
5317920420.07 -5.9326038 -93.55835 -200 45 -200 45 -200 45
5318920536.7561 -5.9180112 -93.41114 -200 45 -200 45 -200 45
5319920653.4422 -5.9122863 -93.25161 -200 45 -200 45 -200 45
5320920770.1284 -5.9069982 -93.118446 -200 45 -200 45 -200 45
5321920886.8145 -5.9001374 -92.94706 -200 45 -200 45 -200 45
5322921003.5006 -5.9012356 -92.786629 -200 45 -200 45 -200 45
5323921120.1867 -5.904417 -92.602943 -200 45 -200 45 -200 45
5324921236.8728 -5.9124269 -92.441406 -200 45 -200 45 -200 45
5325921353.5589 -5.921618 -92.240349 -200 45 -200 45 -200 45
5326921470.245 -5.930398 -92.062019 -200 45 -200 45 -200 45
5327921586.9312 -5.9405303 -91.889183 -200 45 -200 45 -200 45
5328921703.6173 -5.9534039 -91.701653 -200 45 -200 45 -200 45
5329921820.3034 -5.9707236 -91.534088 -200 45 -200 45 -200 45
5330921936.9895 -5.9863157 -91.370804 -200 45 -200 45 -200 45
5331922053.6756 -6.0047097 -91.190948 -200 45 -200 45 -200 45
5332922170.3617 -6.0225205 -91.041588 -200 45 -200 45 -200 45
5333922287.0478 -6.0425005 -90.89959 -200 45 -200 45 -200 45
5334922403.734 -6.0593719 -90.749825 -200 45 -200 45 -200 45
5335922520.4201 -6.0922012 -90.631981 -200 45 -200 45 -200 45
5336922637.1062 -6.1178083 -90.550163 -200 45 -200 45 -200 45
5337922753.7923 -6.1452103 -90.459427 -200 45 -200 45 -200 45
5338922870.4784 -6.1756401 -90.345512 -200 45 -200 45 -200 45
5339922987.1645 -6.2096214 -90.289696 -200 45 -200 45 -200 45
5340923103.8506 -6.2388844 -90.235489 -200 45 -200 45 -200 45
5341923220.5368 -6.2755046 -90.200867 -200 45 -200 45 -200 45
5342923337.2229 -6.3106751 -90.183289 -200 45 -200 45 -200 45
5343923453.909 -6.3465486 -90.204376 -200 45 -200 45 -200 45
5344923570.5951 -6.3825307 -90.193649 -200 45 -200 45 -200 45
5345923687.2812 -6.4197378 -90.252121 -200 45 -200 45 -200 45
5346923803.9673 -6.4629169 -90.278709 -200 45 -200 45 -200 45
5347923920.6534 -6.5024037 -90.332382 -200 45 -200 45 -200 45
5348924037.3396 -6.5283346 -90.425217 -200 45 -200 45 -200 45
5349924154.0257 -6.5652218 -90.533577 -200 45 -200 45 -200 45
5350924270.7118 -6.5948391 -90.670303 -200 45 -200 45 -200 45
5351924387.3979 -6.6326857 -90.796333 -200 45 -200 45 -200 45
5352924504.084 -6.6710682 -90.947266 -200 45 -200 45 -200 45
5353924620.7701 -6.702692 -91.117355 -200 45 -200 45 -200 45
5354924737.4562 -6.7337141 -91.292877 -200 45 -200 45 -200 45
5355924854.1424 -6.7687025 -91.486954 -200 45 -200 45 -200 45
5356924970.8285 -6.7957282 -91.696556 -200 45 -200 45 -200 45
5357925087.5146 -6.829937 -91.908379 -200 45 -200 45 -200 45
5358925204.2007 -6.8623843 -92.117371 -200 45 -200 45 -200 45
5359925320.8868 -6.8783884 -92.386482 -200 45 -200 45 -200 45
5360925437.5729 -6.9004564 -92.64473 -200 45 -200 45 -200 45
5361925554.259 -6.9201837 -92.886612 -200 45 -200 45 -200 45
5362925670.9452 -6.9420605 -93.173523 -200 45 -200 45 -200 45
5363925787.6313 -6.9611559 -93.43351 -200 45 -200 45 -200 45
5364925904.3174 -6.9660978 -93.703056 -200 45 -200 45 -200 45
5365926021.0035 -6.9740429 -93.970535 -200 45 -200 45 -200 45
5366926137.6896 -6.9834018 -94.21209 -200 45 -200 45 -200 45
5367926254.3757 -6.9867663 -94.48378 -200 45 -200 45 -200 45
5368926371.0618 -6.9846663 -94.728027 -200 45 -200 45 -200 45
5369926487.748 -6.9950709 -94.958908 -200 45 -200 45 -200 45
5370926604.4341 -6.9968476 -95.165657 -200 45 -200 45 -200 45
5371926721.1202 -6.9956021 -95.352997 -200 45 -200 45 -200 45
5372926837.8063 -6.9945617 -95.550377 -200 45 -200 45 -200 45
5373926954.4924 -6.9910407 -95.702095 -200 45 -200 45 -200 45
5374927071.1785 -6.9866462 -95.851212 -200 45 -200 45 -200 45
5375927187.8646 -6.9804459 -96.006065 -200 45 -200 45 -200 45
5376927304.5508 -6.9689326 -96.074677 -200 45 -200 45 -200 45
5377927421.2369 -6.9481893 -96.153099 -200 45 -200 45 -200 45
5378927537.923 -6.9213033 -96.196487 -200 45 -200 45 -200 45
5379927654.6091 -6.902564 -96.235664 -200 45 -200 45 -200 45
5380927771.2952 -6.8731604 -96.259048 -200 45 -200 45 -200 45
5381927887.9813 -6.846231 -96.196915 -200 45 -200 45 -200 45
5382928004.6674 -6.8178601 -96.18293 -200 45 -200 45 -200 45
5383928121.3536 -6.790257 -96.093956 -200 45 -200 45 -200 45
5384928238.0397 -6.7538357 -96.005821 -200 45 -200 45 -200 45
5385928354.7258 -6.7188578 -95.911484 -200 45 -200 45 -200 45
5386928471.4119 -6.6816101 -95.777443 -200 45 -200 45 -200 45
5387928588.098 -6.6396112 -95.657295 -200 45 -200 45 -200 45
5388928704.7841 -6.5989623 -95.514015 -200 45 -200 45 -200 45
5389928821.4702 -6.5570154 -95.366188 -200 45 -200 45 -200 45
5390928938.1564 -6.5150504 -95.220596 -200 45 -200 45 -200 45
5391929054.8425 -6.4680123 -95.073921 -200 45 -200 45 -200 45
5392929171.5286 -6.4241366 -94.933968 -200 45 -200 45 -200 45
5393929288.2147 -6.3793964 -94.786003 -200 45 -200 45 -200 45
5394929404.9008 -6.3426828 -94.67038 -200 45 -200 45 -200 45
5395929521.5869 -6.3035808 -94.496101 -200 45 -200 45 -200 45
5396929638.273 -6.2571731 -94.355431 -200 45 -200 45 -200 45
5397929754.9592 -6.2164016 -94.223953 -200 45 -200 45 -200 45
5398929871.6453 -6.1822863 -94.028008 -200 45 -200 45 -200 45
5399929988.3314 -6.170629 -93.819519 -200 45 -200 45 -200 45
5400930105.0175 -6.1457968 -93.66394 -200 45 -200 45 -200 45
5401930221.7036 -6.1229677 -93.459686 -200 45 -200 45 -200 45
5402930338.3897 -6.1010661 -93.285027 -200 45 -200 45 -200 45
5403930455.0758 -6.0846457 -93.07 -200 45 -200 45 -200 45
5404930571.762 -6.0729032 -92.867813 -200 45 -200 45 -200 45
5405930688.4481 -6.0643544 -92.665665 -200 45 -200 45 -200 45
5406930805.1342 -6.0485783 -92.465996 -200 45 -200 45 -200 45
5407930921.8203 -6.0447364 -92.246269 -200 45 -200 45 -200 45
5408931038.5064 -6.0346069 -92.048065 -200 45 -200 45 -200 45
5409931155.1925 -6.0335941 -91.82811 -200 45 -200 45 -200 45
5410931271.8786 -6.033504 -91.635132 -200 45 -200 45 -200 45
5411931388.5648 -6.0305824 -91.400757 -200 45 -200 45 -200 45
5412931505.2509 -6.026391 -91.231224 -200 45 -200 45 -200 45
5413931621.937 -6.0322905 -91.010757 -200 45 -200 45 -200 45
5414931738.6231 -6.0440063 -90.81926 -200 45 -200 45 -200 45
5415931855.3092 -6.0522103 -90.641388 -200 45 -200 45 -200 45
5416931971.9953 -6.0585203 -90.459068 -200 45 -200 45 -200 45
5417932088.6814 -6.0711203 -90.31636 -200 45 -200 45 -200 45
5418932205.3676 -6.0853443 -90.129333 -200 45 -200 45 -200 45
5419932322.0537 -6.0996523 -90.024254 -200 45 -200 45 -200 45
5420932438.7398 -6.1160779 -89.888542 -200 45 -200 45 -200 45
5421932555.4259 -6.1392121 -89.764999 -200 45 -200 45 -200 45
5422932672.112 -6.1585417 -89.712685 -200 45 -200 45 -200 45
5423932788.7981 -6.1748872 -89.603561 -200 45 -200 45 -200 45
5424932905.4842 -6.192555 -89.576759 -200 45 -200 45 -200 45
5425933022.1704 -6.2185197 -89.51503 -200 45 -200 45 -200 45
5426933138.8565 -6.2374473 -89.521629 -200 45 -200 45 -200 45
5427933255.5426 -6.2581887 -89.555977 -200 45 -200 45 -200 45
5428933372.2287 -6.2808518 -89.601974 -200 45 -200 45 -200 45
5429933488.9148 -6.3105373 -89.662468 -200 45 -200 45 -200 45
5430933605.6009 -6.3306189 -89.721382 -200 45 -200 45 -200 45
5431933722.287 -6.3555303 -89.831596 -200 45 -200 45 -200 45
5432933838.9732 -6.3873615 -89.918755 -200 45 -200 45 -200 45
5433933955.6593 -6.4134679 -90.035263 -200 45 -200 45 -200 45
5434934072.3454 -6.4382401 -90.208412 -200 45 -200 45 -200 45
5435934189.0315 -6.4655867 -90.383911 -200 45 -200 45 -200 45
5436934305.7176 -6.4898486 -90.560753 -200 45 -200 45 -200 45
5437934422.4037 -6.5154157 -90.778412 -200 45 -200 45 -200 45
5438934539.0898 -6.5412049 -90.99897 -200 45 -200 45 -200 45
5439934655.776 -6.5606899 -91.254257 -200 45 -200 45 -200 45
5440934772.4621 -6.581778 -91.490593 -200 45 -200 45 -200 45
5441934889.1482 -6.600152 -91.762589 -200 45 -200 45 -200 45
5442935005.8343 -6.6193104 -92.021988 -200 45 -200 45 -200 45
5443935122.5204 -6.6290689 -92.350769 -200 45 -200 45 -200 45
5444935239.2065 -6.6421561 -92.656929 -200 45 -200 45 -200 45
5445935355.8926 -6.6475363 -92.958527 -200 45 -200 45 -200 45
5446935472.5788 -6.6655416 -93.270638 -200 45 -200 45 -200 45
5447935589.2649 -6.6708918 -93.535301 -200 45 -200 45 -200 45
5448935705.951 -6.6779771 -93.888245 -200 45 -200 45 -200 45
5449935822.6371 -6.6822004 -94.183395 -200 45 -200 45 -200 45
5450935939.3232 -6.6796918 -94.494698 -200 45 -200 45 -200 45
5451936056.0093 -6.677568 -94.841072 -200 45 -200 45 -200 45
5452936172.6954 -6.6684318 -95.100861 -200 45 -200 45 -200 45
5453936289.3816 -6.6668091 -95.402184 -200 45 -200 45 -200 45
5454936406.0677 -6.6533265 -95.693626 -200 45 -200 45 -200 45
5455936522.7538 -6.6423602 -96.006615 -200 45 -200 45 -200 45
5456936639.4399 -6.6276546 -96.251251 -200 45 -200 45 -200 45
5457936756.126 -6.6109333 -96.513542 -200 45 -200 45 -200 45
5458936872.8121 -6.5908899 -96.780952 -200 45 -200 45 -200 45
5459936989.4983 -6.561789 -97.026291 -200 45 -200 45 -200 45
5460937106.1844 -6.5418034 -97.232147 -200 45 -200 45 -200 45
5461937222.8705 -6.5188866 -97.434441 -200 45 -200 45 -200 45
5462937339.5566 -6.4956784 -97.646576 -200 45 -200 45 -200 45
5463937456.2427 -6.4727993 -97.799896 -200 45 -200 45 -200 45
5464937572.9288 -6.4482937 -97.961456 -200 45 -200 45 -200 45
5465937689.6149 -6.419889 -98.081436 -200 45 -200 45 -200 45
5466937806.3011 -6.3933916 -98.181572 -200 45 -200 45 -200 45
5467937922.9872 -6.364697 -98.277145 -200 45 -200 45 -200 45
5468938039.6733 -6.3415136 -98.351631 -200 45 -200 45 -200 45
5469938156.3594 -6.3098555 -98.415596 -200 45 -200 45 -200 45
5470938273.0455 -6.2810411 -98.429413 -200 45 -200 45 -200 45
5471938389.7316 -6.2575383 -98.433693 -200 45 -200 45 -200 45
5472938506.4177 -6.2322989 -98.437378 -200 45 -200 45 -200 45
5473938623.1039 -6.2035575 -98.391068 -200 45 -200 45 -200 45
5474938739.79 -6.1719007 -98.371216 -200 45 -200 45 -200 45
5475938856.4761 -6.1497808 -98.277138 -200 45 -200 45 -200 45
5476938973.1622 -6.1267304 -98.205673 -200 45 -200 45 -200 45
5477939089.8483 -6.1017847 -98.125511 -200 45 -200 45 -200 45
5478939206.5344 -6.0765433 -98.013458 -200 45 -200 45 -200 45
5479939323.2205 -6.0576587 -97.893791 -200 45 -200 45 -200 45
5480939439.9067 -6.042294 -97.735825 -200 45 -200 45 -200 45
5481939556.5928 -6.0220089 -97.5485 -200 45 -200 45 -200 45
5482939673.2789 -6.010025 -97.377869 -200 45 -200 45 -200 45
5483939789.965 -5.9979 -97.198204 -200 45 -200 45 -200 45
5484939906.6511 -5.9860802 -97.018951 -200 45 -200 45 -200 45
5485940023.3372 -5.9754076 -96.806824 -200 45 -200 45 -200 45
5486940140.0233 -5.9693952 -96.608047 -200 45 -200 45 -200 45
5487940256.7095 -5.9599371 -96.43293 -200 45 -200 45 -200 45
5488940373.3956 -5.9552031 -96.172729 -200 45 -200 45 -200 45
5489940490.0817 -5.9531484 -95.965317 -200 45 -200 45 -200 45
5490940606.7678 -5.9515195 -95.742325 -200 45 -200 45 -200 45
5491940723.4539 -5.9477916 -95.530838 -200 45 -200 45 -200 45
5492940840.14 -5.9493914 -95.314659 -200 45 -200 45 -200 45
5493940956.8261 -5.9549241 -95.085983 -200 45 -200 45 -200 45
5494941073.5123 -5.963819 -94.83548 -200 45 -200 45 -200 45
5495941190.1984 -5.9714541 -94.649399 -200 45 -200 45 -200 45
5496941306.8845 -5.9857535 -94.419617 -200 45 -200 45 -200 45
5497941423.5706 -5.9952316 -94.199837 -200 45 -200 45 -200 45
5498941540.2567 -6.0109363 -93.991753 -200 45 -200 45 -200 45
5499941656.9428 -6.0323119 -93.778885 -200 45 -200 45 -200 45
5500941773.6289 -6.0482092 -93.604088 -200 45 -200 45 -200 45
5501941890.3151 -6.0701418 -93.402519 -200 45 -200 45 -200 45
5502942007.0012 -6.0921707 -93.227257 -200 45 -200 45 -200 45
5503942123.6873 -6.1134953 -93.077133 -200 45 -200 45 -200 45
5504942240.3734 -6.1405611 -92.90802 -200 45 -200 45 -200 45
5505942357.0595 -6.1686325 -92.801483 -200 45 -200 45 -200 45
5506942473.7456 -6.1886334 -92.709862 -200 45 -200 45 -200 45
5507942590.4317 -6.2133937 -92.582092 -200 45 -200 45 -200 45
5508942707.1179 -6.245667 -92.521843 -200 45 -200 45 -200 45
5509942823.804 -6.2823839 -92.446129 -200 45 -200 45 -200 45
5510942940.4901 -6.3121758 -92.367973 -200 45 -200 45 -200 45
5511943057.1762 -6.3467155 -92.344734 -200 45 -200 45 -200 45
5512943173.8623 -6.3761311 -92.34214 -200 45 -200 45 -200 45
5513943290.5484 -6.4104252 -92.339828 -200 45 -200 45 -200 45
5514943407.2345 -6.4404159 -92.359344 -200 45 -200 45 -200 45
5515943523.9207 -6.4771047 -92.392776 -200 45 -200 45 -200 45
5516943640.6068 -6.5071702 -92.456352 -200 45 -200 45 -200 45
5517943757.2929 -6.5441022 -92.527176 -200 45 -200 45 -200 45
5518943873.979 -6.5689974 -92.658112 -200 45 -200 45 -200 45
5519943990.6651 -6.6054521 -92.755287 -200 45 -200 45 -200 45
5520944107.3512 -6.6338453 -92.898926 -200 45 -200 45 -200 45
5521944224.0373 -6.6632323 -93.043434 -200 45 -200 45 -200 45
5522944340.7235 -6.6929636 -93.199158 -200 45 -200 45 -200 45
5523944457.4096 -6.7124786 -93.433838 -200 45 -200 45 -200 45
5524944574.0957 -6.74085 -93.649254 -200 45 -200 45 -200 45
5525944690.7818 -6.7600608 -93.852539 -200 45 -200 45 -200 45
5526944807.4679 -6.7787819 -94.081741 -200 45 -200 45 -200 45
5527944924.154 -6.8012776 -94.328651 -200 45 -200 45 -200 45
5528945040.8401 -6.8201017 -94.575111 -200 45 -200 45 -200 45
5529945157.5263 -6.8321586 -94.854546 -200 45 -200 45 -200 45
5530945274.2124 -6.8400927 -95.12809 -200 45 -200 45 -200 45
5531945390.8985 -6.8510299 -95.398811 -200 45 -200 45 -200 45
5532945507.5846 -6.8552942 -95.689705 -200 45 -200 45 -200 45
5533945624.2707 -6.8594999 -95.991005 -200 45 -200 45 -200 45
5534945740.9568 -6.8591871 -96.245674 -200 45 -200 45 -200 45
5535945857.6429 -6.862164 -96.551247 -200 45 -200 45 -200 45
5536945974.3291 -6.8547339 -96.828667 -200 45 -200 45 -200 45
5537946091.0152 -6.8471637 -97.123474 -200 45 -200 45 -200 45
5538946207.7013 -6.8341007 -97.384949 -200 45 -200 45 -200 45
5539946324.3874 -6.823422 -97.645866 -200 45 -200 45 -200 45
5540946441.0735 -6.8072696 -97.910172 -200 45 -200 45 -200 45
5541946557.7596 -6.7978559 -98.136314 -200 45 -200 45 -200 45
5542946674.4457 -6.78058 -98.386604 -200 45 -200 45 -200 45
5543946791.1319 -6.754725 -98.615677 -200 45 -200 45 -200 45
5544946907.818 -6.7346692 -98.814346 -200 45 -200 45 -200 45
5545947024.5041 -6.7132201 -99.0299 -200 45 -200 45 -200 45
5546947141.1902 -6.6888132 -99.175568 -200 45 -200 45 -200 45
5547947257.8763 -6.6620955 -99.34462 -200 45 -200 45 -200 45
5548947374.5624 -6.6331649 -99.468422 -200 45 -200 45 -200 45
5549947491.2485 -6.6071596 -99.605621 -200 45 -200 45 -200 45
5550947607.9347 -6.5774169 -99.711342 -200 45 -200 45 -200 45
5551947724.6208 -6.5536623 -99.776527 -200 45 -200 45 -200 45
5552947841.3069 -6.5240989 -99.830597 -200 45 -200 45 -200 45
5553947957.993 -6.4890814 -99.911026 -200 45 -200 45 -200 45
5554948074.6791 -6.4589896 -99.926819 -200 45 -200 45 -200 45
5555948191.3652 -6.4287705 -99.91333 -200 45 -200 45 -200 45
5556948308.0513 -6.4041743 -99.933571 -200 45 -200 45 -200 45
5557948424.7375 -6.375628 -99.869728 -200 45 -200 45 -200 45
5558948541.4236 -6.3450089 -99.839325 -200 45 -200 45 -200 45
5559948658.1097 -6.316668 -99.752777 -200 45 -200 45 -200 45
5560948774.7958 -6.2971506 -99.690857 -200 45 -200 45 -200 45
5561948891.4819 -6.2738457 -99.564934 -200 45 -200 45 -200 45
5562949008.168 -6.2455664 -99.492294 -200 45 -200 45 -200 45
5563949124.8541 -6.2235279 -99.338501 -200 45 -200 45 -200 45
5564949241.5403 -6.2039762 -99.189445 -200 45 -200 45 -200 45
5565949358.2264 -6.1857581 -99.0504 -200 45 -200 45 -200 45
5566949474.9125 -6.1662931 -98.862465 -200 45 -200 45 -200 45
5567949591.5986 -6.1511412 -98.695313 -200 45 -200 45 -200 45
5568949708.2847 -6.1384625 -98.508881 -200 45 -200 45 -200 45
5569949824.9708 -6.127327 -98.284988 -200 45 -200 45 -200 45
5570949941.6569 -6.1106772 -98.113205 -200 45 -200 45 -200 45
5571950058.3431 -6.1030273 -97.917236 -200 45 -200 45 -200 45
5572950175.0292 -6.0946107 -97.691994 -200 45 -200 45 -200 45
5573950291.7153 -6.0927176 -97.466248 -200 45 -200 45 -200 45
5574950408.4014 -6.090241 -97.248878 -200 45 -200 45 -200 45
5575950525.0875 -6.0924845 -97.005173 -200 45 -200 45 -200 45
5576950641.7736 -6.092875 -96.77224 -200 45 -200 45 -200 45
5577950758.4597 -6.0995989 -96.5383 -200 45 -200 45 -200 45
5578950875.1459 -6.1047711 -96.324959 -200 45 -200 45 -200 45
5579950991.832 -6.1113172 -96.131134 -200 45 -200 45 -200 45
5580951108.5181 -6.1217175 -95.853394 -200 45 -200 45 -200 45
5581951225.2042 -6.1316776 -95.65834 -200 45 -200 45 -200 45
5582951341.8903 -6.1464195 -95.435524 -200 45 -200 45 -200 45
5583951458.5764 -6.1636958 -95.237038 -200 45 -200 45 -200 45
5584951575.2625 -6.1810446 -95.050461 -200 45 -200 45 -200 45
5585951691.9487 -6.1980472 -94.862701 -200 45 -200 45 -200 45
5586951808.6348 -6.214787 -94.693726 -200 45 -200 45 -200 45
5587951925.3209 -6.240119 -94.531509 -200 45 -200 45 -200 45
5588952042.007 -6.2596197 -94.379807 -200 45 -200 45 -200 45
5589952158.6931 -6.2864399 -94.230667 -200 45 -200 45 -200 45
5590952275.3792 -6.3132248 -94.106888 -200 45 -200 45 -200 45
5591952392.0653 -6.3388152 -93.993294 -200 45 -200 45 -200 45
5592952508.7515 -6.370975 -93.930031 -200 45 -200 45 -200 45
5593952625.4376 -6.4011126 -93.843231 -200 45 -200 45 -200 45
5594952742.1237 -6.4279342 -93.789459 -200 45 -200 45 -200 45
5595952858.8098 -6.4585609 -93.745712 -200 45 -200 45 -200 45
5596952975.4959 -6.4909935 -93.732689 -200 45 -200 45 -200 45
5597953092.182 -6.5180755 -93.734337 -200 45 -200 45 -200 45
5598953208.8681 -6.5503693 -93.720535 -200 45 -200 45 -200 45
5599953325.5543 -6.5851245 -93.751297 -200 45 -200 45 -200 45
5600953442.2404 -6.6172109 -93.821754 -200 45 -200 45 -200 45
5601953558.9265 -6.6463437 -93.905365 -200 45 -200 45 -200 45
5602953675.6126 -6.6732478 -93.985497 -200 45 -200 45 -200 45
5603953792.2987 -6.6992698 -94.122551 -200 45 -200 45 -200 45
5604953908.9848 -6.7302985 -94.244293 -200 45 -200 45 -200 45
5605954025.6709 -6.7579689 -94.400925 -200 45 -200 45 -200 45
5606954142.3571 -6.7836161 -94.566673 -200 45 -200 45 -200 45
5607954259.0432 -6.8080268 -94.749374 -200 45 -200 45 -200 45
5608954375.7293 -6.8348007 -94.945099 -200 45 -200 45 -200 45
5609954492.4154 -6.8532128 -95.150024 -200 45 -200 45 -200 45
5610954609.1015 -6.8741136 -95.384972 -200 45 -200 45 -200 45
5611954725.7876 -6.8866844 -95.622932 -200 45 -200 45 -200 45
5612954842.4737 -6.9069037 -95.8965 -200 45 -200 45 -200 45
5613954959.1599 -6.9177284 -96.135666 -200 45 -200 45 -200 45
5614955075.846 -6.9300466 -96.403275 -200 45 -200 45 -200 45
5615955192.5321 -6.9363694 -96.670898 -200 45 -200 45 -200 45
5616955309.2182 -6.938355 -96.952225 -200 45 -200 45 -200 45
5617955425.9043 -6.9380617 -97.243027 -200 45 -200 45 -200 45
5618955542.5904 -6.9437275 -97.513878 -200 45 -200 45 -200 45
5619955659.2765 -6.9377446 -97.827286 -200 45 -200 45 -200 45
5620955775.9627 -6.9334912 -98.078026 -200 45 -200 45 -200 45
5621955892.6488 -6.9272375 -98.342422 -200 45 -200 45 -200 45
5622956009.3349 -6.916235 -98.629295 -200 45 -200 45 -200 45
5623956126.021 -6.9048972 -98.909454 -200 45 -200 45 -200 45
5624956242.7071 -6.8969564 -99.114456 -200 45 -200 45 -200 45
5625956359.3932 -6.8802271 -99.355247 -200 45 -200 45 -200 45
5626956476.0793 -6.863183 -99.589561 -200 45 -200 45 -200 45
5627956592.7655 -6.8364339 -99.800362 -200 45 -200 45 -200 45
5628956709.4516 -6.8147206 -99.99955 -200 45 -200 45 -200 45
5629956826.1377 -6.7895155 -100.19775 -200 45 -200 45 -200 45
5630956942.8238 -6.766777 -100.33869 -200 45 -200 45 -200 45
5631957059.5099 -6.739717 -100.4948 -200 45 -200 45 -200 45
5632957176.196 -6.7123122 -100.64995 -200 45 -200 45 -200 45
5633957292.8821 -6.6829414 -100.75621 -200 45 -200 45 -200 45
5634957409.5683 -6.657496 -100.83974 -200 45 -200 45 -200 45
5635957526.2544 -6.6229119 -100.91471 -200 45 -200 45 -200 45
5636957642.9405 -6.5919385 -100.97031 -200 45 -200 45 -200 45
5637957759.6266 -6.5650306 -101.01076 -200 45 -200 45 -200 45
5638957876.3127 -6.5364628 -101.03013 -200 45 -200 45 -200 45
5639957992.9988 -6.5070543 -101.05032 -200 45 -200 45 -200 45
5640958109.6849 -6.4824057 -101.01012 -200 45 -200 45 -200 45
5641958226.3711 -6.4547119 -100.97335 -200 45 -200 45 -200 45
5642958343.0572 -6.4248071 -100.92376 -200 45 -200 45 -200 45
5643958459.7433 -6.3985257 -100.85038 -200 45 -200 45 -200 45
5644958576.4294 -6.369628 -100.75161 -200 45 -200 45 -200 45
5645958693.1155 -6.3475637 -100.66302 -200 45 -200 45 -200 45
5646958809.8016 -6.3279095 -100.54509 -200 45 -200 45 -200 45
5647958926.4877 -6.3047471 -100.42903 -200 45 -200 45 -200 45
5648959043.1739 -6.2756438 -100.28991 -200 45 -200 45 -200 45
5649959159.86 -6.2573156 -100.11658 -200 45 -200 45 -200 45
5650959276.5461 -6.2461667 -99.925003 -200 45 -200 45 -200 45
5651959393.2322 -6.2303104 -99.752182 -200 45 -200 45 -200 45
5652959509.9183 -6.217783 -99.572563 -200 45 -200 45 -200 45
5653959626.6044 -6.2048287 -99.363525 -200 45 -200 45 -200 45
5654959743.2905 -6.1948929 -99.162689 -200 45 -200 45 -200 45
5655959859.9767 -6.1893992 -98.96209 -200 45 -200 45 -200 45
5656959976.6628 -6.1819286 -98.727348 -200 45 -200 45 -200 45
5657960093.3489 -6.180563 -98.495964 -200 45 -200 45 -200 45
5658960210.035 -6.1807961 -98.295937 -200 45 -200 45 -200 45
5659960326.7211 -6.179637 -98.047318 -200 45 -200 45 -200 45
5660960443.4072 -6.1745806 -97.826538 -200 45 -200 45 -200 45
5661960560.0933 -6.1798406 -97.596519 -200 45 -200 45 -200 45
5662960676.7795 -6.185657 -97.356186 -200 45 -200 45 -200 45
5663960793.4656 -6.1968207 -97.125267 -200 45 -200 45 -200 45
5664960910.1517 -6.2048683 -96.930504 -200 45 -200 45 -200 45
5665961026.8378 -6.2212677 -96.702614 -200 45 -200 45 -200 45
5666961143.5239 -6.2331986 -96.504608 -200 45 -200 45 -200 45
5667961260.21 -6.2449183 -96.295525 -200 45 -200 45 -200 45
5668961376.8961 -6.2623634 -96.113922 -200 45 -200 45 -200 45
5669961493.5823 -6.2800155 -95.935005 -200 45 -200 45 -200 45
5670961610.2684 -6.3064404 -95.764549 -200 45 -200 45 -200 45
5671961726.9545 -6.3285475 -95.585724 -200 45 -200 45 -200 45
5672961843.6406 -6.354641 -95.441933 -200 45 -200 45 -200 45
5673961960.3267 -6.378911 -95.287086 -200 45 -200 45 -200 45
5674962077.0128 -6.4075255 -95.163399 -200 45 -200 45 -200 45
5675962193.6989 -6.4342809 -95.044136 -200 45 -200 45 -200 45
5676962310.3851 -6.461894 -94.963226 -200 45 -200 45 -200 45
5677962427.0712 -6.492259 -94.898376 -200 45 -200 45 -200 45
5678962543.7573 -6.5220389 -94.83564 -200 45 -200 45 -200 45
5679962660.4434 -6.5508232 -94.822426 -200 45 -200 45 -200 45
5680962777.1295 -6.5723948 -94.81633 -200 45 -200 45 -200 45
5681962893.8156 -6.6037631 -94.807343 -200 45 -200 45 -200 45
5682963010.5018 -6.6396351 -94.83638 -200 45 -200 45 -200 45
5683963127.1879 -6.6779618 -94.856743 -200 45 -200 45 -200 45
5684963243.874 -6.7121606 -94.923576 -200 45 -200 45 -200 45
5685963360.5601 -6.7404208 -94.973465 -200 45 -200 45 -200 45
5686963477.2462 -6.7745571 -95.079834 -200 45 -200 45 -200 45
5687963593.9323 -6.802331 -95.20256 -200 45 -200 45 -200 45
5688963710.6184 -6.8334889 -95.332733 -200 45 -200 45 -200 45
5689963827.3046 -6.8628321 -95.471031 -200 45 -200 45 -200 45
5690963943.9907 -6.8878822 -95.642487 -200 45 -200 45 -200 45
5691964060.6768 -6.914856 -95.819771 -200 45 -200 45 -200 45
5692964177.3629 -6.9346805 -96.039192 -200 45 -200 45 -200 45
5693964294.049 -6.9583383 -96.251717 -200 45 -200 45 -200 45
5694964410.7351 -6.9780011 -96.482574 -200 45 -200 45 -200 45
5695964527.4212 -6.9909797 -96.746513 -200 45 -200 45 -200 45
5696964644.1074 -7.0093889 -96.9841 -200 45 -200 45 -200 45
5697964760.7935 -7.0192189 -97.247353 -200 45 -200 45 -200 45
5698964877.4796 -7.0302029 -97.509056 -200 45 -200 45 -200 45
5699964994.1657 -7.0377312 -97.787788 -200 45 -200 45 -200 45
5700965110.8518 -7.0418601 -98.068741 -200 45 -200 45 -200 45
5701965227.5379 -7.0427766 -98.355293 -200 45 -200 45 -200 45
5702965344.224 -7.0482841 -98.612167 -200 45 -200 45 -200 45
5703965460.9102 -7.0478988 -98.906456 -200 45 -200 45 -200 45
5704965577.5963 -7.0403743 -99.19352 -200 45 -200 45 -200 45
5705965694.2824 -7.0344791 -99.47924 -200 45 -200 45 -200 45
5706965810.9685 -7.0264745 -99.739525 -200 45 -200 45 -200 45
5707965927.6546 -7.0131979 -100.00138 -200 45 -200 45 -200 45
5708966044.3407 -6.999023 -100.25137 -200 45 -200 45 -200 45
5709966161.0268 -6.980547 -100.50986 -200 45 -200 45 -200 45
5710966277.713 -6.9589505 -100.72519 -200 45 -200 45 -200 45
5711966394.3991 -6.9360971 -100.94154 -200 45 -200 45 -200 45
5712966511.0852 -6.9121318 -101.1525 -200 45 -200 45 -200 45
5713966627.7713 -6.8866014 -101.34133 -200 45 -200 45 -200 45
5714966744.4574 -6.8519349 -101.53869 -200 45 -200 45 -200 45
5715966861.1435 -6.827683 -101.67391 -200 45 -200 45 -200 45
5716966977.8296 -6.8162417 -101.77514 -200 45 -200 45 -200 45
5717967094.5158 -6.7841597 -101.90195 -200 45 -200 45 -200 45
5718967211.2019 -6.7570829 -101.98978 -200 45 -200 45 -200 45
5719967327.888 -6.7291975 -102.08105 -200 45 -200 45 -200 45
5720967444.5741 -6.6984663 -102.12644 -200 45 -200 45 -200 45
5721967561.2602 -6.6708236 -102.17886 -200 45 -200 45 -200 45
5722967677.9463 -6.6401253 -102.19125 -200 45 -200 45 -200 45
5723967794.6324 -6.6127 -102.18929 -200 45 -200 45 -200 45
5724967911.3186 -6.5903478 -102.15701 -200 45 -200 45 -200 45
5725968028.0047 -6.5622687 -102.11012 -200 45 -200 45 -200 45
5726968144.6908 -6.5281334 -102.06832 -200 45 -200 45 -200 45
5727968261.3769 -6.5003352 -101.99049 -200 45 -200 45 -200 45
5728968378.063 -6.4743338 -101.87772 -200 45 -200 45 -200 45
5729968494.7491 -6.4485607 -101.77973 -200 45 -200 45 -200 45
5730968611.4352 -6.4306045 -101.65234 -200 45 -200 45 -200 45
5731968728.1214 -6.4104614 -101.50182 -200 45 -200 45 -200 45
5732968844.8075 -6.3883896 -101.35177 -200 45 -200 45 -200 45
5733968961.4936 -6.3743992 -101.15917 -200 45 -200 45 -200 45
5734969078.1797 -6.358984 -100.972 -200 45 -200 45 -200 45
5735969194.8658 -6.3481393 -100.76195 -200 45 -200 45 -200 45
5736969311.5519 -6.3360085 -100.54677 -200 45 -200 45 -200 45
5737969428.238 -6.3202386 -100.31225 -200 45 -200 45 -200 45
5738969544.9242 -6.3041177 -100.08347 -200 45 -200 45 -200 45
5739969661.6103 -6.2936563 -99.859215 -200 45 -200 45 -200 45
5740969778.2964 -6.2864361 -99.597427 -200 45 -200 45 -200 45
5741969894.9825 -6.2760324 -99.366524 -200 45 -200 45 -200 45
5742970011.6686 -6.2673225 -99.134354 -200 45 -200 45 -200 45
5743970128.3547 -6.2667627 -98.863358 -200 45 -200 45 -200 45
5744970245.0408 -6.264852 -98.654152 -200 45 -200 45 -200 45
5745970361.727 -6.2608838 -98.40564 -200 45 -200 45 -200 45
5746970478.4131 -6.2634821 -98.166161 -200 45 -200 45 -200 45
5747970595.0992 -6.2668295 -97.9692 -200 45 -200 45 -200 45
5748970711.7853 -6.2833548 -97.744873 -200 45 -200 45 -200 45
5749970828.4714 -6.2979035 -97.526314 -200 45 -200 45 -200 45
5750970945.1575 -6.3113732 -97.326195 -200 45 -200 45 -200 45
5751971061.8436 -6.3294072 -97.118622 -200 45 -200 45 -200 45
5752971178.5298 -6.3452139 -96.900307 -200 45 -200 45 -200 45
5753971295.2159 -6.3626475 -96.730789 -200 45 -200 45 -200 45
5754971411.902 -6.3839231 -96.548378 -200 45 -200 45 -200 45
5755971528.5881 -6.412179 -96.346855 -200 45 -200 45 -200 45
5756971645.2742 -6.4425697 -96.223373 -200 45 -200 45 -200 45
5757971761.9603 -6.4650106 -96.057297 -200 45 -200 45 -200 45
5758971878.6464 -6.4890099 -95.967941 -200 45 -200 45 -200 45
5759971995.3326 -6.5192184 -95.844223 -200 45 -200 45 -200 45
5760972112.0187 -6.550878 -95.704926 -200 45 -200 45 -200 45
5761972228.7048 -6.5812716 -95.646393 -200 45 -200 45 -200 45
5762972345.3909 -6.6135764 -95.581276 -200 45 -200 45 -200 45
5763972462.077 -6.6492777 -95.488045 -200 45 -200 45 -200 45
5764972578.7631 -6.6843686 -95.450729 -200 45 -200 45 -200 45
5765972695.4492 -6.7156086 -95.407562 -200 45 -200 45 -200 45
5766972812.1354 -6.7547455 -95.366547 -200 45 -200 45 -200 45
5767972928.8215 -6.7878523 -95.356415 -200 45 -200 45 -200 45
5768973045.5076 -6.8207064 -95.362206 -200 45 -200 45 -200 45
5769973162.1937 -6.8473935 -95.399399 -200 45 -200 45 -200 45
5770973278.8798 -6.8722587 -95.471512 -200 45 -200 45 -200 45
5771973395.5659 -6.8957992 -95.536186 -200 45 -200 45 -200 45
5772973512.252 -6.9209676 -95.630447 -200 45 -200 45 -200 45
5773973628.9382 -6.9392633 -95.767754 -200 45 -200 45 -200 45
5774973745.6243 -6.955781 -95.922737 -200 45 -200 45 -200 45
5775973862.3104 -6.9788074 -96.090591 -200 45 -200 45 -200 45
5776973978.9965 -6.9947062 -96.314606 -200 45 -200 45 -200 45
5777974095.6826 -7.0113397 -96.51667 -200 45 -200 45 -200 45
5778974212.3687 -7.0184655 -96.789825 -200 45 -200 45 -200 45
5779974329.0548 -7.0332317 -97.00515 -200 45 -200 45 -200 45
5780974445.741 -7.0449481 -97.28759 -200 45 -200 45 -200 45
5781974562.4271 -7.0542359 -97.532372 -200 45 -200 45 -200 45
5782974679.1132 -7.0665407 -97.827164 -200 45 -200 45 -200 45
5783974795.7993 -7.0717034 -98.093819 -200 45 -200 45 -200 45
5784974912.4854 -7.0711408 -98.396675 -200 45 -200 45 -200 45
5785975029.1715 -7.0705414 -98.708328 -200 45 -200 45 -200 45
5786975145.8576 -7.0630445 -99.019005 -200 45 -200 45 -200 45
5787975262.5438 -7.0589957 -99.299187 -200 45 -200 45 -200 45
5788975379.2299 -7.054493 -99.615456 -200 45 -200 45 -200 45
5789975495.916 -7.0363817 -99.912491 -200 45 -200 45 -200 45
5790975612.6021 -7.0254211 -100.2126 -200 45 -200 45 -200 45
5791975729.2882 -7.0111141 -100.50176 -200 45 -200 45 -200 45
5792975845.9743 -6.995666 -100.7731 -200 45 -200 45 -200 45
5793975962.6604 -6.9767599 -101.0797 -200 45 -200 45 -200 45
5794976079.3466 -6.9513049 -101.31199 -200 45 -200 45 -200 45
5795976196.0327 -6.933084 -101.53102 -200 45 -200 45 -200 45
5796976312.7188 -6.9062266 -101.80006 -200 45 -200 45 -200 45
5797976429.4049 -6.8816776 -101.97406 -200 45 -200 45 -200 45
5798976546.091 -6.8596096 -102.1791 -200 45 -200 45 -200 45
5799976662.7771 -6.8333263 -102.34107 -200 45 -200 45 -200 45
5800976779.4632 -6.8040833 -102.47321 -200 45 -200 45 -200 45
5801976896.1494 -6.7746439 -102.61953 -200 45 -200 45 -200 45
5802977012.8355 -6.7418303 -102.7561 -200 45 -200 45 -200 45
5803977129.5216 -6.7153559 -102.83844 -200 45 -200 45 -200 45
5804977246.2077 -6.6804051 -102.9334 -200 45 -200 45 -200 45
5805977362.8938 -6.6444259 -102.97136 -200 45 -200 45 -200 45
5806977479.5799 -6.6189613 -103.04481 -200 45 -200 45 -200 45
5807977596.266 -6.5856342 -103.02984 -200 45 -200 45 -200 45
5808977712.9522 -6.5580864 -103.05157 -200 45 -200 45 -200 45
5809977829.6383 -6.5259204 -103.03773 -200 45 -200 45 -200 45
5810977946.3244 -6.4943948 -102.9732 -200 45 -200 45 -200 45
5811978063.0105 -6.4715266 -102.90813 -200 45 -200 45 -200 45
5812978179.6966 -6.4467807 -102.83287 -200 45 -200 45 -200 45
5813978296.3827 -6.4200382 -102.73235 -200 45 -200 45 -200 45
5814978413.0688 -6.3951244 -102.63434 -200 45 -200 45 -200 45
5815978529.755 -6.3780351 -102.48901 -200 45 -200 45 -200 45
5816978646.4411 -6.3590784 -102.35764 -200 45 -200 45 -200 45
5817978763.1272 -6.3364067 -102.19703 -200 45 -200 45 -200 45
5818978879.8133 -6.3189478 -102.02991 -200 45 -200 45 -200 45
5819978996.4994 -6.3031187 -101.84982 -200 45 -200 45 -200 45
5820979113.1855 -6.2834496 -101.65209 -200 45 -200 45 -200 45
5821979229.8716 -6.260438 -101.49846 -200 45 -200 45 -200 45
5822979346.5578 -6.2456036 -101.26769 -200 45 -200 45 -200 45
5823979463.2439 -6.2514706 -101.0144 -200 45 -200 45 -200 45
5824979579.93 -6.2428083 -100.80374 -200 45 -200 45 -200 45
5825979696.6161 -6.2401304 -100.55741 -200 45 -200 45 -200 45
5826979813.3022 -6.2370353 -100.35421 -200 45 -200 45 -200 45
5827979929.9883 -6.2355027 -100.09912 -200 45 -200 45 -200 45
5828980046.6744 -6.2381301 -99.894524 -200 45 -200 45 -200 45
5829980163.3606 -6.2398968 -99.666496 -200 45 -200 45 -200 45
5830980280.0467 -6.2447748 -99.410164 -200 45 -200 45 -200 45
5831980396.7328 -6.2524958 -99.18222 -200 45 -200 45 -200 45
5832980513.4189 -6.2664833 -98.956932 -200 45 -200 45 -200 45
5833980630.105 -6.2748055 -98.731079 -200 45 -200 45 -200 45
5834980746.7911 -6.2949128 -98.533432 -200 45 -200 45 -200 45
5835980863.4772 -6.3087587 -98.300316 -200 45 -200 45 -200 45
5836980980.1634 -6.3217978 -98.10318 -200 45 -200 45 -200 45
5837981096.8495 -6.3375382 -97.923447 -200 45 -200 45 -200 45
5838981213.5356 -6.3533621 -97.762085 -200 45 -200 45 -200 45
5839981330.2217 -6.3764977 -97.592621 -200 45 -200 45 -200 45
5840981446.9078 -6.4061112 -97.419655 -200 45 -200 45 -200 45
5841981563.5939 -6.4338694 -97.28289 -200 45 -200 45 -200 45
5842981680.28 -6.4582458 -97.149261 -200 45 -200 45 -200 45
5843981796.9662 -6.4876523 -97.040192 -200 45 -200 45 -200 45
5844981913.6523 -6.5204101 -96.941597 -200 45 -200 45 -200 45
5845982030.3384 -6.553565 -96.850235 -200 45 -200 45 -200 45
5846982147.0245 -6.5812469 -96.789803 -200 45 -200 45 -200 45
5847982263.7106 -6.6121435 -96.742592 -200 45 -200 45 -200 45
5848982380.3967 -6.6472096 -96.713196 -200 45 -200 45 -200 45
5849982497.0828 -6.6815848 -96.705353 -200 45 -200 45 -200 45
5850982613.769 -6.715486 -96.710976 -200 45 -200 45 -200 45
5851982730.4551 -6.7445822 -96.745857 -200 45 -200 45 -200 45
5852982847.1412 -6.7775688 -96.792274 -200 45 -200 45 -200 45
5853982963.8273 -6.8052506 -96.904152 -200 45 -200 45 -200 45
5854983080.5134 -6.8370671 -97.011452 -200 45 -200 45 -200 45
5855983197.1995 -6.8635817 -97.109901 -200 45 -200 45 -200 45
5856983313.8856 -6.8971672 -97.214348 -200 45 -200 45 -200 45
5857983430.5718 -6.9344769 -97.386681 -200 45 -200 45 -200 45
5858983547.2579 -6.960783 -97.55397 -200 45 -200 45 -200 45
5859983663.944 -6.9881301 -97.738503 -200 45 -200 45 -200 45
5860983780.6301 -7.0133896 -97.924538 -200 45 -200 45 -200 45
5861983897.3162 -7.0310478 -98.141808 -200 45 -200 45 -200 45
5862984014.0023 -7.0567799 -98.386528 -200 45 -200 45 -200 45
5863984130.6884 -7.0730491 -98.616844 -200 45 -200 45 -200 45
5864984247.3746 -7.09131 -98.856133 -200 45 -200 45 -200 45
5865984364.0607 -7.1154213 -99.099976 -200 45 -200 45 -200 45
5866984480.7468 -7.1242905 -99.404388 -200 45 -200 45 -200 45
5867984597.4329 -7.1302133 -99.678345 -200 45 -200 45 -200 45
5868984714.119 -7.1334782 -99.984596 -200 45 -200 45 -200 45
5869984830.8051 -7.1371236 -100.2747 -200 45 -200 45 -200 45
5870984947.4912 -7.1334324 -100.56653 -200 45 -200 45 -200 45
5871985064.1774 -7.1366224 -100.87329 -200 45 -200 45 -200 45
5872985180.8635 -7.1305161 -101.1553 -200 45 -200 45 -200 45
5873985297.5496 -7.127037 -101.41644 -200 45 -200 45 -200 45
5874985414.2357 -7.1184549 -101.66372 -200 45 -200 45 -200 45
5875985530.9218 -7.1053948 -102.00395 -200 45 -200 45 -200 45
5876985647.6079 -7.0941386 -102.23666 -200 45 -200 45 -200 45
5877985764.294 -7.0751009 -102.47841 -200 45 -200 45 -200 45
5878985880.9802 -7.0523877 -102.71616 -200 45 -200 45 -200 45
5879985997.6663 -7.0344291 -102.96336 -200 45 -200 45 -200 45
5880986114.3524 -7.0101929 -103.17275 -200 45 -200 45 -200 45
5881986231.0385 -6.9880705 -103.36186 -200 45 -200 45 -200 45
5882986347.7246 -6.9607167 -103.53811 -200 45 -200 45 -200 45
5883986464.4107 -6.9336376 -103.72896 -200 45 -200 45 -200 45
5884986581.0968 -6.9034014 -103.84885 -200 45 -200 45 -200 45
5885986697.783 -6.873395 -103.98653 -200 45 -200 45 -200 45
5886986814.4691 -6.8382306 -104.08979 -200 45 -200 45 -200 45
5887986931.1552 -6.801753 -104.17104 -200 45 -200 45 -200 45
5888987047.8413 -6.7743554 -104.24232 -200 45 -200 45 -200 45
5889987164.5274 -6.7492142 -104.2681 -200 45 -200 45 -200 45
5890987281.2135 -6.7169776 -104.29563 -200 45 -200 45 -200 45
5891987397.8997 -6.6866989 -104.29403 -200 45 -200 45 -200 45
5892987514.5858 -6.6600142 -104.27864 -200 45 -200 45 -200 45
5893987631.2719 -6.6251855 -104.25909 -200 45 -200 45 -200 45
5894987747.958 -6.6001825 -104.21201 -200 45 -200 45 -200 45
5895987864.6441 -6.5700998 -104.15042 -200 45 -200 45 -200 45
5896987981.3302 -6.5431614 -104.06177 -200 45 -200 45 -200 45
5897988098.0163 -6.5224652 -103.9345 -200 45 -200 45 -200 45
5898988214.7025 -6.4993677 -103.83025 -200 45 -200 45 -200 45
5899988331.3886 -6.4710145 -103.68978 -200 45 -200 45 -200 45
5900988448.0747 -6.4437733 -103.54045 -200 45 -200 45 -200 45
5901988564.7608 -6.4253955 -103.36842 -200 45 -200 45 -200 45
5902988681.4469 -6.4025607 -103.2 -200 45 -200 45 -200 45
5903988798.133 -6.378551 -103.00073 -200 45 -200 45 -200 45
5904988914.8191 -6.3675914 -102.82045 -200 45 -200 45 -200 45
5905989031.5053 -6.3624229 -102.60683 -200 45 -200 45 -200 45
5906989148.1914 -6.3503881 -102.36842 -200 45 -200 45 -200 45
5907989264.8775 -6.3382683 -102.14765 -200 45 -200 45 -200 45
5908989381.5636 -6.3380327 -101.91655 -200 45 -200 45 -200 45
5909989498.2497 -6.3331842 -101.67376 -200 45 -200 45 -200 45
5910989614.9358 -6.3236322 -101.44444 -200 45 -200 45 -200 45
5911989731.6219 -6.32268 -101.19942 -200 45 -200 45 -200 45
5912989848.3081 -6.3235922 -100.96746 -200 45 -200 45 -200 45
5913989964.9942 -6.3285818 -100.71943 -200 45 -200 45 -200 45
5914990081.6803 -6.3355479 -100.47237 -200 45 -200 45 -200 45
5915990198.3664 -6.3335924 -100.2364 -200 45 -200 45 -200 45
5916990315.0525 -6.3396945 -99.99144 -200 45 -200 45 -200 45
5917990431.7386 -6.3535552 -99.748367 -200 45 -200 45 -200 45
5918990548.4247 -6.364387 -99.54393 -200 45 -200 45 -200 45
5919990665.1109 -6.3763156 -99.324547 -200 45 -200 45 -200 45
5920990781.797 -6.3838816 -99.109283 -200 45 -200 45 -200 45
5921990898.4831 -6.4073715 -98.886726 -200 45 -200 45 -200 45
5922991015.1692 -6.4319725 -98.689087 -200 45 -200 45 -200 45
5923991131.8553 -6.4558029 -98.505913 -200 45 -200 45 -200 45
5924991248.5414 -6.4839435 -98.36187 -200 45 -200 45 -200 45
5925991365.2275 -6.5079398 -98.187485 -200 45 -200 45 -200 45
5926991481.9137 -6.5322976 -98.078453 -200 45 -200 45 -200 45
5927991598.5998 -6.5579166 -97.968765 -200 45 -200 45 -200 45
5928991715.2859 -6.5881209 -97.850891 -200 45 -200 45 -200 45
5929991831.972 -6.6148877 -97.749557 -200 45 -200 45 -200 45
5930991948.6581 -6.6493983 -97.699837 -200 45 -200 45 -200 45
5931992065.3442 -6.6734796 -97.648598 -200 45 -200 45 -200 45
5932992182.0303 -6.7088938 -97.620659 -200 45 -200 45 -200 45
5933992298.7165 -6.7396569 -97.607719 -200 45 -200 45 -200 45
5934992415.4026 -6.7660275 -97.624519 -200 45 -200 45 -200 45
5935992532.0887 -6.8035693 -97.637444 -200 45 -200 45 -200 45
5936992648.7748 -6.8321404 -97.707497 -200 45 -200 45 -200 45
5937992765.4609 -6.8716297 -97.753716 -200 45 -200 45 -200 45
5938992882.147 -6.9019361 -97.839241 -200 45 -200 45 -200 45
5939992998.8331 -6.9395394 -97.960159 -200 45 -200 45 -200 45
5940993115.5193 -6.9639673 -98.095131 -200 45 -200 45 -200 45
5941993232.2054 -6.9963737 -98.223343 -200 45 -200 45 -200 45
5942993348.8915 -7.023344 -98.399147 -200 45 -200 45 -200 45
5943993465.5776 -7.0507531 -98.591309 -200 45 -200 45 -200 45
5944993582.2637 -7.0760021 -98.77359 -200 45 -200 45 -200 45
5945993698.9498 -7.095211 -98.991821 -200 45 -200 45 -200 45
5946993815.6359 -7.1172543 -99.217484 -200 45 -200 45 -200 45
5947993932.3221 -7.1389675 -99.468086 -200 45 -200 45 -200 45
5948994049.0082 -7.1515136 -99.749435 -200 45 -200 45 -200 45
5949994165.6943 -7.1690869 -99.989891 -200 45 -200 45 -200 45
5950994282.3804 -7.1777391 -100.28474 -200 45 -200 45 -200 45
5951994399.0665 -7.1844049 -100.57516 -200 45 -200 45 -200 45
5952994515.7526 -7.1905456 -100.84369 -200 45 -200 45 -200 45
5953994632.4387 -7.1968331 -101.15838 -200 45 -200 45 -200 45
5954994749.1249 -7.197464 -101.42903 -200 45 -200 45 -200 45
5955994865.811 -7.1956639 -101.73618 -200 45 -200 45 -200 45
5956994982.4971 -7.1933293 -102.04272 -200 45 -200 45 -200 45
5957995099.1832 -7.1854477 -102.33934 -200 45 -200 45 -200 45
5958995215.8693 -7.1757989 -102.61264 -200 45 -200 45 -200 45
5959995332.5554 -7.1673336 -102.92141 -200 45 -200 45 -200 45
5960995449.2415 -7.1524429 -103.18638 -200 45 -200 45 -200 45
5961995565.9277 -7.1339464 -103.43492 -200 45 -200 45 -200 45
5962995682.6138 -7.1088724 -103.69206 -200 45 -200 45 -200 45
5963995799.2999 -7.0865793 -103.94749 -200 45 -200 45 -200 45
5964995915.986 -7.0650868 -104.12975 -200 45 -200 45 -200 45
5965996032.6721 -7.0387073 -104.33987 -200 45 -200 45 -200 45
5966996149.3582 -7.0125804 -104.53485 -200 45 -200 45 -200 45
5967996266.0443 -6.9867835 -104.7158 -200 45 -200 45 -200 45
5968996382.7305 -6.9631519 -104.83504 -200 45 -200 45 -200 45
5969996499.4166 -6.934442 -104.97295 -200 45 -200 45 -200 45
5970996616.1027 -6.9025574 -105.0816 -200 45 -200 45 -200 45
5971996732.7888 -6.8707643 -105.17128 -200 45 -200 45 -200 45
5972996849.4749 -6.8390803 -105.22662 -200 45 -200 45 -200 45
5973996966.161 -6.8024807 -105.29379 -200 45 -200 45 -200 45
5974997082.8471 -6.7734709 -105.31191 -200 45 -200 45 -200 45
5975997199.5333 -6.7433791 -105.32357 -200 45 -200 45 -200 45
5976997316.2194 -6.7100539 -105.30231 -200 45 -200 45 -200 45
5977997432.9055 -6.678627 -105.28574 -200 45 -200 45 -200 45
5978997549.5916 -6.643733 -105.22953 -200 45 -200 45 -200 45
5979997666.2777 -6.6088142 -105.1692 -200 45 -200 45 -200 45
5980997782.9638 -6.5804291 -105.07086 -200 45 -200 45 -200 45
5981997899.6499 -6.5506043 -105.00056 -200 45 -200 45 -200 45
5982998016.3361 -6.5263653 -104.88393 -200 45 -200 45 -200 45
5983998133.0222 -6.4955678 -104.73647 -200 45 -200 45 -200 45
5984998249.7083 -6.4756908 -104.59915 -200 45 -200 45 -200 45
5985998366.3944 -6.4553566 -104.44579 -200 45 -200 45 -200 45
5986998483.0805 -6.4348087 -104.26025 -200 45 -200 45 -200 45
5987998599.7666 -6.4158564 -104.09853 -200 45 -200 45 -200 45
5988998716.4527 -6.4042315 -103.88782 -200 45 -200 45 -200 45
5989998833.1389 -6.3854017 -103.67861 -200 45 -200 45 -200 45
5990998949.825 -6.3739471 -103.49062 -200 45 -200 45 -200 45
5991999066.5111 -6.3645363 -103.24107 -200 45 -200 45 -200 45
5992999183.1972 -6.3626513 -103.03162 -200 45 -200 45 -200 45
5993999299.8833 -6.3487692 -102.82479 -200 45 -200 45 -200 45
5994999416.5694 -6.3412194 -102.59216 -200 45 -200 45 -200 45
5995999533.2555 -6.3392115 -102.34632 -200 45 -200 45 -200 45
5996999649.9417 -6.3363323 -102.11306 -200 45 -200 45 -200 45
5997999766.6278 -6.3388014 -101.87627 -200 45 -200 45 -200 45
5998999883.3139 -6.3424592 -101.62691 -200 45 -200 45 -200 45
6000000000 -6.350265 -101.38615 -200 45 -200 45 -200 45
