!Keysight Technologies,P9374A,MY57304198,A.17.20.09
!Date: Thursday, August 15, 2024 12:56:09
!Correction: S11(C  1-Port  ) 
!S21(C  1-Port  ) 
!S12(Off) 
!S22(Off) 
!S2P File: Measurements: S11, S21, S12, S22:
# Hz S  dB   R 50
300000 -0.00066816824 -0.012868213 -200 45 -200 45 -200 45
1300116.6861144 -0.0010477315 -0.045577381 -200 45 -200 45 -200 45
2300233.3722287 0.00059947767 -0.084193379 -200 45 -200 45 -200 45
3300350.0583431 0.001750574 -0.1185073 -200 45 -200 45 -200 45
4300466.7444574 0.0016946825 -0.1611322 -200 45 -200 45 -200 45
5300583.4305718 0.0019275591 -0.2078926 -200 45 -200 45 -200 45
6300700.1166861 -0.0007999501 -0.27326623 -200 45 -200 45 -200 45
7300816.8028005 -0.0048939101 -0.31877369 -200 45 -200 45 -200 45
8300933.4889148 -0.011160567 -0.32812023 -200 45 -200 45 -200 45
9301050.1750292 -0.0083902348 -0.35046801 -200 45 -200 45 -200 45
10301166.861144 0.0010425616 -0.35905474 -200 45 -200 45 -200 45
11301283.547258 0.00068126526 -0.40749982 -200 45 -200 45 -200 45
12301400.233372 -0.0012476241 -0.43509337 -200 45 -200 45 -200 45
13301516.919487 -0.0027064446 -0.47373781 -200 45 -200 45 -200 45
14301633.605601 -0.0029374976 -0.52065217 -200 45 -200 45 -200 45
15301750.291715 -0.0032949802 -0.55923438 -200 45 -200 45 -200 45
16301866.97783 -0.0009959474 -0.57057834 -200 45 -200 45 -200 45
17301983.663944 -0.0032773644 -0.6277867 -200 45 -200 45 -200 45
18302100.350058 -0.0022656131 -0.65384412 -200 45 -200 45 -200 45
19302217.036173 -0.0028680768 -0.68711662 -200 45 -200 45 -200 45
20302333.722287 -0.0023275132 -0.72581124 -200 45 -200 45 -200 45
21302450.408401 -0.0019260843 -0.76524878 -200 45 -200 45 -200 45
22302567.094516 -0.0035835784 -0.7894603 -200 45 -200 45 -200 45
23302683.78063 -0.0022604333 -0.81617522 -200 45 -200 45 -200 45
24302800.466744 -0.0029644372 -0.87339735 -200 45 -200 45 -200 45
25302917.152859 -0.0034384998 -0.89789093 -200 45 -200 45 -200 45
26303033.838973 -0.0054998486 -0.92539269 -200 45 -200 45 -200 45
27303150.525088 -0.0034268419 -0.97295552 -200 45 -200 45 -200 45
28303267.211202 -0.0063002938 -0.99913013 -200 45 -200 45 -200 45
29303383.897316 -0.0043642367 -1.0461679 -200 45 -200 45 -200 45
30303500.583431 -0.0043429886 -1.0767542 -200 45 -200 45 -200 45
31303617.269545 -0.0067197573 -1.1142818 -200 45 -200 45 -200 45
32303733.955659 -0.0042497073 -1.1431618 -200 45 -200 45 -200 45
33303850.641774 -0.005051218 -1.1771871 -200 45 -200 45 -200 45
34303967.327888 -0.0066995351 -1.2129523 -200 45 -200 45 -200 45
35304084.014002 -0.0061452738 -1.2398828 -200 45 -200 45 -200 45
36304200.700117 -0.0072883531 -1.2777313 -200 45 -200 45 -200 45
37304317.386231 -0.005209568 -1.319527 -200 45 -200 45 -200 45
38304434.072345 -0.0078798439 -1.3415638 -200 45 -200 45 -200 45
39304550.75846 -0.0083645582 -1.3949096 -200 45 -200 45 -200 45
40304667.444574 -0.0087383101 -1.4258772 -200 45 -200 45 -200 45
41304784.130688 -0.0094589302 -1.4505867 -200 45 -200 45 -200 45
42304900.816803 -0.0085528567 -1.4843311 -200 45 -200 45 -200 45
43305017.502917 -0.008882788 -1.5155381 -200 45 -200 45 -200 45
44305134.189032 -0.0088692997 -1.5630164 -200 45 -200 45 -200 45
45305250.875146 -0.0095782671 -1.603107 -200 45 -200 45 -200 45
46305367.56126 -0.011270348 -1.6279558 -200 45 -200 45 -200 45
47305484.247375 -0.010165919 -1.672554 -200 45 -200 45 -200 45
48305600.933489 -0.010222482 -1.703299 -200 45 -200 45 -200 45
49305717.619603 -0.010485333 -1.7425441 -200 45 -200 45 -200 45
50305834.305718 -0.01089534 -1.7755002 -200 45 -200 45 -200 45
51305950.991832 -0.010574598 -1.8208393 -200 45 -200 45 -200 45
52306067.677946 -0.012622463 -1.8711282 -200 45 -200 45 -200 45
53306184.364061 -0.012783166 -1.8961382 -200 45 -200 45 -200 45
54306301.050175 -0.012621943 -1.933671 -200 45 -200 45 -200 45
55306417.736289 -0.012840023 -1.962823 -200 45 -200 45 -200 45
56306534.422404 -0.012802118 -2.0243645 -200 45 -200 45 -200 45
57306651.108518 -0.012022538 -2.0537486 -200 45 -200 45 -200 45
58306767.794632 -0.012754348 -2.0785308 -200 45 -200 45 -200 45
59306884.480747 -0.013124064 -2.1097414 -200 45 -200 45 -200 45
60307001.166861 -0.015028444 -2.1561449 -200 45 -200 45 -200 45
61307117.852975 -0.017688392 -2.1861956 -200 45 -200 45 -200 45
62307234.53909 -0.0152986 -2.2519336 -200 45 -200 45 -200 45
63307351.225204 -0.015159624 -2.2643993 -200 45 -200 45 -200 45
64307467.911319 -0.016708618 -2.3287423 -200 45 -200 45 -200 45
65307584.597433 -0.018727921 -2.3579881 -200 45 -200 45 -200 45
66307701.283547 -0.017930379 -2.3911867 -200 45 -200 45 -200 45
67307817.969662 -0.018269083 -2.4348195 -200 45 -200 45 -200 45
68307934.655776 -0.019494925 -2.4681511 -200 45 -200 45 -200 45
69308051.34189 -0.018815793 -2.5088854 -200 45 -200 45 -200 45
70308168.028005 -0.020914629 -2.5535336 -200 45 -200 45 -200 45
71308284.714119 -0.019133765 -2.5890279 -200 45 -200 45 -200 45
72308401.400233 -0.020604068 -2.6390433 -200 45 -200 45 -200 45
73308518.086348 -0.022200018 -2.6680198 -200 45 -200 45 -200 45
74308634.772462 -0.021398459 -2.6996627 -200 45 -200 45 -200 45
75308751.458576 -0.022238266 -2.7167623 -200 45 -200 45 -200 45
76308868.144691 -0.023076415 -2.7648466 -200 45 -200 45 -200 45
77308984.830805 -0.026026182 -2.7966757 -200 45 -200 45 -200 45
78309101.516919 -0.024010252 -2.8405333 -200 45 -200 45 -200 45
79309218.203034 -0.024903415 -2.8773358 -200 45 -200 45 -200 45
80309334.889148 -0.026208216 -2.911561 -200 45 -200 45 -200 45
81309451.575263 -0.025815772 -2.9425218 -200 45 -200 45 -200 45
82309568.261377 -0.026174882 -2.9763947 -200 45 -200 45 -200 45
83309684.947491 -0.027135955 -3.0111954 -200 45 -200 45 -200 45
84309801.633606 -0.025699113 -3.0483258 -200 45 -200 45 -200 45
85309918.31972 -0.029397007 -3.0921726 -200 45 -200 45 -200 45
86310035.005834 -0.03004026 -3.1125269 -200 45 -200 45 -200 45
87310151.691949 -0.029073853 -3.1620305 -200 45 -200 45 -200 45
88310268.378063 -0.028606104 -3.1878479 -200 45 -200 45 -200 45
89310385.064177 -0.031623516 -3.2236207 -200 45 -200 45 -200 45
90310501.750292 -0.028743949 -3.2424421 -200 45 -200 45 -200 45
91310618.436406 -0.030478446 -3.2710116 -200 45 -200 45 -200 45
92310735.12252 -0.030839767 -3.3108921 -200 45 -200 45 -200 45
93310851.808635 -0.032968942 -3.3232269 -200 45 -200 45 -200 45
94310968.494749 -0.030905986 -3.3797946 -200 45 -200 45 -200 45
95311085.180863 -0.034097187 -3.4074304 -200 45 -200 45 -200 45
96311201.866978 -0.034577791 -3.4383063 -200 45 -200 45 -200 45
97311318.553092 -0.03682236 -3.4651785 -200 45 -200 45 -200 45
98311435.239207 -0.037554964 -3.5002081 -200 45 -200 45 -200 45
99311551.925321 -0.037944816 -3.5358398 -200 45 -200 45 -200 45
100311668.61144 -0.038246956 -3.560498 -200 45 -200 45 -200 45
101311785.29755 -0.04002418 -3.5941114 -200 45 -200 45 -200 45
102311901.98366 -0.038290568 -3.6284266 -200 45 -200 45 -200 45
103312018.66978 -0.039010104 -3.6585033 -200 45 -200 45 -200 45
104312135.35589 -0.041148774 -3.6755638 -200 45 -200 45 -200 45
105312252.04201 -0.042006001 -3.7046008 -200 45 -200 45 -200 45
106312368.72812 -0.039366387 -3.7347457 -200 45 -200 45 -200 45
107312485.41424 -0.041635647 -3.7597899 -200 45 -200 45 -200 45
108312602.10035 -0.042091474 -3.7888076 -200 45 -200 45 -200 45
109312718.78646 -0.042183481 -3.8133216 -200 45 -200 45 -200 45
110312835.47258 -0.041669626 -3.8566518 -200 45 -200 45 -200 45
111312952.15869 -0.042920653 -3.8817084 -200 45 -200 45 -200 45
112313068.84481 -0.042982873 -3.9093697 -200 45 -200 45 -200 45
113313185.53092 -0.045962416 -3.9453392 -200 45 -200 45 -200 45
114313302.21704 -0.046998791 -3.9834218 -200 45 -200 45 -200 45
115313418.90315 -0.047632355 -4.0246568 -200 45 -200 45 -200 45
116313535.58926 -0.049016785 -4.0355167 -200 45 -200 45 -200 45
117313652.27538 -0.048818871 -4.079381 -200 45 -200 45 -200 45
118313768.96149 -0.04912072 -4.1127796 -200 45 -200 45 -200 45
119313885.64761 -0.050690256 -4.1433744 -200 45 -200 45 -200 45
120314002.33372 -0.052397385 -4.1712289 -200 45 -200 45 -200 45
121314119.01984 -0.051716499 -4.2196879 -200 45 -200 45 -200 45
122314235.70595 -0.053837586 -4.2342467 -200 45 -200 45 -200 45
123314352.39207 -0.056331027 -4.2588186 -200 45 -200 45 -200 45
124314469.07818 -0.054991193 -4.2909045 -200 45 -200 45 -200 45
125314585.76429 -0.056172114 -4.3315082 -200 45 -200 45 -200 45
126314702.45041 -0.055514492 -4.3638926 -200 45 -200 45 -200 45
127314819.13652 -0.057010017 -4.3984718 -200 45 -200 45 -200 45
128314935.82264 -0.059737012 -4.4313097 -200 45 -200 45 -200 45
129315052.50875 -0.062367771 -4.4674063 -200 45 -200 45 -200 45
130315169.19487 -0.059785828 -4.5146775 -200 45 -200 45 -200 45
131315285.88098 -0.060900062 -4.5418701 -200 45 -200 45 -200 45
132315402.56709 -0.061164685 -4.5885191 -200 45 -200 45 -200 45
133315519.25321 -0.061337959 -4.6167331 -200 45 -200 45 -200 45
134315635.93932 -0.064007513 -4.6525493 -200 45 -200 45 -200 45
135315752.62544 -0.064689547 -4.681673 -200 45 -200 45 -200 45
136315869.31155 -0.066260517 -4.7309365 -200 45 -200 45 -200 45
137315985.99767 -0.065752476 -4.7690597 -200 45 -200 45 -200 45
138316102.68378 -0.06645371 -4.802825 -200 45 -200 45 -200 45
139316219.36989 -0.065055825 -4.8413043 -200 45 -200 45 -200 45
140316336.05601 -0.066418223 -4.8869157 -200 45 -200 45 -200 45
141316452.74212 -0.06712193 -4.9213219 -200 45 -200 45 -200 45
142316569.42824 -0.06894625 -4.9486976 -200 45 -200 45 -200 45
143316686.11435 -0.06893757 -4.9920588 -200 45 -200 45 -200 45
144316802.80047 -0.071402594 -5.0386019 -200 45 -200 45 -200 45
145316919.48658 -0.073211081 -5.0927682 -200 45 -200 45 -200 45
146317036.1727 -0.073037334 -5.1270041 -200 45 -200 45 -200 45
147317152.85881 -0.072610363 -5.1724124 -200 45 -200 45 -200 45
148317269.54492 -0.072639316 -5.2161403 -200 45 -200 45 -200 45
149317386.23104 -0.073032856 -5.2736778 -200 45 -200 45 -200 45
150317502.91715 -0.076668806 -5.3103533 -200 45 -200 45 -200 45
151317619.60327 -0.077176541 -5.3398004 -200 45 -200 45 -200 45
152317736.28938 -0.076102905 -5.3856673 -200 45 -200 45 -200 45
153317852.9755 -0.078145273 -5.4288411 -200 45 -200 45 -200 45
154317969.66161 -0.078834541 -5.4553428 -200 45 -200 45 -200 45
155318086.34772 -0.078448378 -5.484334 -200 45 -200 45 -200 45
156318203.03384 -0.079673931 -5.5127153 -200 45 -200 45 -200 45
157318319.71995 -0.081237666 -5.5716524 -200 45 -200 45 -200 45
158318436.40607 -0.082177237 -5.5909939 -200 45 -200 45 -200 45
159318553.09218 -0.081923462 -5.6368575 -200 45 -200 45 -200 45
160318669.7783 -0.083734229 -5.6714458 -200 45 -200 45 -200 45
161318786.46441 -0.084859639 -5.7138791 -200 45 -200 45 -200 45
162318903.15053 -0.084516235 -5.7393255 -200 45 -200 45 -200 45
163319019.83664 -0.087799385 -5.7835464 -200 45 -200 45 -200 45
164319136.52275 -0.085580856 -5.8245788 -200 45 -200 45 -200 45
165319253.20887 -0.087869644 -5.8572202 -200 45 -200 45 -200 45
166319369.89498 -0.088446327 -5.8909063 -200 45 -200 45 -200 45
167319486.5811 -0.090081148 -5.9153314 -200 45 -200 45 -200 45
168319603.26721 -0.089852281 -5.9610248 -200 45 -200 45 -200 45
169319719.95333 -0.091873638 -5.9782515 -200 45 -200 45 -200 45
170319836.63944 -0.091449566 -6.0029263 -200 45 -200 45 -200 45
171319953.32555 -0.090862714 -6.0305061 -200 45 -200 45 -200 45
172320070.01167 -0.09098272 -6.0481043 -200 45 -200 45 -200 45
173320186.69778 -0.093218021 -6.1034083 -200 45 -200 45 -200 45
174320303.3839 -0.093968935 -6.0969596 -200 45 -200 45 -200 45
175320420.07001 -0.09530101 -6.1499557 -200 45 -200 45 -200 45
176320536.75613 -0.094887979 -6.1714602 -200 45 -200 45 -200 45
177320653.44224 -0.098195136 -6.2075992 -200 45 -200 45 -200 45
178320770.12835 -0.098016419 -6.2399139 -200 45 -200 45 -200 45
179320886.81447 -0.099841051 -6.2570992 -200 45 -200 45 -200 45
180321003.50058 -0.10033402 -6.3030291 -200 45 -200 45 -200 45
181321120.1867 -0.1002874 -6.3156404 -200 45 -200 45 -200 45
182321236.87281 -0.10205495 -6.3464942 -200 45 -200 45 -200 45
183321353.55893 -0.10252856 -6.3684888 -200 45 -200 45 -200 45
184321470.24504 -0.10447733 -6.3932605 -200 45 -200 45 -200 45
185321586.93116 -0.1059548 -6.4136052 -200 45 -200 45 -200 45
186321703.61727 -0.10689867 -6.4388232 -200 45 -200 45 -200 45
187321820.30338 -0.10674506 -6.4527674 -200 45 -200 45 -200 45
188321936.9895 -0.10924917 -6.4788561 -200 45 -200 45 -200 45
189322053.67561 -0.10765275 -6.502142 -200 45 -200 45 -200 45
190322170.36173 -0.11007029 -6.5328846 -200 45 -200 45 -200 45
191322287.04784 -0.11087325 -6.5664458 -200 45 -200 45 -200 45
192322403.73396 -0.11145166 -6.5871038 -200 45 -200 45 -200 45
193322520.42007 -0.1116413 -6.6101847 -200 45 -200 45 -200 45
194322637.10618 -0.11299873 -6.6389494 -200 45 -200 45 -200 45
195322753.7923 -0.11806109 -6.6599813 -200 45 -200 45 -200 45
196322870.47841 -0.11885994 -6.6878452 -200 45 -200 45 -200 45
197322987.16453 -0.11830927 -6.7238946 -200 45 -200 45 -200 45
198323103.85064 -0.11976112 -6.7548499 -200 45 -200 45 -200 45
199323220.53676 -0.12107344 -6.7813597 -200 45 -200 45 -200 45
200323337.22287 -0.12171976 -6.8033037 -200 45 -200 45 -200 45
201323453.90898 -0.12328381 -6.8423033 -200 45 -200 45 -200 45
202323570.5951 -0.1241859 -6.8669939 -200 45 -200 45 -200 45
203323687.28121 -0.12516598 -6.8779674 -200 45 -200 45 -200 45
204323803.96733 -0.1257695 -6.9018335 -200 45 -200 45 -200 45
205323920.65344 -0.12704632 -6.9417634 -200 45 -200 45 -200 45
206324037.33956 -0.12952082 -6.9782524 -200 45 -200 45 -200 45
207324154.02567 -0.12999076 -7.0150809 -200 45 -200 45 -200 45
208324270.71179 -0.12955922 -7.0474429 -200 45 -200 45 -200 45
209324387.3979 -0.13178992 -7.0674176 -200 45 -200 45 -200 45
210324504.08401 -0.13104685 -7.1225281 -200 45 -200 45 -200 45
211324620.77013 -0.13485053 -7.1619458 -200 45 -200 45 -200 45
212324737.45624 -0.1357521 -7.2247181 -200 45 -200 45 -200 45
213324854.14236 -0.1371796 -7.2403479 -200 45 -200 45 -200 45
214324970.82847 -0.13790877 -7.263576 -200 45 -200 45 -200 45
215325087.51459 -0.1414783 -7.3120565 -200 45 -200 45 -200 45
216325204.2007 -0.14173424 -7.3617306 -200 45 -200 45 -200 45
217325320.88681 -0.14202979 -7.3976126 -200 45 -200 45 -200 45
218325437.57293 -0.14262547 -7.4352708 -200 45 -200 45 -200 45
219325554.25904 -0.1429529 -7.4580913 -200 45 -200 45 -200 45
220325670.94516 -0.14611965 -7.4910417 -200 45 -200 45 -200 45
221325787.63127 -0.14650866 -7.5380931 -200 45 -200 45 -200 45
222325904.31739 -0.14844969 -7.5783358 -200 45 -200 45 -200 45
223326021.0035 -0.1477924 -7.6102471 -200 45 -200 45 -200 45
224326137.68961 -0.15336637 -7.6659961 -200 45 -200 45 -200 45
225326254.37573 -0.15315345 -7.7161903 -200 45 -200 45 -200 45
226326371.06184 -0.15213406 -7.7527881 -200 45 -200 45 -200 45
227326487.74796 -0.15419616 -7.8016052 -200 45 -200 45 -200 45
228326604.43407 -0.15439706 -7.846179 -200 45 -200 45 -200 45
229326721.12019 -0.15801911 -7.8923965 -200 45 -200 45 -200 45
230326837.8063 -0.1610585 -7.9362054 -200 45 -200 45 -200 45
231326954.49242 -0.15840515 -7.967875 -200 45 -200 45 -200 45
232327071.17853 -0.15842877 -8.0252762 -200 45 -200 45 -200 45
233327187.86464 -0.1615171 -8.0648403 -200 45 -200 45 -200 45
234327304.55076 -0.160467 -8.0973396 -200 45 -200 45 -200 45
235327421.23687 -0.1648469 -8.1451807 -200 45 -200 45 -200 45
236327537.92299 -0.16174117 -8.1653452 -200 45 -200 45 -200 45
237327654.6091 -0.16495122 -8.2002554 -200 45 -200 45 -200 45
238327771.29522 -0.1653422 -8.2545996 -200 45 -200 45 -200 45
239327887.98133 -0.16706137 -8.282609 -200 45 -200 45 -200 45
240328004.66744 -0.16961665 -8.3209753 -200 45 -200 45 -200 45
241328121.35356 -0.16921912 -8.3582382 -200 45 -200 45 -200 45
242328238.03967 -0.1713405 -8.4081392 -200 45 -200 45 -200 45
243328354.72579 -0.17306286 -8.4508839 -200 45 -200 45 -200 45
244328471.4119 -0.1745299 -8.4976902 -200 45 -200 45 -200 45
245328588.09802 -0.17587075 -8.5318155 -200 45 -200 45 -200 45
246328704.78413 -0.1764328 -8.5623922 -200 45 -200 45 -200 45
247328821.47025 -0.17804958 -8.5903511 -200 45 -200 45 -200 45
248328938.15636 -0.17837161 -8.6246557 -200 45 -200 45 -200 45
249329054.84247 -0.17892401 -8.6478586 -200 45 -200 45 -200 45
250329171.52859 -0.1825898 -8.7010365 -200 45 -200 45 -200 45
251329288.2147 -0.18028969 -8.7125063 -200 45 -200 45 -200 45
252329404.90082 -0.1832999 -8.7248516 -200 45 -200 45 -200 45
253329521.58693 -0.18166038 -8.748745 -200 45 -200 45 -200 45
254329638.27305 -0.18330286 -8.7830048 -200 45 -200 45 -200 45
255329754.95916 -0.18583152 -8.824626 -200 45 -200 45 -200 45
256329871.64527 -0.18626463 -8.8358021 -200 45 -200 45 -200 45
257329988.33139 -0.18854386 -8.8594275 -200 45 -200 45 -200 45
258330105.0175 -0.18903457 -8.8895702 -200 45 -200 45 -200 45
259330221.70362 -0.19144131 -8.9095564 -200 45 -200 45 -200 45
260330338.38973 -0.19486183 -8.9360256 -200 45 -200 45 -200 45
261330455.07585 -0.19573992 -8.9687414 -200 45 -200 45 -200 45
262330571.76196 -0.19404238 -8.9850111 -200 45 -200 45 -200 45
263330688.44807 -0.19713311 -9.0093994 -200 45 -200 45 -200 45
264330805.13419 -0.1985617 -9.0217161 -200 45 -200 45 -200 45
265330921.8203 -0.19993871 -9.0324211 -200 45 -200 45 -200 45
266331038.50642 -0.20245917 -9.068264 -200 45 -200 45 -200 45
267331155.19253 -0.20304124 -9.0937395 -200 45 -200 45 -200 45
268331271.87865 -0.20106049 -9.0977221 -200 45 -200 45 -200 45
269331388.56476 -0.20383689 -9.1099768 -200 45 -200 45 -200 45
270331505.25088 -0.20452522 -9.1260786 -200 45 -200 45 -200 45
271331621.93699 -0.20678881 -9.1260796 -200 45 -200 45 -200 45
272331738.6231 -0.20920378 -9.1612539 -200 45 -200 45 -200 45
273331855.30922 -0.20880504 -9.1785641 -200 45 -200 45 -200 45
274331971.99533 -0.21091677 -9.2025089 -200 45 -200 45 -200 45
275332088.68145 -0.21160461 -9.2138596 -200 45 -200 45 -200 45
276332205.36756 -0.21494421 -9.2368755 -200 45 -200 45 -200 45
277332322.05368 -0.21707337 -9.2637205 -200 45 -200 45 -200 45
278332438.73979 -0.21953517 -9.2843046 -200 45 -200 45 -200 45
279332555.4259 -0.21770692 -9.3033533 -200 45 -200 45 -200 45
280332672.11202 -0.22094364 -9.3291311 -200 45 -200 45 -200 45
281332788.79813 -0.22105859 -9.3438902 -200 45 -200 45 -200 45
282332905.48425 -0.22528875 -9.3618622 -200 45 -200 45 -200 45
283333022.17036 -0.22649318 -9.4057884 -200 45 -200 45 -200 45
284333138.85648 -0.22751518 -9.4050455 -200 45 -200 45 -200 45
285333255.54259 -0.22467698 -9.4407949 -200 45 -200 45 -200 45
286333372.2287 -0.22744344 -9.4527092 -200 45 -200 45 -200 45
287333488.91482 -0.22920348 -9.4899073 -200 45 -200 45 -200 45
288333605.60093 -0.23094213 -9.5149231 -200 45 -200 45 -200 45
289333722.28705 -0.23051354 -9.5428963 -200 45 -200 45 -200 45
290333838.97316 -0.23485786 -9.5707664 -200 45 -200 45 -200 45
291333955.65928 -0.23682593 -9.6138191 -200 45 -200 45 -200 45
292334072.34539 -0.23694731 -9.6445065 -200 45 -200 45 -200 45
293334189.03151 -0.23804477 -9.6819181 -200 45 -200 45 -200 45
294334305.71762 -0.24062659 -9.7365599 -200 45 -200 45 -200 45
295334422.40373 -0.24250776 -9.7660246 -200 45 -200 45 -200 45
296334539.08985 -0.24393493 -9.7916126 -200 45 -200 45 -200 45
297334655.77596 -0.24906981 -9.8298035 -200 45 -200 45 -200 45
298334772.46208 -0.24859037 -9.8577309 -200 45 -200 45 -200 45
299334889.14819 -0.2498786 -9.9046488 -200 45 -200 45 -200 45
300335005.83431 -0.25023726 -9.9472771 -200 45 -200 45 -200 45
301335122.52042 -0.25088966 -9.9819832 -200 45 -200 45 -200 45
302335239.20653 -0.25150815 -10.003087 -200 45 -200 45 -200 45
303335355.89265 -0.25428981 -10.048352 -200 45 -200 45 -200 45
304335472.57876 -0.25716117 -10.090572 -200 45 -200 45 -200 45
305335589.26488 -0.25562587 -10.154765 -200 45 -200 45 -200 45
306335705.95099 -0.25941664 -10.184079 -200 45 -200 45 -200 45
307335822.63711 -0.26115423 -10.234397 -200 45 -200 45 -200 45
308335939.32322 -0.26340434 -10.266779 -200 45 -200 45 -200 45
309336056.00933 -0.26595888 -10.33348 -200 45 -200 45 -200 45
310336172.69545 -0.26799259 -10.370276 -200 45 -200 45 -200 45
311336289.38156 -0.26816607 -10.426606 -200 45 -200 45 -200 45
312336406.06768 -0.26959509 -10.456284 -200 45 -200 45 -200 45
313336522.75379 -0.26970112 -10.512691 -200 45 -200 45 -200 45
314336639.43991 -0.27255484 -10.563753 -200 45 -200 45 -200 45
315336756.12602 -0.2723203 -10.59885 -200 45 -200 45 -200 45
316336872.81214 -0.27534699 -10.652389 -200 45 -200 45 -200 45
317336989.49825 -0.27395275 -10.669201 -200 45 -200 45 -200 45
318337106.18436 -0.27487293 -10.707178 -200 45 -200 45 -200 45
319337222.87048 -0.27428475 -10.75889 -200 45 -200 45 -200 45
320337339.55659 -0.27769473 -10.794944 -200 45 -200 45 -200 45
321337456.24271 -0.27854142 -10.836867 -200 45 -200 45 -200 45
322337572.92882 -0.27910009 -10.88133 -200 45 -200 45 -200 45
323337689.61494 -0.28216606 -10.910505 -200 45 -200 45 -200 45
324337806.30105 -0.28310511 -10.960735 -200 45 -200 45 -200 45
325337922.98716 -0.28553608 -11.003117 -200 45 -200 45 -200 45
326338039.67328 -0.2881709 -11.05172 -200 45 -200 45 -200 45
327338156.35939 -0.28834683 -11.086336 -200 45 -200 45 -200 45
328338273.04551 -0.29187033 -11.122682 -200 45 -200 45 -200 45
329338389.73162 -0.28842679 -11.146043 -200 45 -200 45 -200 45
330338506.41774 -0.28946817 -11.18712 -200 45 -200 45 -200 45
331338623.10385 -0.29273474 -11.202407 -200 45 -200 45 -200 45
332338739.78997 -0.29440123 -11.246677 -200 45 -200 45 -200 45
333338856.47608 -0.29301277 -11.252058 -200 45 -200 45 -200 45
334338973.16219 -0.29537559 -11.277038 -200 45 -200 45 -200 45
335339089.84831 -0.29731002 -11.295355 -200 45 -200 45 -200 45
336339206.53442 -0.2963244 -11.321252 -200 45 -200 45 -200 45
337339323.22054 -0.29971376 -11.362283 -200 45 -200 45 -200 45
338339439.90665 -0.29920512 -11.378524 -200 45 -200 45 -200 45
339339556.59277 -0.30142981 -11.39802 -200 45 -200 45 -200 45
340339673.27888 -0.30319819 -11.4227 -200 45 -200 45 -200 45
341339789.96499 -0.30644232 -11.45322 -200 45 -200 45 -200 45
342339906.65111 -0.30740914 -11.471574 -200 45 -200 45 -200 45
343340023.33722 -0.3095499 -11.499472 -200 45 -200 45 -200 45
344340140.02334 -0.31037644 -11.506516 -200 45 -200 45 -200 45
345340256.70945 -0.31337193 -11.527941 -200 45 -200 45 -200 45
346340373.39557 -0.31227916 -11.539354 -200 45 -200 45 -200 45
347340490.08168 -0.31416911 -11.560414 -200 45 -200 45 -200 45
348340606.76779 -0.31866649 -11.56984 -200 45 -200 45 -200 45
349340723.45391 -0.31740615 -11.570842 -200 45 -200 45 -200 45
350340840.14002 -0.31737581 -11.573275 -200 45 -200 45 -200 45
351340956.82614 -0.32014203 -11.591262 -200 45 -200 45 -200 45
352341073.51225 -0.31940475 -11.602389 -200 45 -200 45 -200 45
353341190.19837 -0.32298338 -11.608535 -200 45 -200 45 -200 45
354341306.88448 -0.32268947 -11.637657 -200 45 -200 45 -200 45
355341423.5706 -0.32608581 -11.643131 -200 45 -200 45 -200 45
356341540.25671 -0.3262164 -11.661165 -200 45 -200 45 -200 45
357341656.94282 -0.33063966 -11.673421 -200 45 -200 45 -200 45
358341773.62894 -0.33323997 -11.692383 -200 45 -200 45 -200 45
359341890.31505 -0.33678356 -11.708294 -200 45 -200 45 -200 45
360342007.00117 -0.33382723 -11.717224 -200 45 -200 45 -200 45
361342123.68728 -0.33781114 -11.744184 -200 45 -200 45 -200 45
362342240.3734 -0.33913088 -11.752535 -200 45 -200 45 -200 45
363342357.05951 -0.34276724 -11.762142 -200 45 -200 45 -200 45
364342473.74562 -0.34400386 -11.794692 -200 45 -200 45 -200 45
365342590.43174 -0.3458432 -11.799292 -200 45 -200 45 -200 45
366342707.11785 -0.34470749 -11.814034 -200 45 -200 45 -200 45
367342823.80397 -0.34666824 -11.832136 -200 45 -200 45 -200 45
368342940.49008 -0.34735969 -11.850083 -200 45 -200 45 -200 45
369343057.1762 -0.34880462 -11.871181 -200 45 -200 45 -200 45
370343173.86231 -0.35287052 -11.889854 -200 45 -200 45 -200 45
371343290.54842 -0.35503495 -11.937425 -200 45 -200 45 -200 45
372343407.23454 -0.35780001 -11.955743 -200 45 -200 45 -200 45
373343523.92065 -0.35915336 -11.995934 -200 45 -200 45 -200 45
374343640.60677 -0.36119154 -12.026598 -200 45 -200 45 -200 45
375343757.29288 -0.36510405 -12.066396 -200 45 -200 45 -200 45
376343873.979 -0.3655605 -12.081362 -200 45 -200 45 -200 45
377343990.66511 -0.36790398 -12.111041 -200 45 -200 45 -200 45
378344107.35123 -0.37079647 -12.139285 -200 45 -200 45 -200 45
379344224.03734 -0.3720744 -12.181522 -200 45 -200 45 -200 45
380344340.72345 -0.37619206 -12.228917 -200 45 -200 45 -200 45
381344457.40957 -0.37515789 -12.243726 -200 45 -200 45 -200 45
382344574.09568 -0.37569442 -12.270468 -200 45 -200 45 -200 45
383344690.7818 -0.37764183 -12.313902 -200 45 -200 45 -200 45
384344807.46791 -0.38055015 -12.356413 -200 45 -200 45 -200 45
385344924.15403 -0.38071996 -12.402838 -200 45 -200 45 -200 45
386345040.84014 -0.38183177 -12.421628 -200 45 -200 45 -200 45
387345157.52625 -0.38696742 -12.476414 -200 45 -200 45 -200 45
388345274.21237 -0.38952097 -12.521859 -200 45 -200 45 -200 45
389345390.89848 -0.39068544 -12.569435 -200 45 -200 45 -200 45
390345507.5846 -0.39248884 -12.624052 -200 45 -200 45 -200 45
391345624.27071 -0.3966333 -12.65593 -200 45 -200 45 -200 45
392345740.95683 -0.39762321 -12.714434 -200 45 -200 45 -200 45
393345857.64294 -0.39714807 -12.753894 -200 45 -200 45 -200 45
394345974.32905 -0.39955011 -12.800742 -200 45 -200 45 -200 45
395346091.01517 -0.40308717 -12.847656 -200 45 -200 45 -200 45
396346207.70128 -0.40510744 -12.894432 -200 45 -200 45 -200 45
397346324.3874 -0.40573749 -12.934667 -200 45 -200 45 -200 45
398346441.07351 -0.40365556 -12.971444 -200 45 -200 45 -200 45
399346557.75963 -0.40447891 -13.000384 -200 45 -200 45 -200 45
400346674.44574 -0.40423343 -13.042971 -200 45 -200 45 -200 45
401346791.13186 -0.40705782 -13.098451 -200 45 -200 45 -200 45
402346907.81797 -0.40688497 -13.125335 -200 45 -200 45 -200 45
403347024.50408 -0.41209334 -13.167511 -200 45 -200 45 -200 45
404347141.1902 -0.41215596 -13.201577 -200 45 -200 45 -200 45
405347257.87631 -0.41377524 -13.255662 -200 45 -200 45 -200 45
406347374.56243 -0.41516268 -13.303164 -200 45 -200 45 -200 45
407347491.24854 -0.41911304 -13.347216 -200 45 -200 45 -200 45
408347607.93466 -0.41949251 -13.379808 -200 45 -200 45 -200 45
409347724.62077 -0.42088777 -13.411081 -200 45 -200 45 -200 45
410347841.30688 -0.422526 -13.442451 -200 45 -200 45 -200 45
411347957.993 -0.42190665 -13.465819 -200 45 -200 45 -200 45
412348074.67911 -0.42752296 -13.51146 -200 45 -200 45 -200 45
413348191.36523 -0.42501578 -13.532713 -200 45 -200 45 -200 45
414348308.05134 -0.42523843 -13.554974 -200 45 -200 45 -200 45
415348424.73746 -0.42638198 -13.559095 -200 45 -200 45 -200 45
416348541.42357 -0.42347676 -13.585247 -200 45 -200 45 -200 45
417348658.10968 -0.42898452 -13.615913 -200 45 -200 45 -200 45
418348774.7958 -0.43043971 -13.652715 -200 45 -200 45 -200 45
419348891.48191 -0.43127701 -13.676358 -200 45 -200 45 -200 45
420349008.16803 -0.43173388 -13.674983 -200 45 -200 45 -200 45
421349124.85414 -0.43352464 -13.701179 -200 45 -200 45 -200 45
422349241.54026 -0.43383184 -13.732863 -200 45 -200 45 -200 45
423349358.22637 -0.43689343 -13.754254 -200 45 -200 45 -200 45
424349474.91249 -0.43893319 -13.766716 -200 45 -200 45 -200 45
425349591.5986 -0.44046849 -13.786901 -200 45 -200 45 -200 45
426349708.28471 -0.43958476 -13.791929 -200 45 -200 45 -200 45
427349824.97083 -0.44124582 -13.807949 -200 45 -200 45 -200 45
428349941.65694 -0.4445231 -13.818213 -200 45 -200 45 -200 45
429350058.34306 -0.44572622 -13.822311 -200 45 -200 45 -200 45
430350175.02917 -0.44722635 -13.833104 -200 45 -200 45 -200 45
431350291.71529 -0.44632432 -13.827467 -200 45 -200 45 -200 45
432350408.4014 -0.44608393 -13.828765 -200 45 -200 45 -200 45
433350525.08751 -0.44764158 -13.836782 -200 45 -200 45 -200 45
434350641.77363 -0.44856083 -13.846197 -200 45 -200 45 -200 45
435350758.45974 -0.45219234 -13.845802 -200 45 -200 45 -200 45
436350875.14586 -0.45381743 -13.859881 -200 45 -200 45 -200 45
437350991.83197 -0.45564809 -13.866463 -200 45 -200 45 -200 45
438351108.51809 -0.45781633 -13.883809 -200 45 -200 45 -200 45
439351225.2042 -0.45947632 -13.904126 -200 45 -200 45 -200 45
440351341.89032 -0.46082118 -13.905587 -200 45 -200 45 -200 45
441351458.57643 -0.46375984 -13.914103 -200 45 -200 45 -200 45
442351575.26254 -0.4642936 -13.919991 -200 45 -200 45 -200 45
443351691.94866 -0.46724874 -13.933662 -200 45 -200 45 -200 45
444351808.63477 -0.46985975 -13.950453 -200 45 -200 45 -200 45
445351925.32089 -0.47057223 -13.961838 -200 45 -200 45 -200 45
446352042.007 -0.47371843 -13.971526 -200 45 -200 45 -200 45
447352158.69312 -0.47334054 -13.961862 -200 45 -200 45 -200 45
448352275.37923 -0.47318929 -13.978639 -200 45 -200 45 -200 45
449352392.06534 -0.47714454 -13.994211 -200 45 -200 45 -200 45
450352508.75146 -0.478001 -14.012489 -200 45 -200 45 -200 45
451352625.43757 -0.47891137 -14.024238 -200 45 -200 45 -200 45
452352742.12369 -0.48143858 -14.050707 -200 45 -200 45 -200 45
453352858.8098 -0.48433566 -14.06654 -200 45 -200 45 -200 45
454352975.49592 -0.4888095 -14.094551 -200 45 -200 45 -200 45
455353092.18203 -0.48893493 -14.126314 -200 45 -200 45 -200 45
456353208.86814 -0.49459949 -14.156232 -200 45 -200 45 -200 45
457353325.55426 -0.49628025 -14.193773 -200 45 -200 45 -200 45
458353442.24037 -0.49970302 -14.201431 -200 45 -200 45 -200 45
459353558.92649 -0.49843085 -14.241517 -200 45 -200 45 -200 45
460353675.6126 -0.50123906 -14.257005 -200 45 -200 45 -200 45
461353792.29872 -0.50576699 -14.299407 -200 45 -200 45 -200 45
462353908.98483 -0.50424445 -14.328045 -200 45 -200 45 -200 45
463354025.67095 -0.5067187 -14.360235 -200 45 -200 45 -200 45
464354142.35706 -0.50837624 -14.383564 -200 45 -200 45 -200 45
465354259.04317 -0.50837392 -14.404988 -200 45 -200 45 -200 45
466354375.72929 -0.50944787 -14.458891 -200 45 -200 45 -200 45
467354492.4154 -0.51163411 -14.496737 -200 45 -200 45 -200 45
468354609.10152 -0.51317787 -14.53791 -200 45 -200 45 -200 45
469354725.78763 -0.51660961 -14.585475 -200 45 -200 45 -200 45
470354842.47375 -0.52026671 -14.62559 -200 45 -200 45 -200 45
471354959.15986 -0.51951975 -14.669436 -200 45 -200 45 -200 45
472355075.84597 -0.52393448 -14.72167 -200 45 -200 45 -200 45
473355192.53209 -0.5292083 -14.775723 -200 45 -200 45 -200 45
474355309.2182 -0.52705091 -14.810765 -200 45 -200 45 -200 45
475355425.90432 -0.52868116 -14.870635 -200 45 -200 45 -200 45
476355542.59043 -0.5309251 -14.900971 -200 45 -200 45 -200 45
477355659.27655 -0.53389078 -14.965153 -200 45 -200 45 -200 45
478355775.96266 -0.53330332 -15.012569 -200 45 -200 45 -200 45
479355892.64877 -0.53684771 -15.038993 -200 45 -200 45 -200 45
480356009.33489 -0.5317995 -15.087738 -200 45 -200 45 -200 45
481356126.021 -0.53457052 -15.115026 -200 45 -200 45 -200 45
482356242.70712 -0.53558773 -15.163712 -200 45 -200 45 -200 45
483356359.39323 -0.53941941 -15.194294 -200 45 -200 45 -200 45
484356476.07935 -0.53853321 -15.25835 -200 45 -200 45 -200 45
485356592.76546 -0.54146683 -15.291287 -200 45 -200 45 -200 45
486356709.45158 -0.54172462 -15.339524 -200 45 -200 45 -200 45
487356826.13769 -0.54520309 -15.396853 -200 45 -200 45 -200 45
488356942.8238 -0.54717809 -15.414576 -200 45 -200 45 -200 45
489357059.50992 -0.54955262 -15.47732 -200 45 -200 45 -200 45
490357176.19603 -0.54950446 -15.519993 -200 45 -200 45 -200 45
491357292.88215 -0.54829603 -15.548901 -200 45 -200 45 -200 45
492357409.56826 -0.54969716 -15.574894 -200 45 -200 45 -200 45
493357526.25438 -0.55245316 -15.614726 -200 45 -200 45 -200 45
494357642.94049 -0.55356747 -15.647774 -200 45 -200 45 -200 45
495357759.6266 -0.55197376 -15.677202 -200 45 -200 45 -200 45
496357876.31272 -0.55251992 -15.695073 -200 45 -200 45 -200 45
497357992.99883 -0.5506894 -15.715656 -200 45 -200 45 -200 45
498358109.68495 -0.55205047 -15.754403 -200 45 -200 45 -200 45
499358226.37106 -0.55393183 -15.774776 -200 45 -200 45 -200 45
500358343.05718 -0.55495149 -15.801687 -200 45 -200 45 -200 45
501358459.74329 -0.55647016 -15.827662 -200 45 -200 45 -200 45
502358576.4294 -0.5580464 -15.847291 -200 45 -200 45 -200 45
503358693.11552 -0.55880356 -15.867471 -200 45 -200 45 -200 45
504358809.80163 -0.5620659 -15.874465 -200 45 -200 45 -200 45
505358926.48775 -0.56482893 -15.901679 -200 45 -200 45 -200 45
506359043.17386 -0.56553859 -15.910574 -200 45 -200 45 -200 45
507359159.85998 -0.56548995 -15.932511 -200 45 -200 45 -200 45
508359276.54609 -0.56524312 -15.932514 -200 45 -200 45 -200 45
509359393.23221 -0.56789428 -15.949849 -200 45 -200 45 -200 45
510359509.91832 -0.56891459 -15.952983 -200 45 -200 45 -200 45
511359626.60443 -0.56937492 -15.967771 -200 45 -200 45 -200 45
512359743.29055 -0.56889749 -15.977509 -200 45 -200 45 -200 45
513359859.97666 -0.56965387 -15.968205 -200 45 -200 45 -200 45
514359976.66278 -0.5689137 -15.975405 -200 45 -200 45 -200 45
515360093.34889 -0.57179683 -15.98319 -200 45 -200 45 -200 45
516360210.03501 -0.57366371 -15.979239 -200 45 -200 45 -200 45
517360326.72112 -0.57475835 -15.992873 -200 45 -200 45 -200 45
518360443.40723 -0.57714891 -15.997615 -200 45 -200 45 -200 45
519360560.09335 -0.57906872 -16.009861 -200 45 -200 45 -200 45
520360676.77946 -0.58232266 -16.007124 -200 45 -200 45 -200 45
521360793.46558 -0.58582753 -16.019344 -200 45 -200 45 -200 45
522360910.15169 -0.58653355 -16.019821 -200 45 -200 45 -200 45
523361026.83781 -0.58796841 -16.036091 -200 45 -200 45 -200 45
524361143.52392 -0.58958524 -16.030231 -200 45 -200 45 -200 45
525361260.21004 -0.59189498 -16.046009 -200 45 -200 45 -200 45
526361376.89615 -0.59290969 -16.055054 -200 45 -200 45 -200 45
527361493.58226 -0.59554422 -16.051651 -200 45 -200 45 -200 45
528361610.26838 -0.5964573 -16.05303 -200 45 -200 45 -200 45
529361726.95449 -0.59646857 -16.058352 -200 45 -200 45 -200 45
530361843.64061 -0.59883994 -16.059294 -200 45 -200 45 -200 45
531361960.32672 -0.59830719 -16.076723 -200 45 -200 45 -200 45
532362077.01284 -0.60402083 -16.086561 -200 45 -200 45 -200 45
533362193.69895 -0.60450637 -16.106886 -200 45 -200 45 -200 45
534362310.38506 -0.60831326 -16.106855 -200 45 -200 45 -200 45
535362427.07118 -0.61155313 -16.134518 -200 45 -200 45 -200 45
536362543.75729 -0.61254472 -16.138512 -200 45 -200 45 -200 45
537362660.44341 -0.6180476 -16.177999 -200 45 -200 45 -200 45
538362777.12952 -0.62100357 -16.203615 -200 45 -200 45 -200 45
539362893.81564 -0.62244689 -16.229509 -200 45 -200 45 -200 45
540363010.50175 -0.62390262 -16.252836 -200 45 -200 45 -200 45
541363127.18786 -0.625938 -16.260183 -200 45 -200 45 -200 45
542363243.87398 -0.62988973 -16.303341 -200 45 -200 45 -200 45
543363360.56009 -0.63151896 -16.316612 -200 45 -200 45 -200 45
544363477.24621 -0.63451254 -16.360664 -200 45 -200 45 -200 45
545363593.93232 -0.63234413 -16.364267 -200 45 -200 45 -200 45
546363710.61844 -0.63168782 -16.408581 -200 45 -200 45 -200 45
547363827.30455 -0.63585967 -16.427328 -200 45 -200 45 -200 45
548363943.99067 -0.63740897 -16.461891 -200 45 -200 45 -200 45
549364060.67678 -0.63909888 -16.51614 -200 45 -200 45 -200 45
550364177.36289 -0.64328444 -16.548012 -200 45 -200 45 -200 45
551364294.04901 -0.64392298 -16.600557 -200 45 -200 45 -200 45
552364410.73512 -0.64681011 -16.634928 -200 45 -200 45 -200 45
553364527.42124 -0.64974838 -16.687208 -200 45 -200 45 -200 45
554364644.10735 -0.65220708 -16.751478 -200 45 -200 45 -200 45
555364760.79347 -0.6529327 -16.778234 -200 45 -200 45 -200 45
556364877.47958 -0.6560784 -16.819416 -200 45 -200 45 -200 45
557364994.16569 -0.65752435 -16.870125 -200 45 -200 45 -200 45
558365110.85181 -0.65821862 -16.928753 -200 45 -200 45 -200 45
559365227.53792 -0.66132414 -16.963018 -200 45 -200 45 -200 45
560365344.22404 -0.66016889 -16.999958 -200 45 -200 45 -200 45
561365460.91015 -0.65999442 -17.04628 -200 45 -200 45 -200 45
562365577.59627 -0.66061491 -17.089241 -200 45 -200 45 -200 45
563365694.28238 -0.66174978 -17.137455 -200 45 -200 45 -200 45
564365810.96849 -0.66503763 -17.185915 -200 45 -200 45 -200 45
565365927.65461 -0.66486442 -17.218266 -200 45 -200 45 -200 45
566366044.34072 -0.66634929 -17.270214 -200 45 -200 45 -200 45
567366161.02684 -0.66669095 -17.322687 -200 45 -200 45 -200 45
568366277.71295 -0.66952556 -17.362408 -200 45 -200 45 -200 45
569366394.39907 -0.6727531 -17.408291 -200 45 -200 45 -200 45
570366511.08518 -0.67300242 -17.456095 -200 45 -200 45 -200 45
571366627.7713 -0.67319947 -17.483852 -200 45 -200 45 -200 45
572366744.45741 -0.6770342 -17.549437 -200 45 -200 45 -200 45
573366861.14352 -0.67545313 -17.57538 -200 45 -200 45 -200 45
574366977.82964 -0.67500073 -17.614927 -200 45 -200 45 -200 45
575367094.51575 -0.67859095 -17.637325 -200 45 -200 45 -200 45
576367211.20187 -0.67742932 -17.677485 -200 45 -200 45 -200 45
577367327.88798 -0.67626554 -17.695732 -200 45 -200 45 -200 45
578367444.5741 -0.67516708 -17.723801 -200 45 -200 45 -200 45
579367561.26021 -0.67530161 -17.743116 -200 45 -200 45 -200 45
580367677.94632 -0.67663062 -17.789324 -200 45 -200 45 -200 45
581367794.63244 -0.67753065 -17.817141 -200 45 -200 45 -200 45
582367911.31855 -0.67653596 -17.831041 -200 45 -200 45 -200 45
583368028.00467 -0.68066967 -17.850914 -200 45 -200 45 -200 45
584368144.69078 -0.68187827 -17.885529 -200 45 -200 45 -200 45
585368261.3769 -0.68216389 -17.896946 -200 45 -200 45 -200 45
586368378.06301 -0.68353707 -17.921827 -200 45 -200 45 -200 45
587368494.74912 -0.68586159 -17.935703 -200 45 -200 45 -200 45
588368611.43524 -0.68839419 -17.949932 -200 45 -200 45 -200 45
589368728.12135 -0.68766201 -17.959137 -200 45 -200 45 -200 45
590368844.80747 -0.68677992 -17.979876 -200 45 -200 45 -200 45
591368961.49358 -0.68964797 -17.982988 -200 45 -200 45 -200 45
592369078.1797 -0.6890955 -18.003937 -200 45 -200 45 -200 45
593369194.86581 -0.69098955 -17.992744 -200 45 -200 45 -200 45
594369311.55193 -0.68949205 -17.98937 -200 45 -200 45 -200 45
595369428.23804 -0.68753648 -17.982704 -200 45 -200 45 -200 45
596369544.92415 -0.69202435 -17.999317 -200 45 -200 45 -200 45
597369661.61027 -0.69116044 -17.987682 -200 45 -200 45 -200 45
598369778.29638 -0.69440991 -17.995962 -200 45 -200 45 -200 45
599369894.9825 -0.69525743 -18.000862 -200 45 -200 45 -200 45
600370011.66861 -0.69896233 -18.004416 -200 45 -200 45 -200 45
601370128.35473 -0.69945371 -18.004993 -200 45 -200 45 -200 45
602370245.04084 -0.70334637 -18.018866 -200 45 -200 45 -200 45
603370361.72695 -0.70649284 -18.018639 -200 45 -200 45 -200 45
604370478.41307 -0.70665765 -18.024776 -200 45 -200 45 -200 45
605370595.09918 -0.70681691 -18.019638 -200 45 -200 45 -200 45
606370711.7853 -0.70896256 -18.014746 -200 45 -200 45 -200 45
607370828.47141 -0.71148884 -18.030073 -200 45 -200 45 -200 45
608370945.15753 -0.71470106 -18.027693 -200 45 -200 45 -200 45
609371061.84364 -0.71556872 -18.02545 -200 45 -200 45 -200 45
610371178.52976 -0.71594143 -18.011471 -200 45 -200 45 -200 45
611371295.21587 -0.71825737 -18.009621 -200 45 -200 45 -200 45
612371411.90198 -0.71733081 -18.028778 -200 45 -200 45 -200 45
613371528.5881 -0.71960598 -18.034569 -200 45 -200 45 -200 45
614371645.27421 -0.72258574 -18.050808 -200 45 -200 45 -200 45
615371761.96033 -0.72341585 -18.054192 -200 45 -200 45 -200 45
616371878.64644 -0.72825593 -18.066998 -200 45 -200 45 -200 45
617371995.33256 -0.73219162 -18.083754 -200 45 -200 45 -200 45
618372112.01867 -0.73650968 -18.107893 -200 45 -200 45 -200 45
619372228.70478 -0.7368719 -18.125463 -200 45 -200 45 -200 45
620372345.3909 -0.74037433 -18.138847 -200 45 -200 45 -200 45
621372462.07701 -0.74349123 -18.157022 -200 45 -200 45 -200 45
622372578.76313 -0.74307466 -18.166708 -200 45 -200 45 -200 45
623372695.44924 -0.74679601 -18.18895 -200 45 -200 45 -200 45
624372812.13536 -0.7482661 -18.224686 -200 45 -200 45 -200 45
625372928.82147 -0.75292158 -18.265215 -200 45 -200 45 -200 45
626373045.50758 -0.75013751 -18.281422 -200 45 -200 45 -200 45
627373162.1937 -0.75335014 -18.294699 -200 45 -200 45 -200 45
628373278.87981 -0.756037 -18.334774 -200 45 -200 45 -200 45
629373395.56593 -0.75679034 -18.350061 -200 45 -200 45 -200 45
630373512.25204 -0.75969642 -18.390554 -200 45 -200 45 -200 45
631373628.93816 -0.76133931 -18.413324 -200 45 -200 45 -200 45
632373745.62427 -0.7638799 -18.471859 -200 45 -200 45 -200 45
633373862.31039 -0.76727748 -18.509541 -200 45 -200 45 -200 45
634373978.9965 -0.77046973 -18.549604 -200 45 -200 45 -200 45
635374095.68261 -0.77380198 -18.6049 -200 45 -200 45 -200 45
636374212.36873 -0.77584475 -18.645237 -200 45 -200 45 -200 45
637374329.05484 -0.77695191 -18.685881 -200 45 -200 45 -200 45
638374445.74096 -0.7784031 -18.712894 -200 45 -200 45 -200 45
639374562.42707 -0.77979159 -18.782846 -200 45 -200 45 -200 45
640374679.11319 -0.78370458 -18.832476 -200 45 -200 45 -200 45
641374795.7993 -0.78307801 -18.875626 -200 45 -200 45 -200 45
642374912.48541 -0.78291184 -18.916395 -200 45 -200 45 -200 45
643375029.17153 -0.78207713 -18.940418 -200 45 -200 45 -200 45
644375145.85764 -0.78331983 -18.998507 -200 45 -200 45 -200 45
645375262.54376 -0.78448379 -19.047607 -200 45 -200 45 -200 45
646375379.22987 -0.78609359 -19.10391 -200 45 -200 45 -200 45
647375495.91599 -0.78714502 -19.138336 -200 45 -200 45 -200 45
648375612.6021 -0.78696412 -19.19874 -200 45 -200 45 -200 45
649375729.28821 -0.79095811 -19.241503 -200 45 -200 45 -200 45
650375845.97433 -0.79288656 -19.28326 -200 45 -200 45 -200 45
651375962.66044 -0.79649943 -19.34193 -200 45 -200 45 -200 45
652376079.34656 -0.79357046 -19.392529 -200 45 -200 45 -200 45
653376196.03267 -0.79563844 -19.436491 -200 45 -200 45 -200 45
654376312.71879 -0.79481059 -19.47584 -200 45 -200 45 -200 45
655376429.4049 -0.7979942 -19.507124 -200 45 -200 45 -200 45
656376546.09102 -0.79933727 -19.549816 -200 45 -200 45 -200 45
657376662.77713 -0.80088753 -19.582321 -200 45 -200 45 -200 45
658376779.46324 -0.79715967 -19.617201 -200 45 -200 45 -200 45
659376896.14936 -0.79432535 -19.64996 -200 45 -200 45 -200 45
660377012.83547 -0.79588497 -19.68096 -200 45 -200 45 -200 45
661377129.52159 -0.79583931 -19.716511 -200 45 -200 45 -200 45
662377246.2077 -0.79866648 -19.730843 -200 45 -200 45 -200 45
663377362.89382 -0.79760098 -19.763178 -200 45 -200 45 -200 45
664377479.57993 -0.7981239 -19.795561 -200 45 -200 45 -200 45
665377596.26604 -0.79942942 -19.807444 -200 45 -200 45 -200 45
666377712.95216 -0.80274999 -19.840181 -200 45 -200 45 -200 45
667377829.63827 -0.80360556 -19.862213 -200 45 -200 45 -200 45
668377946.32439 -0.80303776 -19.881441 -200 45 -200 45 -200 45
669378063.0105 -0.80754936 -19.894651 -200 45 -200 45 -200 45
670378179.69662 -0.8071996 -19.912809 -200 45 -200 45 -200 45
671378296.38273 -0.804717 -19.908333 -200 45 -200 45 -200 45
672378413.06884 -0.80719805 -19.938486 -200 45 -200 45 -200 45
673378529.75496 -0.80892038 -19.928541 -200 45 -200 45 -200 45
674378646.44107 -0.80637449 -19.941015 -200 45 -200 45 -200 45
675378763.12719 -0.80461484 -19.946726 -200 45 -200 45 -200 45
676378879.8133 -0.80511522 -19.941603 -200 45 -200 45 -200 45
677378996.49942 -0.80654311 -19.955145 -200 45 -200 45 -200 45
678379113.18553 -0.80844921 -19.944468 -200 45 -200 45 -200 45
679379229.87165 -0.80823684 -19.945902 -200 45 -200 45 -200 45
680379346.55776 -0.8092494 -19.952499 -200 45 -200 45 -200 45
681379463.24387 -0.81139821 -19.965174 -200 45 -200 45 -200 45
682379579.92999 -0.81373972 -19.959526 -200 45 -200 45 -200 45
683379696.6161 -0.81728375 -19.965448 -200 45 -200 45 -200 45
684379813.30222 -0.82032567 -19.965895 -200 45 -200 45 -200 45
685379929.98833 -0.81895572 -19.959372 -200 45 -200 45 -200 45
686380046.67445 -0.82139045 -19.940012 -200 45 -200 45 -200 45
687380163.36056 -0.82401872 -19.948437 -200 45 -200 45 -200 45
688380280.04667 -0.82395142 -19.957777 -200 45 -200 45 -200 45
689380396.73279 -0.82617414 -19.96076 -200 45 -200 45 -200 45
690380513.4189 -0.82711512 -19.941792 -200 45 -200 45 -200 45
691380630.10502 -0.82695699 -19.931637 -200 45 -200 45 -200 45
692380746.79113 -0.82617164 -19.930353 -200 45 -200 45 -200 45
693380863.47725 -0.82998782 -19.939405 -200 45 -200 45 -200 45
694380980.16336 -0.83176816 -19.929617 -200 45 -200 45 -200 45
695381096.84947 -0.83123869 -19.93634 -200 45 -200 45 -200 45
696381213.53559 -0.83705699 -19.948826 -200 45 -200 45 -200 45
697381330.2217 -0.83891529 -19.956385 -200 45 -200 45 -200 45
698381446.90782 -0.84211415 -19.969042 -200 45 -200 45 -200 45
699381563.59393 -0.84536409 -19.977003 -200 45 -200 45 -200 45
700381680.28005 -0.84845406 -19.988289 -200 45 -200 45 -200 45
701381796.96616 -0.85217643 -20.007221 -200 45 -200 45 -200 45
702381913.65228 -0.8544966 -20.006052 -200 45 -200 45 -200 45
703382030.33839 -0.85554016 -20.021925 -200 45 -200 45 -200 45
704382147.0245 -0.85894024 -20.03359 -200 45 -200 45 -200 45
705382263.71062 -0.86233377 -20.063019 -200 45 -200 45 -200 45
706382380.39673 -0.86244428 -20.089018 -200 45 -200 45 -200 45
707382497.08285 -0.86109859 -20.097744 -200 45 -200 45 -200 45
708382613.76896 -0.86378509 -20.117123 -200 45 -200 45 -200 45
709382730.45508 -0.86634177 -20.144459 -200 45 -200 45 -200 45
710382847.14119 -0.86848706 -20.169678 -200 45 -200 45 -200 45
711382963.8273 -0.8723343 -20.201698 -200 45 -200 45 -200 45
712383080.51342 -0.87501383 -20.241772 -200 45 -200 45 -200 45
713383197.19953 -0.87643224 -20.282097 -200 45 -200 45 -200 45
714383313.88565 -0.88101923 -20.323833 -200 45 -200 45 -200 45
715383430.57176 -0.88431144 -20.35668 -200 45 -200 45 -200 45
716383547.25788 -0.88704789 -20.389868 -200 45 -200 45 -200 45
717383663.94399 -0.89017755 -20.452347 -200 45 -200 45 -200 45
718383780.63011 -0.89165914 -20.478521 -200 45 -200 45 -200 45
719383897.31622 -0.89432549 -20.540077 -200 45 -200 45 -200 45
720384014.00233 -0.89371425 -20.572418 -200 45 -200 45 -200 45
721384130.68845 -0.90019655 -20.628538 -200 45 -200 45 -200 45
722384247.37456 -0.90175515 -20.67474 -200 45 -200 45 -200 45
723384364.06068 -0.89898777 -20.712957 -200 45 -200 45 -200 45
724384480.74679 -0.89728439 -20.756289 -200 45 -200 45 -200 45
725384597.43291 -0.90024048 -20.803596 -200 45 -200 45 -200 45
726384714.11902 -0.9023838 -20.854321 -200 45 -200 45 -200 45
727384830.80513 -0.90447265 -20.907167 -200 45 -200 45 -200 45
728384947.49125 -0.9027015 -20.952871 -200 45 -200 45 -200 45
729385064.17736 -0.9071418 -21.009733 -200 45 -200 45 -200 45
730385180.86348 -0.90881139 -21.059439 -200 45 -200 45 -200 45
731385297.54959 -0.91058892 -21.11211 -200 45 -200 45 -200 45
732385414.23571 -0.91434675 -21.147856 -200 45 -200 45 -200 45
733385530.92182 -0.9155103 -21.208736 -200 45 -200 45 -200 45
734385647.60793 -0.91575766 -21.261984 -200 45 -200 45 -200 45
735385764.29405 -0.91575962 -21.298464 -200 45 -200 45 -200 45
736385880.98016 -0.91514915 -21.346039 -200 45 -200 45 -200 45
737385997.66628 -0.91959357 -21.389668 -200 45 -200 45 -200 45
738386114.35239 -0.92047822 -21.427076 -200 45 -200 45 -200 45
739386231.03851 -0.91959298 -21.463982 -200 45 -200 45 -200 45
740386347.72462 -0.91618055 -21.51059 -200 45 -200 45 -200 45
741386464.41074 -0.91503602 -21.524969 -200 45 -200 45 -200 45
742386581.09685 -0.91419786 -21.560499 -200 45 -200 45 -200 45
743386697.78296 -0.91864264 -21.593493 -200 45 -200 45 -200 45
744386814.46908 -0.91810977 -21.620003 -200 45 -200 45 -200 45
745386931.15519 -0.91586477 -21.655207 -200 45 -200 45 -200 45
746387047.84131 -0.91895413 -21.695789 -200 45 -200 45 -200 45
747387164.52742 -0.92142737 -21.726126 -200 45 -200 45 -200 45
748387281.21354 -0.92273653 -21.752567 -200 45 -200 45 -200 45
749387397.89965 -0.92329842 -21.776089 -200 45 -200 45 -200 45
750387514.58576 -0.92473018 -21.790977 -200 45 -200 45 -200 45
751387631.27188 -0.92306018 -21.804502 -200 45 -200 45 -200 45
752387747.95799 -0.92485124 -21.836456 -200 45 -200 45 -200 45
753387864.64411 -0.92644113 -21.846083 -200 45 -200 45 -200 45
754387981.33022 -0.92731851 -21.857174 -200 45 -200 45 -200 45
755388098.01634 -0.92588145 -21.853357 -200 45 -200 45 -200 45
756388214.70245 -0.92365706 -21.854809 -200 45 -200 45 -200 45
757388331.38856 -0.92356259 -21.873629 -200 45 -200 45 -200 45
758388448.07468 -0.9238261 -21.878971 -200 45 -200 45 -200 45
759388564.76079 -0.92607301 -21.868652 -200 45 -200 45 -200 45
760388681.44691 -0.92613387 -21.881575 -200 45 -200 45 -200 45
761388798.13302 -0.92735475 -21.880459 -200 45 -200 45 -200 45
762388914.81914 -0.92969841 -21.891966 -200 45 -200 45 -200 45
763389031.50525 -0.93075383 -21.890465 -200 45 -200 45 -200 45
764389148.19137 -0.93447906 -21.887819 -200 45 -200 45 -200 45
765389264.87748 -0.93673503 -21.884907 -200 45 -200 45 -200 45
766389381.56359 -0.93821657 -21.872152 -200 45 -200 45 -200 45
767389498.24971 -0.94229233 -21.872639 -200 45 -200 45 -200 45
768389614.93582 -0.93971688 -21.870392 -200 45 -200 45 -200 45
769389731.62194 -0.94356728 -21.875444 -200 45 -200 45 -200 45
770389848.30805 -0.94310886 -21.855259 -200 45 -200 45 -200 45
771389964.99417 -0.94540638 -21.847742 -200 45 -200 45 -200 45
772390081.68028 -0.94399703 -21.840231 -200 45 -200 45 -200 45
773390198.36639 -0.94667286 -21.83005 -200 45 -200 45 -200 45
774390315.05251 -0.94693363 -21.835646 -200 45 -200 45 -200 45
775390431.73862 -0.94862312 -21.841097 -200 45 -200 45 -200 45
776390548.42474 -0.95293462 -21.837555 -200 45 -200 45 -200 45
777390665.11085 -0.95523733 -21.830074 -200 45 -200 45 -200 45
778390781.79697 -0.95689321 -21.83157 -200 45 -200 45 -200 45
779390898.48308 -0.95921737 -21.823786 -200 45 -200 45 -200 45
780391015.16919 -0.96584612 -21.839548 -200 45 -200 45 -200 45
781391131.85531 -0.96904796 -21.837444 -200 45 -200 45 -200 45
782391248.54142 -0.97038746 -21.847467 -200 45 -200 45 -200 45
783391365.22754 -0.97160852 -21.859926 -200 45 -200 45 -200 45
784391481.91365 -0.97654933 -21.880775 -200 45 -200 45 -200 45
785391598.59977 -0.97881263 -21.890079 -200 45 -200 45 -200 45
786391715.28588 -0.98332667 -21.896315 -200 45 -200 45 -200 45
787391831.972 -0.9841451 -21.90019 -200 45 -200 45 -200 45
788391948.65811 -0.98362112 -21.920948 -200 45 -200 45 -200 45
789392065.34422 -0.98528755 -21.934286 -200 45 -200 45 -200 45
790392182.03034 -0.98762602 -21.941448 -200 45 -200 45 -200 45
791392298.71645 -0.99078506 -21.971657 -200 45 -200 45 -200 45
792392415.40257 -0.99393672 -21.996372 -200 45 -200 45 -200 45
793392532.08868 -0.99685025 -22.020397 -200 45 -200 45 -200 45
794392648.7748 -0.99763548 -22.053579 -200 45 -200 45 -200 45
795392765.46091 -1.0033832 -22.094032 -200 45 -200 45 -200 45
796392882.14702 -1.0069228 -22.122663 -200 45 -200 45 -200 45
797392998.83314 -1.0095872 -22.169683 -200 45 -200 45 -200 45
798393115.51925 -1.0123754 -22.200596 -200 45 -200 45 -200 45
799393232.20537 -1.0144527 -22.226614 -200 45 -200 45 -200 45
800393348.89148 -1.0177252 -22.275053 -200 45 -200 45 -200 45
801393465.5776 -1.0176264 -22.312136 -200 45 -200 45 -200 45
802393582.26371 -1.0203409 -22.366074 -200 45 -200 45 -200 45
803393698.94983 -1.0245099 -22.406647 -200 45 -200 45 -200 45
804393815.63594 -1.0238669 -22.461775 -200 45 -200 45 -200 45
805393932.32205 -1.0230711 -22.49617 -200 45 -200 45 -200 45
806394049.00817 -1.0231861 -22.53661 -200 45 -200 45 -200 45
807394165.69428 -1.026695 -22.59198 -200 45 -200 45 -200 45
808394282.3804 -1.0285826 -22.651154 -200 45 -200 45 -200 45
809394399.06651 -1.0316442 -22.698463 -200 45 -200 45 -200 45
810394515.75263 -1.0327282 -22.747154 -200 45 -200 45 -200 45
811394632.43874 -1.0361133 -22.802069 -200 45 -200 45 -200 45
812394749.12485 -1.0373694 -22.849808 -200 45 -200 45 -200 45
813394865.81097 -1.0412498 -22.908779 -200 45 -200 45 -200 45
814394982.49708 -1.0400507 -22.943922 -200 45 -200 45 -200 45
815395099.1832 -1.0415781 -22.995338 -200 45 -200 45 -200 45
816395215.86931 -1.04266 -23.052298 -200 45 -200 45 -200 45
817395332.55543 -1.0460672 -23.095596 -200 45 -200 45 -200 45
818395449.24154 -1.0462214 -23.142862 -200 45 -200 45 -200 45
819395565.92765 -1.0453477 -23.190111 -200 45 -200 45 -200 45
820395682.61377 -1.0441383 -23.236397 -200 45 -200 45 -200 45
821395799.29988 -1.0418749 -23.276203 -200 45 -200 45 -200 45
822395915.986 -1.0406092 -23.29693 -200 45 -200 45 -200 45
823396032.67211 -1.0447425 -23.346184 -200 45 -200 45 -200 45
824396149.35823 -1.045869 -23.383133 -200 45 -200 45 -200 45
825396266.04434 -1.0448742 -23.423285 -200 45 -200 45 -200 45
826396382.73046 -1.0444046 -23.451572 -200 45 -200 45 -200 45
827396499.41657 -1.0477855 -23.494757 -200 45 -200 45 -200 45
828396616.10268 -1.047767 -23.524069 -200 45 -200 45 -200 45
829396732.7888 -1.0494099 -23.55633 -200 45 -200 45 -200 45
830396849.47491 -1.0501701 -23.584 -200 45 -200 45 -200 45
831396966.16103 -1.0518656 -23.607056 -200 45 -200 45 -200 45
832397082.84714 -1.0551853 -23.631811 -200 45 -200 45 -200 45
833397199.53326 -1.0511763 -23.638014 -200 45 -200 45 -200 45
834397316.21937 -1.0536367 -23.664249 -200 45 -200 45 -200 45
835397432.90548 -1.0553374 -23.684244 -200 45 -200 45 -200 45
836397549.5916 -1.0539269 -23.69874 -200 45 -200 45 -200 45
837397666.27771 -1.0478044 -23.691986 -200 45 -200 45 -200 45
838397782.96383 -1.049969 -23.706869 -200 45 -200 45 -200 45
839397899.64994 -1.0515562 -23.717134 -200 45 -200 45 -200 45
840398016.33606 -1.0518656 -23.727072 -200 45 -200 45 -200 45
841398133.02217 -1.0503441 -23.714319 -200 45 -200 45 -200 45
842398249.70828 -1.0516796 -23.725401 -200 45 -200 45 -200 45
843398366.3944 -1.0563905 -23.72267 -200 45 -200 45 -200 45
844398483.08051 -1.0572721 -23.729254 -200 45 -200 45 -200 45
845398599.76663 -1.0611012 -23.737507 -200 45 -200 45 -200 45
846398716.45274 -1.0628899 -23.735878 -200 45 -200 45 -200 45
847398833.13886 -1.0638297 -23.727024 -200 45 -200 45 -200 45
848398949.82497 -1.0656668 -23.711538 -200 45 -200 45 -200 45
849399066.51109 -1.0656431 -23.712158 -200 45 -200 45 -200 45
850399183.1972 -1.0696167 -23.71278 -200 45 -200 45 -200 45
851399299.88331 -1.0707775 -23.704449 -200 45 -200 45 -200 45
852399416.56943 -1.0707984 -23.697382 -200 45 -200 45 -200 45
853399533.25554 -1.0694762 -23.68066 -200 45 -200 45 -200 45
854399649.94166 -1.0705971 -23.666176 -200 45 -200 45 -200 45
855399766.62777 -1.071774 -23.668194 -200 45 -200 45 -200 45
856399883.31389 -1.0760593 -23.676325 -200 45 -200 45 -200 45
857400000 -1.0784612 -23.648973 -200 45 -200 45 -200 45
858400116.68611 -1.0807364 -23.646086 -200 45 -200 45 -200 45
859400233.37223 -1.0846907 -23.653257 -200 45 -200 45 -200 45
860400350.05834 -1.0884167 -23.636021 -200 45 -200 45 -200 45
861400466.74446 -1.0932466 -23.64319 -200 45 -200 45 -200 45
862400583.43057 -1.0970889 -23.635845 -200 45 -200 45 -200 45
863400700.11669 -1.1006095 -23.628662 -200 45 -200 45 -200 45
864400816.8028 -1.1021006 -23.629602 -200 45 -200 45 -200 45
865400933.48891 -1.1061676 -23.643147 -200 45 -200 45 -200 45
866401050.17503 -1.1091408 -23.633213 -200 45 -200 45 -200 45
867401166.86114 -1.1137217 -23.63796 -200 45 -200 45 -200 45
868401283.54726 -1.1171429 -23.652311 -200 45 -200 45 -200 45
869401400.23337 -1.1179084 -23.649399 -200 45 -200 45 -200 45
870401516.91949 -1.1182241 -23.642183 -200 45 -200 45 -200 45
871401633.6056 -1.1187727 -23.652178 -200 45 -200 45 -200 45
872401750.29172 -1.1254444 -23.670544 -200 45 -200 45 -200 45
873401866.97783 -1.1276357 -23.664463 -200 45 -200 45 -200 45
874401983.66394 -1.1315418 -23.68693 -200 45 -200 45 -200 45
875402100.35006 -1.1359543 -23.708866 -200 45 -200 45 -200 45
876402217.03617 -1.1407847 -23.733786 -200 45 -200 45 -200 45
877402333.72229 -1.1443477 -23.746443 -200 45 -200 45 -200 45
878402450.4084 -1.1497941 -23.773003 -200 45 -200 45 -200 45
879402567.09452 -1.1540464 -23.795832 -200 45 -200 45 -200 45
880402683.78063 -1.1522889 -23.819117 -200 45 -200 45 -200 45
881402800.46674 -1.1573631 -23.84454 -200 45 -200 45 -200 45
882402917.15286 -1.1585317 -23.874527 -200 45 -200 45 -200 45
883403033.83897 -1.1605693 -23.912598 -200 45 -200 45 -200 45
884403150.52509 -1.1654246 -23.937309 -200 45 -200 45 -200 45
885403267.2112 -1.1650198 -23.954002 -200 45 -200 45 -200 45
886403383.89732 -1.1632146 -23.995682 -200 45 -200 45 -200 45
887403500.58343 -1.1619672 -24.024918 -200 45 -200 45 -200 45
888403617.26954 -1.1636524 -24.071711 -200 45 -200 45 -200 45
889403733.95566 -1.1645404 -24.097383 -200 45 -200 45 -200 45
890403850.64177 -1.163895 -24.140688 -200 45 -200 45 -200 45
891403967.32789 -1.165735 -24.175287 -200 45 -200 45 -200 45
892404084.014 -1.1676152 -24.243004 -200 45 -200 45 -200 45
893404200.70012 -1.1680883 -24.272877 -200 45 -200 45 -200 45
894404317.38623 -1.1720185 -24.323683 -200 45 -200 45 -200 45
895404434.07235 -1.1726665 -24.360123 -200 45 -200 45 -200 45
896404550.75846 -1.170691 -24.417751 -200 45 -200 45 -200 45
897404667.44457 -1.1702603 -24.462292 -200 45 -200 45 -200 45
898404784.13069 -1.1699882 -24.503365 -200 45 -200 45 -200 45
899404900.8168 -1.1693127 -24.556414 -200 45 -200 45 -200 45
900405017.50292 -1.1713812 -24.596161 -200 45 -200 45 -200 45
901405134.18903 -1.1695828 -24.665646 -200 45 -200 45 -200 45
902405250.87515 -1.1642517 -24.685375 -200 45 -200 45 -200 45
903405367.56126 -1.1627942 -24.737915 -200 45 -200 45 -200 45
904405484.24737 -1.1618525 -24.769457 -200 45 -200 45 -200 45
905405600.93349 -1.1612713 -24.825409 -200 45 -200 45 -200 45
906405717.6196 -1.1610099 -24.864201 -200 45 -200 45 -200 45
907405834.30572 -1.1598923 -24.909597 -200 45 -200 45 -200 45
908405950.99183 -1.1599722 -24.953711 -200 45 -200 45 -200 45
909406067.67795 -1.1605778 -24.972757 -200 45 -200 45 -200 45
910406184.36406 -1.160503 -25.022131 -200 45 -200 45 -200 45
911406301.05018 -1.160454 -25.06554 -200 45 -200 45 -200 45
912406417.73629 -1.1601276 -25.087536 -200 45 -200 45 -200 45
913406534.4224 -1.1584506 -25.127178 -200 45 -200 45 -200 45
914406651.10852 -1.158048 -25.144625 -200 45 -200 45 -200 45
915406767.79463 -1.158213 -25.185129 -200 45 -200 45 -200 45
916406884.48075 -1.1576084 -25.190123 -200 45 -200 45 -200 45
917407001.16686 -1.1558992 -25.222559 -200 45 -200 45 -200 45
918407117.85298 -1.150571 -25.237806 -200 45 -200 45 -200 45
919407234.53909 -1.1504215 -25.23979 -200 45 -200 45 -200 45
920407351.2252 -1.1504455 -25.265009 -200 45 -200 45 -200 45
921407467.91132 -1.1485711 -25.280546 -200 45 -200 45 -200 45
922407584.59743 -1.148911 -25.296682 -200 45 -200 45 -200 45
923407701.28355 -1.1501833 -25.300566 -200 45 -200 45 -200 45
924407817.96966 -1.1523921 -25.317032 -200 45 -200 45 -200 45
925407934.65578 -1.1512859 -25.319784 -200 45 -200 45 -200 45
926408051.34189 -1.152933 -25.327101 -200 45 -200 45 -200 45
927408168.028 -1.153041 -25.331177 -200 45 -200 45 -200 45
928408284.71412 -1.1561188 -25.326536 -200 45 -200 45 -200 45
929408401.40023 -1.1551192 -25.320652 -200 45 -200 45 -200 45
930408518.08635 -1.1545532 -25.32119 -200 45 -200 45 -200 45
931408634.77246 -1.1553745 -25.329313 -200 45 -200 45 -200 45
932408751.45858 -1.1586591 -25.328316 -200 45 -200 45 -200 45
933408868.14469 -1.1591648 -25.323151 -200 45 -200 45 -200 45
934408984.83081 -1.1544898 -25.297926 -200 45 -200 45 -200 45
935409101.51692 -1.1562477 -25.297016 -200 45 -200 45 -200 45
936409218.20303 -1.1581153 -25.29471 -200 45 -200 45 -200 45
937409334.88915 -1.1579581 -25.288097 -200 45 -200 45 -200 45
938409451.57526 -1.1612341 -25.280924 -200 45 -200 45 -200 45
939409568.26138 -1.1629245 -25.284096 -200 45 -200 45 -200 45
940409684.94749 -1.1642253 -25.286682 -200 45 -200 45 -200 45
941409801.63361 -1.1675661 -25.27704 -200 45 -200 45 -200 45
942409918.31972 -1.1704338 -25.267233 -200 45 -200 45 -200 45
943410035.00583 -1.1742593 -25.254713 -200 45 -200 45 -200 45
944410151.69195 -1.1778919 -25.261505 -200 45 -200 45 -200 45
945410268.37806 -1.1800028 -25.265837 -200 45 -200 45 -200 45
946410385.06418 -1.1810032 -25.259523 -200 45 -200 45 -200 45
947410501.75029 -1.1853091 -25.264666 -200 45 -200 45 -200 45
948410618.43641 -1.1887922 -25.265169 -200 45 -200 45 -200 45
949410735.12252 -1.1908189 -25.270662 -200 45 -200 45 -200 45
950410851.80863 -1.1889931 -25.269802 -200 45 -200 45 -200 45
951410968.49475 -1.1921138 -25.265184 -200 45 -200 45 -200 45
952411085.18086 -1.1947551 -25.272999 -200 45 -200 45 -200 45
953411201.86698 -1.1980379 -25.284805 -200 45 -200 45 -200 45
954411318.55309 -1.2002767 -25.300785 -200 45 -200 45 -200 45
955411435.23921 -1.2036415 -25.310318 -200 45 -200 45 -200 45
956411551.92532 -1.2050539 -25.339148 -200 45 -200 45 -200 45
957411668.61144 -1.2109803 -25.338938 -200 45 -200 45 -200 45
958411785.29755 -1.2137855 -25.382399 -200 45 -200 45 -200 45
959411901.98366 -1.2211553 -25.400099 -200 45 -200 45 -200 45
960412018.66978 -1.2233614 -25.414139 -200 45 -200 45 -200 45
961412135.35589 -1.2250233 -25.436789 -200 45 -200 45 -200 45
962412252.04201 -1.2292531 -25.475195 -200 45 -200 45 -200 45
963412368.72812 -1.2299035 -25.49229 -200 45 -200 45 -200 45
964412485.41424 -1.2355497 -25.53838 -200 45 -200 45 -200 45
965412602.10035 -1.2369977 -25.571417 -200 45 -200 45 -200 45
966412718.78646 -1.2355105 -25.611135 -200 45 -200 45 -200 45
967412835.47258 -1.2358216 -25.63648 -200 45 -200 45 -200 45
968412952.15869 -1.2362452 -25.673615 -200 45 -200 45 -200 45
969413068.84481 -1.2367172 -25.714783 -200 45 -200 45 -200 45
970413185.53092 -1.2419792 -25.749741 -200 45 -200 45 -200 45
971413302.21704 -1.243237 -25.794538 -200 45 -200 45 -200 45
972413418.90315 -1.2433436 -25.852505 -200 45 -200 45 -200 45
973413535.58926 -1.2469178 -25.899458 -200 45 -200 45 -200 45
974413652.27538 -1.2473601 -25.939507 -200 45 -200 45 -200 45
975413768.96149 -1.2527759 -25.995817 -200 45 -200 45 -200 45
976413885.64761 -1.2554344 -26.065828 -200 45 -200 45 -200 45
977414002.33372 -1.256171 -26.10038 -200 45 -200 45 -200 45
978414119.01984 -1.2558056 -26.140846 -200 45 -200 45 -200 45
979414235.70595 -1.2546213 -26.203129 -200 45 -200 45 -200 45
980414352.39207 -1.2571269 -26.251295 -200 45 -200 45 -200 45
981414469.07818 -1.2591242 -26.297525 -200 45 -200 45 -200 45
982414585.76429 -1.2598832 -26.346872 -200 45 -200 45 -200 45
983414702.45041 -1.2544467 -26.404957 -200 45 -200 45 -200 45
984414819.13652 -1.2551731 -26.446943 -200 45 -200 45 -200 45
985414935.82264 -1.2556542 -26.486105 -200 45 -200 45 -200 45
986415052.50875 -1.2522986 -26.521149 -200 45 -200 45 -200 45
987415169.19487 -1.2549291 -26.577665 -200 45 -200 45 -200 45
988415285.88098 -1.2540296 -26.625683 -200 45 -200 45 -200 45
989415402.56709 -1.2537222 -26.656513 -200 45 -200 45 -200 45
990415519.25321 -1.2554637 -26.712547 -200 45 -200 45 -200 45
991415635.93932 -1.2575501 -26.76281 -200 45 -200 45 -200 45
992415752.62544 -1.2571484 -26.788231 -200 45 -200 45 -200 45
993415869.31155 -1.25956 -26.82658 -200 45 -200 45 -200 45
994415985.99767 -1.255311 -26.866249 -200 45 -200 45 -200 45
995416102.68378 -1.2539523 -26.895834 -200 45 -200 45 -200 45
996416219.36989 -1.2532654 -26.928278 -200 45 -200 45 -200 45
997416336.05601 -1.2568382 -26.954216 -200 45 -200 45 -200 45
998416452.74212 -1.2541848 -26.979818 -200 45 -200 45 -200 45
999416569.42824 -1.2500929 -26.999138 -200 45 -200 45 -200 45
1000416686.1144 -1.2452686 -27.016052 -200 45 -200 45 -200 45
1001416802.8005 -1.2463981 -27.044104 -200 45 -200 45 -200 45
1002416919.4866 -1.2475246 -27.064472 -200 45 -200 45 -200 45
1003417036.1727 -1.2459208 -27.072441 -200 45 -200 45 -200 45
1004417152.8588 -1.2452055 -27.092289 -200 45 -200 45 -200 45
1005417269.5449 -1.2469293 -27.11717 -200 45 -200 45 -200 45
1006417386.231 -1.2445097 -27.124592 -200 45 -200 45 -200 45
1007417502.9172 -1.24465 -27.135649 -200 45 -200 45 -200 45
1008417619.6033 -1.2480015 -27.146326 -200 45 -200 45 -200 45
1009417736.2894 -1.2504861 -27.141716 -200 45 -200 45 -200 45
1010417852.9755 -1.2496086 -27.14661 -200 45 -200 45 -200 45
1011417969.6616 -1.2496921 -27.152185 -200 45 -200 45 -200 45
1012418086.3477 -1.2501233 -27.141794 -200 45 -200 45 -200 45
1013418203.0338 -1.251071 -27.159828 -200 45 -200 45 -200 45
1014418319.72 -1.2520375 -27.147688 -200 45 -200 45 -200 45
1015418436.4061 -1.249804 -27.148123 -200 45 -200 45 -200 45
1016418553.0922 -1.2480716 -27.149134 -200 45 -200 45 -200 45
1017418669.7783 -1.2487817 -27.13677 -200 45 -200 45 -200 45
1018418786.4644 -1.2515167 -27.143248 -200 45 -200 45 -200 45
1019418903.1505 -1.2525431 -27.131506 -200 45 -200 45 -200 45
1020419019.8366 -1.2539229 -27.12854 -200 45 -200 45 -200 45
1021419136.5228 -1.256834 -27.122904 -200 45 -200 45 -200 45
1022419253.2089 -1.2597555 -27.116909 -200 45 -200 45 -200 45
1023419369.895 -1.2613673 -27.125069 -200 45 -200 45 -200 45
1024419486.5811 -1.2661988 -27.109552 -200 45 -200 45 -200 45
1025419603.2672 -1.2668014 -27.119549 -200 45 -200 45 -200 45
1026419719.9533 -1.2691013 -27.114361 -200 45 -200 45 -200 45
1027419836.6394 -1.271787 -27.101492 -200 45 -200 45 -200 45
1028419953.3256 -1.2716875 -27.101238 -200 45 -200 45 -200 45
1029420070.0117 -1.2776273 -27.115719 -200 45 -200 45 -200 45
1030420186.6978 -1.282998 -27.104601 -200 45 -200 45 -200 45
1031420303.3839 -1.2825817 -27.103643 -200 45 -200 45 -200 45
1032420420.07 -1.281005 -27.109951 -200 45 -200 45 -200 45
1033420536.7561 -1.28455 -27.1077 -200 45 -200 45 -200 45
1034420653.4422 -1.2890955 -27.116924 -200 45 -200 45 -200 45
1035420770.1284 -1.2901601 -27.113523 -200 45 -200 45 -200 45
1036420886.8145 -1.2949575 -27.144615 -200 45 -200 45 -200 45
1037421003.5006 -1.3000063 -27.14929 -200 45 -200 45 -200 45
1038421120.1867 -1.3056781 -27.15756 -200 45 -200 45 -200 45
1039421236.8728 -1.3088912 -27.177094 -200 45 -200 45 -200 45
1040421353.5589 -1.3162265 -27.193964 -200 45 -200 45 -200 45
1041421470.245 -1.3198403 -27.205343 -200 45 -200 45 -200 45
1042421586.9312 -1.3231723 -27.224972 -200 45 -200 45 -200 45
1043421703.6173 -1.3254256 -27.253975 -200 45 -200 45 -200 45
1044421820.3034 -1.3309169 -27.254791 -200 45 -200 45 -200 45
1045421936.9895 -1.332021 -27.287817 -200 45 -200 45 -200 45
1046422053.6756 -1.3367307 -27.33675 -200 45 -200 45 -200 45
1047422170.3617 -1.3379567 -27.351141 -200 45 -200 45 -200 45
1048422287.0478 -1.337302 -27.386225 -200 45 -200 45 -200 45
1049422403.734 -1.3406149 -27.412046 -200 45 -200 45 -200 45
1050422520.4201 -1.3431373 -27.457729 -200 45 -200 45 -200 45
1051422637.1062 -1.3447207 -27.486475 -200 45 -200 45 -200 45
1052422753.7923 -1.3484257 -27.54071 -200 45 -200 45 -200 45
1053422870.4784 -1.351218 -27.572699 -200 45 -200 45 -200 45
1054422987.1645 -1.3551311 -27.620209 -200 45 -200 45 -200 45
1055423103.8506 -1.3568913 -27.658005 -200 45 -200 45 -200 45
1056423220.5368 -1.362757 -27.705021 -200 45 -200 45 -200 45
1057423337.2229 -1.365881 -27.762568 -200 45 -200 45 -200 45
1058423453.909 -1.3662543 -27.791843 -200 45 -200 45 -200 45
1059423570.5951 -1.367738 -27.835478 -200 45 -200 45 -200 45
1060423687.2812 -1.3669493 -27.890701 -200 45 -200 45 -200 45
1061423803.9673 -1.3720087 -27.944279 -200 45 -200 45 -200 45
1062423920.6534 -1.3706464 -28.011782 -200 45 -200 45 -200 45
1063424037.3396 -1.3731514 -28.037119 -200 45 -200 45 -200 45
1064424154.0257 -1.3706907 -28.073339 -200 45 -200 45 -200 45
1065424270.7118 -1.3679359 -28.126667 -200 45 -200 45 -200 45
1066424387.3979 -1.369614 -28.18235 -200 45 -200 45 -200 45
1067424504.084 -1.3713453 -28.20541 -200 45 -200 45 -200 45
1068424620.7701 -1.3746293 -28.26247 -200 45 -200 45 -200 45
1069424737.4562 -1.3737373 -28.297884 -200 45 -200 45 -200 45
1070424854.1424 -1.373536 -28.364239 -200 45 -200 45 -200 45
1071424970.8285 -1.374764 -28.412737 -200 45 -200 45 -200 45
1072425087.5146 -1.3759468 -28.452955 -200 45 -200 45 -200 45
1073425204.2007 -1.3781476 -28.50178 -200 45 -200 45 -200 45
1074425320.8868 -1.3763992 -28.528145 -200 45 -200 45 -200 45
1075425437.5729 -1.3747365 -28.571844 -200 45 -200 45 -200 45
1076425554.259 -1.3746442 -28.598196 -200 45 -200 45 -200 45
1077425670.9452 -1.3743781 -28.637531 -200 45 -200 45 -200 45
1078425787.6313 -1.3746769 -28.670311 -200 45 -200 45 -200 45
1079425904.3174 -1.3743508 -28.698994 -200 45 -200 45 -200 45
1080426021.0035 -1.3702648 -28.736679 -200 45 -200 45 -200 45
1081426137.6896 -1.3676338 -28.744623 -200 45 -200 45 -200 45
1082426254.3757 -1.3686643 -28.786909 -200 45 -200 45 -200 45
1083426371.0618 -1.3642951 -28.808636 -200 45 -200 45 -200 45
1084426487.748 -1.3689899 -28.81846 -200 45 -200 45 -200 45
1085426604.4341 -1.3648051 -28.840792 -200 45 -200 45 -200 45
1086426721.1202 -1.3652793 -28.854214 -200 45 -200 45 -200 45
1087426837.8063 -1.3652992 -28.881735 -200 45 -200 45 -200 45
1088426954.4924 -1.366039 -28.877687 -200 45 -200 45 -200 45
1089427071.1785 -1.3693458 -28.911781 -200 45 -200 45 -200 45
1090427187.8646 -1.3673905 -28.906429 -200 45 -200 45 -200 45
1091427304.5508 -1.3680204 -28.918192 -200 45 -200 45 -200 45
1092427421.2369 -1.3655074 -28.936192 -200 45 -200 45 -200 45
1093427537.923 -1.3654662 -28.941885 -200 45 -200 45 -200 45
1094427654.6091 -1.3669114 -28.930178 -200 45 -200 45 -200 45
1095427771.2952 -1.3664795 -28.937811 -200 45 -200 45 -200 45
1096427887.9813 -1.3649451 -28.946329 -200 45 -200 45 -200 45
1097428004.6674 -1.3607001 -28.946447 -200 45 -200 45 -200 45
1098428121.3536 -1.3627087 -28.93693 -200 45 -200 45 -200 45
1099428238.0397 -1.3631278 -28.932856 -200 45 -200 45 -200 45
1100428354.7258 -1.3655963 -28.927586 -200 45 -200 45 -200 45
1101428471.4119 -1.3664982 -28.923393 -200 45 -200 45 -200 45
1102428588.098 -1.3679193 -28.928068 -200 45 -200 45 -200 45
1103428704.7841 -1.3704827 -28.912195 -200 45 -200 45 -200 45
1104428821.4702 -1.3706613 -28.919418 -200 45 -200 45 -200 45
1105428938.1564 -1.3756027 -28.929991 -200 45 -200 45 -200 45
1106429054.8425 -1.3788018 -28.917528 -200 45 -200 45 -200 45
1107429171.5286 -1.3813056 -28.900799 -200 45 -200 45 -200 45
1108429288.2147 -1.3818603 -28.902157 -200 45 -200 45 -200 45
1109429404.9008 -1.3839986 -28.89917 -200 45 -200 45 -200 45
1110429521.5869 -1.3843486 -28.900839 -200 45 -200 45 -200 45
1111429638.273 -1.3885915 -28.901915 -200 45 -200 45 -200 45
1112429754.9592 -1.3903029 -28.908632 -200 45 -200 45 -200 45
1113429871.6453 -1.3903375 -28.904709 -200 45 -200 45 -200 45
1114429988.3314 -1.3898611 -28.911081 -200 45 -200 45 -200 45
1115430105.0175 -1.3958318 -28.915571 -200 45 -200 45 -200 45
1116430221.7036 -1.3978918 -28.921394 -200 45 -200 45 -200 45
1117430338.3897 -1.4033371 -28.937214 -200 45 -200 45 -200 45
1118430455.0758 -1.4058543 -28.935163 -200 45 -200 45 -200 45
1119430571.762 -1.4116138 -28.937422 -200 45 -200 45 -200 45
1120430688.4481 -1.414627 -28.955023 -200 45 -200 45 -200 45
1121430805.1342 -1.4224403 -28.972118 -200 45 -200 45 -200 45
1122430921.8203 -1.4256873 -28.992786 -200 45 -200 45 -200 45
1123431038.5064 -1.4301702 -29.009544 -200 45 -200 45 -200 45
1124431155.1925 -1.43292 -29.015673 -200 45 -200 45 -200 45
1125431271.8786 -1.4366686 -29.055696 -200 45 -200 45 -200 45
1126431388.5648 -1.4412977 -29.085596 -200 45 -200 45 -200 45
1127431505.2509 -1.4447756 -29.113026 -200 45 -200 45 -200 45
1128431621.937 -1.4484541 -29.159693 -200 45 -200 45 -200 45
1129431738.6231 -1.4495474 -29.20175 -200 45 -200 45 -200 45
1130431855.3092 -1.4537947 -29.24181 -200 45 -200 45 -200 45
1131431971.9953 -1.4628925 -29.286606 -200 45 -200 45 -200 45
1132432088.6814 -1.4686483 -29.322777 -200 45 -200 45 -200 45
1133432205.3676 -1.4741843 -29.352308 -200 45 -200 45 -200 45
1134432322.0537 -1.4778105 -29.383867 -200 45 -200 45 -200 45
1135432438.7398 -1.4847068 -29.436224 -200 45 -200 45 -200 45
1136432555.4259 -1.4883789 -29.473806 -200 45 -200 45 -200 45
1137432672.112 -1.4915575 -29.556244 -200 45 -200 45 -200 45
1138432788.7981 -1.5003763 -29.630812 -200 45 -200 45 -200 45
1139432905.4842 -1.5090238 -29.724758 -200 45 -200 45 -200 45
1140433022.1704 -1.5205268 -29.838255 -200 45 -200 45 -200 45
1141433138.8565 -1.540134 -29.955673 -200 45 -200 45 -200 45
1142433255.5426 -1.5756599 -30.06843 -200 45 -200 45 -200 45
1143433372.2287 -1.6296638 -30.025873 -200 45 -200 45 -200 45
1144433488.9148 -1.663987 -29.698725 -200 45 -200 45 -200 45
1145433605.6009 -1.6506827 -29.362129 -200 45 -200 45 -200 45
1146433722.287 -1.6256309 -29.169287 -200 45 -200 45 -200 45
1147433838.9732 -1.5926067 -29.135767 -200 45 -200 45 -200 45
1148433955.6593 -1.5784029 -29.172073 -200 45 -200 45 -200 45
1149434072.3454 -1.5625554 -29.136549 -200 45 -200 45 -200 45
1150434189.0315 -1.5413346 -29.177197 -200 45 -200 45 -200 45
1151434305.7176 -1.5281179 -29.209164 -200 45 -200 45 -200 45
1152434422.4037 -1.5092576 -29.261415 -200 45 -200 45 -200 45
1153434539.0898 -1.4946072 -29.396782 -200 45 -200 45 -200 45
1154434655.776 -1.4886612 -29.505905 -200 45 -200 45 -200 45
1155434772.4621 -1.4869095 -29.62776 -200 45 -200 45 -200 45
1156434889.1482 -1.4836578 -29.703947 -200 45 -200 45 -200 45
1157435005.8343 -1.4798845 -29.790174 -200 45 -200 45 -200 45
1158435122.5204 -1.4803296 -29.862196 -200 45 -200 45 -200 45
1159435239.2065 -1.4814309 -29.916195 -200 45 -200 45 -200 45
1160435355.8926 -1.4788667 -29.968521 -200 45 -200 45 -200 45
1161435472.5788 -1.4753956 -30.02429 -200 45 -200 45 -200 45
1162435589.2649 -1.4698007 -30.076445 -200 45 -200 45 -200 45
1163435705.951 -1.4706346 -30.1127 -200 45 -200 45 -200 45
1164435822.6371 -1.4713141 -30.163052 -200 45 -200 45 -200 45
1165435939.3232 -1.4686847 -30.179201 -200 45 -200 45 -200 45
1166436056.0093 -1.4684092 -30.230759 -200 45 -200 45 -200 45
1167436172.6954 -1.4704896 -30.262571 -200 45 -200 45 -200 45
1168436289.3816 -1.4701711 -30.294222 -200 45 -200 45 -200 45
1169436406.0677 -1.4707435 -30.325077 -200 45 -200 45 -200 45
1170436522.7538 -1.4736443 -30.347422 -200 45 -200 45 -200 45
1171436639.4399 -1.4749019 -30.371895 -200 45 -200 45 -200 45
1172436756.126 -1.4735886 -30.373722 -200 45 -200 45 -200 45
1173436872.8121 -1.4719291 -30.404728 -200 45 -200 45 -200 45
1174436989.4982 -1.4701715 -30.410847 -200 45 -200 45 -200 45
1175437106.1844 -1.4701523 -30.426605 -200 45 -200 45 -200 45
1176437222.8705 -1.4686905 -30.438824 -200 45 -200 45 -200 45
1177437339.5566 -1.4674673 -30.446886 -200 45 -200 45 -200 45
1178437456.2427 -1.4642718 -30.443295 -200 45 -200 45 -200 45
1179437572.9288 -1.4646262 -30.451473 -200 45 -200 45 -200 45
1180437689.6149 -1.4651873 -30.463301 -200 45 -200 45 -200 45
1181437806.3011 -1.4670107 -30.463249 -200 45 -200 45 -200 45
1182437922.9872 -1.4680291 -30.465773 -200 45 -200 45 -200 45
1183438039.6733 -1.4685729 -30.454756 -200 45 -200 45 -200 45
1184438156.3594 -1.4724149 -30.47139 -200 45 -200 45 -200 45
1185438273.0455 -1.4715873 -30.455654 -200 45 -200 45 -200 45
1186438389.7316 -1.4772601 -30.463652 -200 45 -200 45 -200 45
1187438506.4177 -1.480235 -30.449591 -200 45 -200 45 -200 45
1188438623.1039 -1.4791054 -30.464556 -200 45 -200 45 -200 45
1189438739.79 -1.4829082 -30.45607 -200 45 -200 45 -200 45
1190438856.4761 -1.4854016 -30.462654 -200 45 -200 45 -200 45
1191438973.1622 -1.4923579 -30.450626 -200 45 -200 45 -200 45
1192439089.8483 -1.4974936 -30.429869 -200 45 -200 45 -200 45
1193439206.5344 -1.5000491 -30.375118 -200 45 -200 45 -200 45
1194439323.2205 -1.4954652 -30.343697 -200 45 -200 45 -200 45
1195439439.9067 -1.4938762 -30.332403 -200 45 -200 45 -200 45
1196439556.5928 -1.4946734 -30.330711 -200 45 -200 45 -200 45
1197439673.2789 -1.4949911 -30.319408 -200 45 -200 45 -200 45
1198439789.965 -1.4966612 -30.329863 -200 45 -200 45 -200 45
1199439906.6511 -1.4980615 -30.311865 -200 45 -200 45 -200 45
1200440023.3372 -1.5004869 -30.321703 -200 45 -200 45 -200 45
1201440140.0233 -1.5039934 -30.336124 -200 45 -200 45 -200 45
1202440256.7095 -1.5058614 -30.337929 -200 45 -200 45 -200 45
1203440373.3956 -1.5087219 -30.353344 -200 45 -200 45 -200 45
1204440490.0817 -1.5140176 -30.371782 -200 45 -200 45 -200 45
1205440606.7678 -1.517662 -30.383619 -200 45 -200 45 -200 45
1206440723.4539 -1.5195066 -30.39744 -200 45 -200 45 -200 45
1207440840.14 -1.5233492 -30.413599 -200 45 -200 45 -200 45
1208440956.8261 -1.526637 -30.426023 -200 45 -200 45 -200 45
1209441073.5123 -1.5308735 -30.437229 -200 45 -200 45 -200 45
1210441190.1984 -1.5295347 -30.470499 -200 45 -200 45 -200 45
1211441306.8845 -1.5309148 -30.475601 -200 45 -200 45 -200 45
1212441423.5706 -1.5349635 -30.503332 -200 45 -200 45 -200 45
1213441540.2567 -1.5376308 -30.519861 -200 45 -200 45 -200 45
1214441656.9428 -1.5396916 -30.550467 -200 45 -200 45 -200 45
1215441773.6289 -1.5414181 -30.587568 -200 45 -200 45 -200 45
1216441890.3151 -1.5450457 -30.61928 -200 45 -200 45 -200 45
1217442007.0012 -1.5488921 -30.650949 -200 45 -200 45 -200 45
1218442123.6873 -1.5527444 -30.700542 -200 45 -200 45 -200 45
1219442240.3734 -1.5593379 -30.722321 -200 45 -200 45 -200 45
1220442357.0595 -1.560958 -30.772345 -200 45 -200 45 -200 45
1221442473.7456 -1.5616519 -30.797176 -200 45 -200 45 -200 45
1222442590.4317 -1.5652913 -30.846886 -200 45 -200 45 -200 45
1223442707.1179 -1.5661823 -30.886208 -200 45 -200 45 -200 45
1224442823.804 -1.5687504 -30.951092 -200 45 -200 45 -200 45
1225442940.4901 -1.571822 -30.999186 -200 45 -200 45 -200 45
1226443057.1762 -1.5686775 -31.034262 -200 45 -200 45 -200 45
1227443173.8623 -1.5674355 -31.079775 -200 45 -200 45 -200 45
1228443290.5484 -1.5710464 -31.123308 -200 45 -200 45 -200 45
1229443407.2345 -1.5712006 -31.168663 -200 45 -200 45 -200 45
1230443523.9207 -1.5724485 -31.20611 -200 45 -200 45 -200 45
1231443640.6068 -1.5741097 -31.276779 -200 45 -200 45 -200 45
1232443757.2929 -1.5741628 -31.318186 -200 45 -200 45 -200 45
1233443873.979 -1.5778973 -31.359715 -200 45 -200 45 -200 45
1234443990.6651 -1.5789235 -31.424561 -200 45 -200 45 -200 45
1235444107.3512 -1.5848047 -31.477869 -200 45 -200 45 -200 45
1236444224.0373 -1.5836761 -31.49733 -200 45 -200 45 -200 45
1237444340.7235 -1.5829962 -31.571918 -200 45 -200 45 -200 45
1238444457.4096 -1.5840545 -31.604471 -200 45 -200 45 -200 45
1239444574.0957 -1.581496 -31.646053 -200 45 -200 45 -200 45
1240444690.7818 -1.5833876 -31.693403 -200 45 -200 45 -200 45
1241444807.4679 -1.5850914 -31.743534 -200 45 -200 45 -200 45
1242444924.154 -1.5810937 -31.78952 -200 45 -200 45 -200 45
1243445040.8401 -1.5766177 -31.810139 -200 45 -200 45 -200 45
1244445157.5263 -1.5770408 -31.849405 -200 45 -200 45 -200 45
1245445274.2124 -1.5802772 -31.899256 -200 45 -200 45 -200 45
1246445390.8985 -1.5764509 -31.931705 -200 45 -200 45 -200 45
1247445507.5846 -1.5758027 -31.961313 -200 45 -200 45 -200 45
1248445624.2707 -1.5756208 -32.006905 -200 45 -200 45 -200 45
1249445740.9568 -1.5757492 -32.033176 -200 45 -200 45 -200 45
1250445857.6429 -1.5774983 -32.058044 -200 45 -200 45 -200 45
1251445974.3291 -1.5785656 -32.087173 -200 45 -200 45 -200 45
1252446091.0152 -1.5798742 -32.10323 -200 45 -200 45 -200 45
1253446207.7013 -1.5771681 -32.127224 -200 45 -200 45 -200 45
1254446324.3874 -1.5764923 -32.150551 -200 45 -200 45 -200 45
1255446441.0735 -1.5759144 -32.159153 -200 45 -200 45 -200 45
1256446557.7596 -1.5754373 -32.189713 -200 45 -200 45 -200 45
1257446674.4457 -1.5748767 -32.188072 -200 45 -200 45 -200 45
1258446791.1319 -1.572449 -32.214199 -200 45 -200 45 -200 45
1259446907.818 -1.5701845 -32.207394 -200 45 -200 45 -200 45
1260447024.5041 -1.5701685 -32.232731 -200 45 -200 45 -200 45
1261447141.1902 -1.5715162 -32.229877 -200 45 -200 45 -200 45
1262447257.8763 -1.5692953 -32.237453 -200 45 -200 45 -200 45
1263447374.5624 -1.5721184 -32.243114 -200 45 -200 45 -200 45
1264447491.2485 -1.5712924 -32.234043 -200 45 -200 45 -200 45
1265447607.9347 -1.5743288 -32.244915 -200 45 -200 45 -200 45
1266447724.6208 -1.5736058 -32.241001 -200 45 -200 45 -200 45
1267447841.3069 -1.5786434 -32.239315 -200 45 -200 45 -200 45
1268447957.993 -1.5788687 -32.230072 -200 45 -200 45 -200 45
1269448074.6791 -1.5803233 -32.220837 -200 45 -200 45 -200 45
1270448191.3652 -1.5798752 -32.221287 -200 45 -200 45 -200 45
1271448308.0513 -1.5816737 -32.201805 -200 45 -200 45 -200 45
1272448424.7375 -1.5839278 -32.19408 -200 45 -200 45 -200 45
1273448541.4236 -1.5841466 -32.197697 -200 45 -200 45 -200 45
1274448658.1097 -1.585245 -32.20715 -200 45 -200 45 -200 45
1275448774.7958 -1.5814368 -32.178196 -200 45 -200 45 -200 45
1276448891.4819 -1.5849203 -32.174809 -200 45 -200 45 -200 45
1277449008.168 -1.5880091 -32.166153 -200 45 -200 45 -200 45
1278449124.8541 -1.5887923 -32.156601 -200 45 -200 45 -200 45
1279449241.5403 -1.5928726 -32.146538 -200 45 -200 45 -200 45
1280449358.2264 -1.594301 -32.155834 -200 45 -200 45 -200 45
1281449474.9125 -1.5992935 -32.143898 -200 45 -200 45 -200 45
1282449591.5986 -1.600975 -32.127167 -200 45 -200 45 -200 45
1283449708.2847 -1.6050278 -32.138443 -200 45 -200 45 -200 45
1284449824.9708 -1.6105454 -32.129433 -200 45 -200 45 -200 45
1285449941.6569 -1.6123199 -32.120068 -200 45 -200 45 -200 45
1286450058.3431 -1.6144434 -32.127796 -200 45 -200 45 -200 45
1287450175.0292 -1.61684 -32.133995 -200 45 -200 45 -200 45
1288450291.7153 -1.6229492 -32.130478 -200 45 -200 45 -200 45
1289450408.4014 -1.6240026 -32.137722 -200 45 -200 45 -200 45
1290450525.0875 -1.6260694 -32.143208 -200 45 -200 45 -200 45
1291450641.7736 -1.6270682 -32.166939 -200 45 -200 45 -200 45
1292450758.4597 -1.6284193 -32.179081 -200 45 -200 45 -200 45
1293450875.1459 -1.6335002 -32.186584 -200 45 -200 45 -200 45
1294450991.832 -1.6376344 -32.209694 -200 45 -200 45 -200 45
1295451108.5181 -1.6391509 -32.210518 -200 45 -200 45 -200 45
1296451225.2042 -1.6438025 -32.24155 -200 45 -200 45 -200 45
1297451341.8903 -1.6452575 -32.265755 -200 45 -200 45 -200 45
1298451458.5764 -1.6492406 -32.269485 -200 45 -200 45 -200 45
1299451575.2625 -1.6560311 -32.320698 -200 45 -200 45 -200 45
1300451691.9487 -1.660984 -32.326225 -200 45 -200 45 -200 45
1301451808.6348 -1.661496 -32.370564 -200 45 -200 45 -200 45
1302451925.3209 -1.6616668 -32.396881 -200 45 -200 45 -200 45
1303452042.007 -1.6654962 -32.449303 -200 45 -200 45 -200 45
1304452158.6931 -1.6715481 -32.477432 -200 45 -200 45 -200 45
1305452275.3792 -1.6718801 -32.51408 -200 45 -200 45 -200 45
1306452392.0653 -1.6730242 -32.540165 -200 45 -200 45 -200 45
1307452508.7515 -1.6711948 -32.596386 -200 45 -200 45 -200 45
1308452625.4376 -1.6734329 -32.630363 -200 45 -200 45 -200 45
1309452742.1237 -1.6745518 -32.661285 -200 45 -200 45 -200 45
1310452858.8098 -1.6766962 -32.7192 -200 45 -200 45 -200 45
1311452975.4959 -1.6789849 -32.738235 -200 45 -200 45 -200 45
1312453092.182 -1.6805477 -32.816795 -200 45 -200 45 -200 45
1313453208.8681 -1.6823838 -32.854427 -200 45 -200 45 -200 45
1314453325.5543 -1.68493 -32.903824 -200 45 -200 45 -200 45
1315453442.2404 -1.6901368 -32.955082 -200 45 -200 45 -200 45
1316453558.9265 -1.6894423 -32.994762 -200 45 -200 45 -200 45
1317453675.6126 -1.6889687 -33.035221 -200 45 -200 45 -200 45
1318453792.2987 -1.6905757 -33.076969 -200 45 -200 45 -200 45
1319453908.9848 -1.6902533 -33.142933 -200 45 -200 45 -200 45
1320454025.6709 -1.6925418 -33.173401 -200 45 -200 45 -200 45
1321454142.3571 -1.6920602 -33.224957 -200 45 -200 45 -200 45
1322454259.0432 -1.691383 -33.275616 -200 45 -200 45 -200 45
1323454375.7293 -1.6880331 -33.309834 -200 45 -200 45 -200 45
1324454492.4154 -1.6857679 -33.361702 -200 45 -200 45 -200 45
1325454609.1015 -1.6858114 -33.398197 -200 45 -200 45 -200 45
1326454725.7876 -1.6865603 -33.44297 -200 45 -200 45 -200 45
1327454842.4737 -1.6855718 -33.484463 -200 45 -200 45 -200 45
1328454959.1599 -1.6857458 -33.52256 -200 45 -200 45 -200 45
1329455075.846 -1.6895882 -33.55405 -200 45 -200 45 -200 45
1330455192.5321 -1.6868317 -33.586777 -200 45 -200 45 -200 45
1331455309.2182 -1.6888694 -33.630932 -200 45 -200 45 -200 45
1332455425.9043 -1.689123 -33.656002 -200 45 -200 45 -200 45
1333455542.5904 -1.686968 -33.683266 -200 45 -200 45 -200 45
1334455659.2765 -1.6859126 -33.710865 -200 45 -200 45 -200 45
1335455775.9627 -1.6860988 -33.750488 -200 45 -200 45 -200 45
1336455892.6488 -1.686332 -33.770557 -200 45 -200 45 -200 45
1337456009.3349 -1.6863656 -33.7934 -200 45 -200 45 -200 45
1338456126.021 -1.6850193 -33.80711 -200 45 -200 45 -200 45
1339456242.7071 -1.6798826 -33.835037 -200 45 -200 45 -200 45
1340456359.3932 -1.6796989 -33.846195 -200 45 -200 45 -200 45
1341456476.0793 -1.6778415 -33.856564 -200 45 -200 45 -200 45
1342456592.7655 -1.6782933 -33.867378 -200 45 -200 45 -200 45
1343456709.4516 -1.6785597 -33.880554 -200 45 -200 45 -200 45
1344456826.1377 -1.67917 -33.893608 -200 45 -200 45 -200 45
1345456942.8238 -1.6775908 -33.895088 -200 45 -200 45 -200 45
1346457059.5099 -1.680279 -33.906055 -200 45 -200 45 -200 45
1347457176.196 -1.6813532 -33.907883 -200 45 -200 45 -200 45
1348457292.8821 -1.6838754 -33.915981 -200 45 -200 45 -200 45
1349457409.5683 -1.6851276 -33.907249 -200 45 -200 45 -200 45
1350457526.2544 -1.6835085 -33.905315 -200 45 -200 45 -200 45
1351457642.9405 -1.682282 -33.901878 -200 45 -200 45 -200 45
1352457759.6266 -1.6849582 -33.907616 -200 45 -200 45 -200 45
1353457876.3127 -1.6866844 -33.892197 -200 45 -200 45 -200 45
1354457992.9988 -1.6871524 -33.898945 -200 45 -200 45 -200 45
1355458109.6849 -1.6837405 -33.894596 -200 45 -200 45 -200 45
1356458226.3711 -1.6843245 -33.891857 -200 45 -200 45 -200 45
1357458343.0572 -1.6855558 -33.868958 -200 45 -200 45 -200 45
1358458459.7433 -1.6882836 -33.871475 -200 45 -200 45 -200 45
1359458576.4294 -1.688205 -33.865112 -200 45 -200 45 -200 45
1360458693.1155 -1.688669 -33.852779 -200 45 -200 45 -200 45
1361458809.8016 -1.69504 -33.852814 -200 45 -200 45 -200 45
1362458926.4877 -1.696694 -33.826061 -200 45 -200 45 -200 45
1363459043.1739 -1.7010814 -33.825962 -200 45 -200 45 -200 45
1364459159.86 -1.7043142 -33.818287 -200 45 -200 45 -200 45
1365459276.5461 -1.7072449 -33.823318 -200 45 -200 45 -200 45
1366459393.2322 -1.7106642 -33.811569 -200 45 -200 45 -200 45
1367459509.9183 -1.7109014 -33.805752 -200 45 -200 45 -200 45
1368459626.6044 -1.7163926 -33.79998 -200 45 -200 45 -200 45
1369459743.2905 -1.7194003 -33.802551 -200 45 -200 45 -200 45
1370459859.9767 -1.7195145 -33.81472 -200 45 -200 45 -200 45
1371459976.6628 -1.7211198 -33.80611 -200 45 -200 45 -200 45
1372460093.3489 -1.7234432 -33.810833 -200 45 -200 45 -200 45
1373460210.035 -1.7270097 -33.812096 -200 45 -200 45 -200 45
1374460326.7211 -1.7302734 -33.817738 -200 45 -200 45 -200 45
1375460443.4072 -1.731028 -33.821884 -200 45 -200 45 -200 45
1376460560.0933 -1.7370926 -33.823669 -200 45 -200 45 -200 45
1377460676.7795 -1.7388651 -33.847237 -200 45 -200 45 -200 45
1378460793.4656 -1.7461759 -33.862164 -200 45 -200 45 -200 45
1379460910.1517 -1.7491268 -33.885746 -200 45 -200 45 -200 45
1380461026.8378 -1.7548206 -33.884636 -200 45 -200 45 -200 45
1381461143.5239 -1.757202 -33.91568 -200 45 -200 45 -200 45
1382461260.21 -1.759415 -33.927189 -200 45 -200 45 -200 45
1383461376.8961 -1.7628469 -33.942009 -200 45 -200 45 -200 45
1384461493.5823 -1.7660203 -33.971977 -200 45 -200 45 -200 45
1385461610.2684 -1.7712405 -34.00547 -200 45 -200 45 -200 45
1386461726.9545 -1.7710319 -34.026367 -200 45 -200 45 -200 45
1387461843.6406 -1.7707866 -34.076393 -200 45 -200 45 -200 45
1388461960.3267 -1.7713898 -34.10181 -200 45 -200 45 -200 45
1389462077.0128 -1.7752274 -34.130859 -200 45 -200 45 -200 45
1390462193.6989 -1.7773998 -34.183201 -200 45 -200 45 -200 45
1391462310.3851 -1.7768646 -34.205986 -200 45 -200 45 -200 45
1392462427.0712 -1.7846906 -34.231113 -200 45 -200 45 -200 45
1393462543.7573 -1.7839645 -34.276871 -200 45 -200 45 -200 45
1394462660.4434 -1.7868787 -34.326969 -200 45 -200 45 -200 45
1395462777.1295 -1.7888131 -34.367096 -200 45 -200 45 -200 45
1396462893.8156 -1.7927012 -34.40485 -200 45 -200 45 -200 45
1397463010.5018 -1.7966877 -34.442806 -200 45 -200 45 -200 45
1398463127.1879 -1.7977108 -34.501926 -200 45 -200 45 -200 45
1399463243.874 -1.7975765 -34.532681 -200 45 -200 45 -200 45
1400463360.5601 -1.7971011 -34.599323 -200 45 -200 45 -200 45
1401463477.2462 -1.7985293 -34.642338 -200 45 -200 45 -200 45
1402463593.9323 -1.7991227 -34.688034 -200 45 -200 45 -200 45
1403463710.6184 -1.7981654 -34.733673 -200 45 -200 45 -200 45
1404463827.3046 -1.7966391 -34.764256 -200 45 -200 45 -200 45
1405463943.9907 -1.796849 -34.813934 -200 45 -200 45 -200 45
1406464060.6768 -1.7978678 -34.857613 -200 45 -200 45 -200 45
1407464177.3629 -1.7984232 -34.910286 -200 45 -200 45 -200 45
1408464294.049 -1.7977402 -34.959423 -200 45 -200 45 -200 45
1409464410.7351 -1.7963045 -34.99482 -200 45 -200 45 -200 45
1410464527.4212 -1.7993559 -35.047268 -200 45 -200 45 -200 45
1411464644.1074 -1.8003843 -35.082378 -200 45 -200 45 -200 45
1412464760.7935 -1.8033659 -35.111774 -200 45 -200 45 -200 45
1413464877.4796 -1.8009415 -35.15472 -200 45 -200 45 -200 45
1414464994.1657 -1.8015152 -35.195202 -200 45 -200 45 -200 45
1415465110.8518 -1.7993828 -35.243988 -200 45 -200 45 -200 45
1416465227.5379 -1.7982657 -35.265759 -200 45 -200 45 -200 45
1417465344.224 -1.799824 -35.298611 -200 45 -200 45 -200 45
1418465460.9102 -1.7963694 -35.322868 -200 45 -200 45 -200 45
1419465577.5963 -1.793869 -35.342148 -200 45 -200 45 -200 45
1420465694.2824 -1.7905424 -35.374287 -200 45 -200 45 -200 45
1421465810.9685 -1.7883079 -35.390091 -200 45 -200 45 -200 45
1422465927.6546 -1.7890617 -35.415054 -200 45 -200 45 -200 45
1423466044.3407 -1.787919 -35.442081 -200 45 -200 45 -200 45
1424466161.0268 -1.7881113 -35.458466 -200 45 -200 45 -200 45
1425466277.713 -1.7879734 -35.474762 -200 45 -200 45 -200 45
1426466394.3991 -1.7898645 -35.489037 -200 45 -200 45 -200 45
1427466511.0852 -1.7874514 -35.50214 -200 45 -200 45 -200 45
1428466627.7713 -1.792284 -35.52314 -200 45 -200 45 -200 45
1429466744.4574 -1.7917885 -35.531208 -200 45 -200 45 -200 45
1430466861.1435 -1.7908833 -35.526585 -200 45 -200 45 -200 45
1431466977.8296 -1.7872432 -35.535759 -200 45 -200 45 -200 45
1432467094.5158 -1.7893966 -35.539753 -200 45 -200 45 -200 45
1433467211.2019 -1.7925234 -35.541695 -200 45 -200 45 -200 45
1434467327.888 -1.7890625 -35.537533 -200 45 -200 45 -200 45
1435467444.5741 -1.7890328 -35.543541 -200 45 -200 45 -200 45
1436467561.2602 -1.7848399 -35.541897 -200 45 -200 45 -200 45
1437467677.9463 -1.7868955 -35.535622 -200 45 -200 45 -200 45
1438467794.6324 -1.7872983 -35.537605 -200 45 -200 45 -200 45
1439467911.3186 -1.7874385 -35.529709 -200 45 -200 45 -200 45
1440468028.0047 -1.7888151 -35.522999 -200 45 -200 45 -200 45
1441468144.6908 -1.7895201 -35.507065 -200 45 -200 45 -200 45
1442468261.3769 -1.7935388 -35.488083 -200 45 -200 45 -200 45
1443468378.063 -1.7939657 -35.508625 -200 45 -200 45 -200 45
1444468494.7491 -1.7982575 -35.486034 -200 45 -200 45 -200 45
1445468611.4352 -1.8006029 -35.481514 -200 45 -200 45 -200 45
1446468728.1214 -1.80372 -35.47179 -200 45 -200 45 -200 45
1447468844.8075 -1.8046495 -35.468739 -200 45 -200 45 -200 45
1448468961.4936 -1.8058946 -35.456482 -200 45 -200 45 -200 45
1449469078.1797 -1.8101908 -35.457291 -200 45 -200 45 -200 45
1450469194.8658 -1.8111416 -35.450039 -200 45 -200 45 -200 45
1451469311.5519 -1.8106358 -35.447899 -200 45 -200 45 -200 45
1452469428.238 -1.8121549 -35.446789 -200 45 -200 45 -200 45
1453469544.9242 -1.8145738 -35.426311 -200 45 -200 45 -200 45
1454469661.6103 -1.8155681 -35.432198 -200 45 -200 45 -200 45
1455469778.2964 -1.8208257 -35.431362 -200 45 -200 45 -200 45
1456469894.9825 -1.8239968 -35.447239 -200 45 -200 45 -200 45
1457470011.6686 -1.8263991 -35.42334 -200 45 -200 45 -200 45
1458470128.3547 -1.8308195 -35.442856 -200 45 -200 45 -200 45
1459470245.0408 -1.8344686 -35.445175 -200 45 -200 45 -200 45
1460470361.727 -1.8406831 -35.448383 -200 45 -200 45 -200 45
1461470478.4131 -1.8452091 -35.454586 -200 45 -200 45 -200 45
1462470595.0992 -1.8462397 -35.479046 -200 45 -200 45 -200 45
1463470711.7853 -1.8496672 -35.479343 -200 45 -200 45 -200 45
1464470828.4714 -1.8523717 -35.484867 -200 45 -200 45 -200 45
1465470945.1575 -1.858116 -35.486786 -200 45 -200 45 -200 45
1466471061.8436 -1.8602592 -35.51807 -200 45 -200 45 -200 45
1467471178.5298 -1.8637156 -35.541481 -200 45 -200 45 -200 45
1468471295.2159 -1.8642031 -35.560265 -200 45 -200 45 -200 45
1469471411.902 -1.8657347 -35.584785 -200 45 -200 45 -200 45
1470471528.5881 -1.8696154 -35.602943 -200 45 -200 45 -200 45
1471471645.2742 -1.8706436 -35.639763 -200 45 -200 45 -200 45
1472471761.9603 -1.8750215 -35.673244 -200 45 -200 45 -200 45
1473471878.6464 -1.8781031 -35.703426 -200 45 -200 45 -200 45
1474471995.3326 -1.8798161 -35.727375 -200 45 -200 45 -200 45
1475472112.0187 -1.885892 -35.759075 -200 45 -200 45 -200 45
1476472228.7048 -1.887345 -35.803841 -200 45 -200 45 -200 45
1477472345.3909 -1.8908571 -35.836346 -200 45 -200 45 -200 45
1478472462.077 -1.8918598 -35.862232 -200 45 -200 45 -200 45
1479472578.7631 -1.8950664 -35.916733 -200 45 -200 45 -200 45
1480472695.4492 -1.8978558 -35.951431 -200 45 -200 45 -200 45
1481472812.1354 -1.9000503 -36.00893 -200 45 -200 45 -200 45
1482472928.8215 -1.9026816 -36.052803 -200 45 -200 45 -200 45
1483473045.5076 -1.9034199 -36.089775 -200 45 -200 45 -200 45
1484473162.1937 -1.8979203 -36.135876 -200 45 -200 45 -200 45
1485473278.8798 -1.9004476 -36.182484 -200 45 -200 45 -200 45
1486473395.5659 -1.8992646 -36.224213 -200 45 -200 45 -200 45
1487473512.252 -1.901643 -36.286758 -200 45 -200 45 -200 45
1488473628.9382 -1.9029223 -36.330738 -200 45 -200 45 -200 45
1489473745.6243 -1.9030764 -36.390919 -200 45 -200 45 -200 45
1490473862.3104 -1.9042999 -36.41972 -200 45 -200 45 -200 45
1491473978.9965 -1.9049656 -36.467728 -200 45 -200 45 -200 45
1492474095.6826 -1.9074494 -36.517532 -200 45 -200 45 -200 45
1493474212.3687 -1.9102829 -36.572979 -200 45 -200 45 -200 45
1494474329.0548 -1.910381 -36.585789 -200 45 -200 45 -200 45
1495474445.741 -1.9102508 -36.658875 -200 45 -200 45 -200 45
1496474562.4271 -1.9092393 -36.690655 -200 45 -200 45 -200 45
1497474679.1132 -1.9078357 -36.735252 -200 45 -200 45 -200 45
1498474795.7993 -1.90848 -36.761433 -200 45 -200 45 -200 45
1499474912.4854 -1.9083173 -36.805023 -200 45 -200 45 -200 45
1500475029.1715 -1.9020004 -36.852688 -200 45 -200 45 -200 45
1501475145.8576 -1.9033327 -36.885406 -200 45 -200 45 -200 45
1502475262.5438 -1.8997103 -36.925545 -200 45 -200 45 -200 45
1503475379.2299 -1.9025276 -36.947735 -200 45 -200 45 -200 45
1504475495.916 -1.8996233 -36.975697 -200 45 -200 45 -200 45
1505475612.6021 -1.8994201 -37.011566 -200 45 -200 45 -200 45
1506475729.2882 -1.9006625 -37.036453 -200 45 -200 45 -200 45
1507475845.9743 -1.8986826 -37.056427 -200 45 -200 45 -200 45
1508475962.6604 -1.9007772 -37.075695 -200 45 -200 45 -200 45
1509476079.3466 -1.9005451 -37.110947 -200 45 -200 45 -200 45
1510476196.0327 -1.901822 -37.119171 -200 45 -200 45 -200 45
1511476312.7188 -1.8986933 -37.131275 -200 45 -200 45 -200 45
1512476429.4049 -1.8988256 -37.164497 -200 45 -200 45 -200 45
1513476546.091 -1.8991952 -37.158596 -200 45 -200 45 -200 45
1514476662.7771 -1.9008394 -37.16851 -200 45 -200 45 -200 45
1515476779.4632 -1.9003859 -37.180607 -200 45 -200 45 -200 45
1516476896.1494 -1.895704 -37.186565 -200 45 -200 45 -200 45
1517477012.8355 -1.894585 -37.195538 -200 45 -200 45 -200 45
1518477129.5216 -1.8943115 -37.186348 -200 45 -200 45 -200 45
1519477246.2077 -1.8944325 -37.20187 -200 45 -200 45 -200 45
1520477362.8938 -1.8956214 -37.18956 -200 45 -200 45 -200 45
1521477479.5799 -1.8959727 -37.163723 -200 45 -200 45 -200 45
1522477596.266 -1.8959848 -37.161289 -200 45 -200 45 -200 45
1523477712.9522 -1.8983319 -37.172073 -200 45 -200 45 -200 45
1524477829.6383 -1.900924 -37.151901 -200 45 -200 45 -200 45
1525477946.3244 -1.9049544 -37.142696 -200 45 -200 45 -200 45
1526478063.0105 -1.9059925 -37.13623 -200 45 -200 45 -200 45
1527478179.6966 -1.9068217 -37.116745 -200 45 -200 45 -200 45
1528478296.3827 -1.9079024 -37.122841 -200 45 -200 45 -200 45
1529478413.0688 -1.911397 -37.096874 -200 45 -200 45 -200 45
1530478529.755 -1.9120708 -37.100117 -200 45 -200 45 -200 45
1531478646.4411 -1.9132397 -37.084999 -200 45 -200 45 -200 45
1532478763.1272 -1.9150296 -37.088806 -200 45 -200 45 -200 45
1533478879.8133 -1.9114569 -37.062809 -200 45 -200 45 -200 45
1534478996.4994 -1.9162126 -37.063526 -200 45 -200 45 -200 45
1535479113.1855 -1.9183222 -37.05154 -200 45 -200 45 -200 45
1536479229.8716 -1.9219288 -37.034531 -200 45 -200 45 -200 45
1537479346.5578 -1.921959 -37.034042 -200 45 -200 45 -200 45
1538479463.2439 -1.926953 -37.037045 -200 45 -200 45 -200 45
1539479579.93 -1.930286 -37.028584 -200 45 -200 45 -200 45
1540479696.6161 -1.933916 -37.013916 -200 45 -200 45 -200 45
1541479813.3022 -1.9396951 -37.020916 -200 45 -200 45 -200 45
1542479929.9883 -1.9413475 -37.011719 -200 45 -200 45 -200 45
1543480046.6744 -1.9440416 -37.019176 -200 45 -200 45 -200 45
1544480163.3606 -1.9480312 -37.048096 -200 45 -200 45 -200 45
1545480280.0467 -1.9521624 -37.03775 -200 45 -200 45 -200 45
1546480396.7328 -1.9556928 -37.03347 -200 45 -200 45 -200 45
1547480513.4189 -1.9588562 -37.040592 -200 45 -200 45 -200 45
1548480630.105 -1.9578708 -37.042435 -200 45 -200 45 -200 45
1549480746.7911 -1.9626825 -37.068516 -200 45 -200 45 -200 45
1550480863.4772 -1.9626504 -37.081726 -200 45 -200 45 -200 45
1551480980.1634 -1.9676132 -37.082348 -200 45 -200 45 -200 45
1552481096.8495 -1.9718218 -37.110126 -200 45 -200 45 -200 45
1553481213.5356 -1.9728357 -37.11945 -200 45 -200 45 -200 45
1554481330.2217 -1.9768803 -37.142712 -200 45 -200 45 -200 45
1555481446.9078 -1.9830807 -37.166218 -200 45 -200 45 -200 45
1556481563.5939 -1.9843997 -37.195282 -200 45 -200 45 -200 45
1557481680.28 -1.9889785 -37.201195 -200 45 -200 45 -200 45
1558481796.9662 -1.9946295 -37.255054 -200 45 -200 45 -200 45
1559481913.6523 -1.9952655 -37.300949 -200 45 -200 45 -200 45
1560482030.3384 -2.0001466 -37.307407 -200 45 -200 45 -200 45
1561482147.0245 -2.0023201 -37.335304 -200 45 -200 45 -200 45
1562482263.7106 -2.0040913 -37.383495 -200 45 -200 45 -200 45
1563482380.3967 -2.0076284 -37.439072 -200 45 -200 45 -200 45
1564482497.0828 -2.0046005 -37.466526 -200 45 -200 45 -200 45
1565482613.769 -2.0068061 -37.515911 -200 45 -200 45 -200 45
1566482730.4551 -2.0050552 -37.556744 -200 45 -200 45 -200 45
1567482847.1412 -2.0102932 -37.609135 -200 45 -200 45 -200 45
1568482963.8273 -2.0124171 -37.654327 -200 45 -200 45 -200 45
1569483080.5134 -2.0127149 -37.70118 -200 45 -200 45 -200 45
1570483197.1995 -2.012722 -37.729828 -200 45 -200 45 -200 45
1571483313.8856 -2.0154212 -37.789249 -200 45 -200 45 -200 45
1572483430.5718 -2.0182831 -37.843437 -200 45 -200 45 -200 45
1573483547.2579 -2.0217123 -37.872108 -200 45 -200 45 -200 45
1574483663.944 -2.0240149 -37.921394 -200 45 -200 45 -200 45
1575483780.6301 -2.0210977 -37.968967 -200 45 -200 45 -200 45
1576483897.3162 -2.0248146 -38.028286 -200 45 -200 45 -200 45
1577484014.0023 -2.023041 -38.075012 -200 45 -200 45 -200 45
1578484130.6884 -2.0241568 -38.092651 -200 45 -200 45 -200 45
1579484247.3746 -2.0217094 -38.159546 -200 45 -200 45 -200 45
1580484364.0607 -2.0216279 -38.21022 -200 45 -200 45 -200 45
1581484480.7468 -2.0198479 -38.232494 -200 45 -200 45 -200 45
1582484597.4329 -2.0188406 -38.291153 -200 45 -200 45 -200 45
1583484714.119 -2.0212989 -38.326294 -200 45 -200 45 -200 45
1584484830.8051 -2.0179887 -38.355621 -200 45 -200 45 -200 45
1585484947.4912 -2.0177085 -38.404228 -200 45 -200 45 -200 45
1586485064.1774 -2.0191908 -38.428921 -200 45 -200 45 -200 45
1587485180.8635 -2.0176401 -38.468647 -200 45 -200 45 -200 45
1588485297.5496 -2.0166957 -38.523075 -200 45 -200 45 -200 45
1589485414.2357 -2.0178251 -38.530407 -200 45 -200 45 -200 45
1590485530.9218 -2.0183408 -38.569435 -200 45 -200 45 -200 45
1591485647.6079 -2.0191605 -38.584724 -200 45 -200 45 -200 45
1592485764.294 -2.0181592 -38.593853 -200 45 -200 45 -200 45
1593485880.9802 -2.015933 -38.636192 -200 45 -200 45 -200 45
1594485997.6663 -2.0170782 -38.668209 -200 45 -200 45 -200 45
1595486114.3524 -2.0157402 -38.684742 -200 45 -200 45 -200 45
1596486231.0385 -2.0143816 -38.69474 -200 45 -200 45 -200 45
1597486347.7246 -2.0104504 -38.701744 -200 45 -200 45 -200 45
1598486464.4107 -2.0104322 -38.721256 -200 45 -200 45 -200 45
1599486581.0968 -2.010704 -38.727386 -200 45 -200 45 -200 45
1600486697.783 -2.0098789 -38.730137 -200 45 -200 45 -200 45
1601486814.4691 -2.0095773 -38.73431 -200 45 -200 45 -200 45
1602486931.1552 -2.0087092 -38.767548 -200 45 -200 45 -200 45
1603487047.8413 -2.008966 -38.743015 -200 45 -200 45 -200 45
1604487164.5274 -2.0119846 -38.738037 -200 45 -200 45 -200 45
1605487281.2135 -2.0110035 -38.741951 -200 45 -200 45 -200 45
1606487397.8997 -2.016454 -38.748112 -200 45 -200 45 -200 45
1607487514.5858 -2.0170243 -38.732704 -200 45 -200 45 -200 45
1608487631.2719 -2.0145147 -38.714169 -200 45 -200 45 -200 45
1609487747.958 -2.0166771 -38.71719 -200 45 -200 45 -200 45
1610487864.6441 -2.017318 -38.705807 -200 45 -200 45 -200 45
1611487981.3302 -2.0173459 -38.704605 -200 45 -200 45 -200 45
1612488098.0163 -2.018739 -38.682709 -200 45 -200 45 -200 45
1613488214.7025 -2.014508 -38.677071 -200 45 -200 45 -200 45
1614488331.3886 -2.0176797 -38.664818 -200 45 -200 45 -200 45
1615488448.0747 -2.018295 -38.639984 -200 45 -200 45 -200 45
1616488564.7608 -2.0234804 -38.637932 -200 45 -200 45 -200 45
1617488681.4469 -2.0225663 -38.630524 -200 45 -200 45 -200 45
1618488798.133 -2.0272155 -38.627007 -200 45 -200 45 -200 45
1619488914.8191 -2.0293233 -38.613186 -200 45 -200 45 -200 45
1620489031.5053 -2.0310066 -38.584225 -200 45 -200 45 -200 45
1621489148.1914 -2.0365357 -38.573711 -200 45 -200 45 -200 45
1622489264.8775 -2.0403318 -38.561192 -200 45 -200 45 -200 45
1623489381.5636 -2.0428429 -38.550316 -200 45 -200 45 -200 45
1624489498.2497 -2.044987 -38.542645 -200 45 -200 45 -200 45
1625489614.9358 -2.0481801 -38.53569 -200 45 -200 45 -200 45
1626489731.6219 -2.0494373 -38.553665 -200 45 -200 45 -200 45
1627489848.3081 -2.0553391 -38.537292 -200 45 -200 45 -200 45
1628489964.9942 -2.0559418 -38.52663 -200 45 -200 45 -200 45
1629490081.6803 -2.056056 -38.551571 -200 45 -200 45 -200 45
1630490198.3664 -2.0580089 -38.540462 -200 45 -200 45 -200 45
1631490315.0525 -2.0629153 -38.531063 -200 45 -200 45 -200 45
1632490431.7386 -2.0651472 -38.542034 -200 45 -200 45 -200 45
1633490548.4247 -2.0672703 -38.543823 -200 45 -200 45 -200 45
1634490665.1109 -2.0713811 -38.544277 -200 45 -200 45 -200 45
1635490781.797 -2.0789478 -38.566406 -200 45 -200 45 -200 45
1636490898.4831 -2.0815036 -38.553318 -200 45 -200 45 -200 45
1637491015.1692 -2.0860183 -38.599377 -200 45 -200 45 -200 45
1638491131.8553 -2.0895357 -38.605572 -200 45 -200 45 -200 45
1639491248.5414 -2.0934782 -38.636234 -200 45 -200 45 -200 45
1640491365.2275 -2.0965579 -38.64114 -200 45 -200 45 -200 45
1641491481.9137 -2.0988653 -38.672089 -200 45 -200 45 -200 45
1642491598.5998 -2.1028178 -38.716663 -200 45 -200 45 -200 45
1643491715.2859 -2.1047208 -38.722397 -200 45 -200 45 -200 45
1644491831.972 -2.107919 -38.755653 -200 45 -200 45 -200 45
1645491948.6581 -2.1062059 -38.790745 -200 45 -200 45 -200 45
1646492065.3442 -2.1085191 -38.818851 -200 45 -200 45 -200 45
1647492182.0303 -2.1111767 -38.853428 -200 45 -200 45 -200 45
1648492298.7165 -2.1129866 -38.894554 -200 45 -200 45 -200 45
1649492415.4026 -2.1155148 -38.915001 -200 45 -200 45 -200 45
1650492532.0887 -2.1177635 -38.974613 -200 45 -200 45 -200 45
1651492648.7748 -2.118928 -39.017048 -200 45 -200 45 -200 45
1652492765.4609 -2.1242402 -39.072262 -200 45 -200 45 -200 45
1653492882.147 -2.1264009 -39.119171 -200 45 -200 45 -200 45
1654492998.8331 -2.1272869 -39.15181 -200 45 -200 45 -200 45
1655493115.5193 -2.1285434 -39.194782 -200 45 -200 45 -200 45
1656493232.2054 -2.1318133 -39.241909 -200 45 -200 45 -200 45
1657493348.8915 -2.1308966 -39.295033 -200 45 -200 45 -200 45
1658493465.5776 -2.1326995 -39.340874 -200 45 -200 45 -200 45
1659493582.2637 -2.1338615 -39.383003 -200 45 -200 45 -200 45
1660493698.9498 -2.1338179 -39.434803 -200 45 -200 45 -200 45
1661493815.6359 -2.1312933 -39.499321 -200 45 -200 45 -200 45
1662493932.3221 -2.129226 -39.550026 -200 45 -200 45 -200 45
1663494049.0082 -2.1264884 -39.576843 -200 45 -200 45 -200 45
1664494165.6943 -2.1298633 -39.637939 -200 45 -200 45 -200 45
1665494282.3804 -2.1294115 -39.666088 -200 45 -200 45 -200 45
1666494399.0665 -2.1296046 -39.733944 -200 45 -200 45 -200 45
1667494515.7526 -2.1307783 -39.751976 -200 45 -200 45 -200 45
1668494632.4387 -2.1300325 -39.810299 -200 45 -200 45 -200 45
1669494749.1249 -2.1296587 -39.849773 -200 45 -200 45 -200 45
1670494865.811 -2.1326187 -39.891674 -200 45 -200 45 -200 45
1671494982.4971 -2.1318955 -39.932556 -200 45 -200 45 -200 45
1672495099.1832 -2.1305549 -39.965847 -200 45 -200 45 -200 45
1673495215.8693 -2.1297214 -40.016926 -200 45 -200 45 -200 45
1674495332.5554 -2.1275077 -40.030533 -200 45 -200 45 -200 45
1675495449.2415 -2.1301613 -40.070362 -200 45 -200 45 -200 45
1676495565.9277 -2.1301246 -40.098202 -200 45 -200 45 -200 45
1677495682.6138 -2.1244366 -40.11763 -200 45 -200 45 -200 45
1678495799.2999 -2.1201842 -40.148685 -200 45 -200 45 -200 45
1679495915.986 -2.1198437 -40.167507 -200 45 -200 45 -200 45
1680496032.6721 -2.1210814 -40.187016 -200 45 -200 45 -200 45
1681496149.3582 -2.1171257 -40.204144 -200 45 -200 45 -200 45
1682496266.0443 -2.119014 -40.200768 -200 45 -200 45 -200 45
1683496382.7305 -2.1170628 -40.230103 -200 45 -200 45 -200 45
1684496499.4166 -2.1183958 -40.225224 -200 45 -200 45 -200 45
1685496616.1027 -2.1187091 -40.227757 -200 45 -200 45 -200 45
1686496732.7888 -2.1211245 -40.242794 -200 45 -200 45 -200 45
1687496849.4749 -2.122015 -40.246853 -200 45 -200 45 -200 45
1688496966.161 -2.1184494 -40.252224 -200 45 -200 45 -200 45
1689497082.8471 -2.1192231 -40.248734 -200 45 -200 45 -200 45
1690497199.5333 -2.1204276 -40.243149 -200 45 -200 45 -200 45
1691497316.2194 -2.1219931 -40.240021 -200 45 -200 45 -200 45
1692497432.9055 -2.1202714 -40.226185 -200 45 -200 45 -200 45
1693497549.5916 -2.1201336 -40.21804 -200 45 -200 45 -200 45
1694497666.2777 -2.1174912 -40.204559 -200 45 -200 45 -200 45
1695497782.9638 -2.1182711 -40.191158 -200 45 -200 45 -200 45
1696497899.6499 -2.120312 -40.193462 -200 45 -200 45 -200 45
1697498016.3361 -2.1214201 -40.180695 -200 45 -200 45 -200 45
1698498133.0222 -2.1225595 -40.175507 -200 45 -200 45 -200 45
1699498249.7083 -2.1243157 -40.141109 -200 45 -200 45 -200 45
1700498366.3944 -2.1276608 -40.116825 -200 45 -200 45 -200 45
1701498483.0805 -2.1304281 -40.118748 -200 45 -200 45 -200 45
1702498599.7666 -2.1341145 -40.089916 -200 45 -200 45 -200 45
1703498716.4527 -2.1346207 -40.080421 -200 45 -200 45 -200 45
1704498833.1389 -2.1395264 -40.064857 -200 45 -200 45 -200 45
1705498949.825 -2.1401374 -40.04631 -200 45 -200 45 -200 45
1706499066.5111 -2.1423905 -40.03923 -200 45 -200 45 -200 45
1707499183.1972 -2.1451266 -40.006264 -200 45 -200 45 -200 45
1708499299.8833 -2.148066 -40.01215 -200 45 -200 45 -200 45
1709499416.5694 -2.1477821 -39.999805 -200 45 -200 45 -200 45
1710499533.2555 -2.1462784 -39.98399 -200 45 -200 45 -200 45
1711499649.9417 -2.1500595 -39.963142 -200 45 -200 45 -200 45
1712499766.6278 -2.1556096 -39.975517 -200 45 -200 45 -200 45
1713499883.3139 -2.1584055 -39.968063 -200 45 -200 45 -200 45
1714500000 -2.1620464 -39.950863 -200 45 -200 45 -200 45
1715500116.6861 -2.1643307 -39.945755 -200 45 -200 45 -200 45
1716500233.3722 -2.1689901 -39.949783 -200 45 -200 45 -200 45
1717500350.0583 -2.1734459 -39.944084 -200 45 -200 45 -200 45
1718500466.7445 -2.1772621 -39.958614 -200 45 -200 45 -200 45
1719500583.4306 -2.1846523 -39.960148 -200 45 -200 45 -200 45
1720500700.1167 -2.184288 -39.965309 -200 45 -200 45 -200 45
1721500816.8028 -2.1860666 -39.978233 -200 45 -200 45 -200 45
1722500933.4889 -2.1909437 -39.983917 -200 45 -200 45 -200 45
1723501050.175 -2.1961479 -40.00034 -200 45 -200 45 -200 45
1724501166.8611 -2.2011263 -40.012188 -200 45 -200 45 -200 45
1725501283.5473 -2.1994176 -40.057209 -200 45 -200 45 -200 45
1726501400.2334 -2.2022707 -40.078705 -200 45 -200 45 -200 45
1727501516.9195 -2.2022631 -40.103058 -200 45 -200 45 -200 45
1728501633.6056 -2.2095327 -40.122723 -200 45 -200 45 -200 45
1729501750.2917 -2.2116821 -40.170078 -200 45 -200 45 -200 45
1730501866.9778 -2.2159576 -40.188747 -200 45 -200 45 -200 45
1731501983.6639 -2.2179003 -40.226551 -200 45 -200 45 -200 45
1732502100.3501 -2.2221231 -40.265255 -200 45 -200 45 -200 45
1733502217.0362 -2.2223444 -40.311378 -200 45 -200 45 -200 45
1734502333.7223 -2.2291188 -40.330929 -200 45 -200 45 -200 45
1735502450.4084 -2.2317188 -40.396442 -200 45 -200 45 -200 45
1736502567.0945 -2.2353711 -40.44775 -200 45 -200 45 -200 45
1737502683.7806 -2.2382627 -40.483521 -200 45 -200 45 -200 45
1738502800.4667 -2.2390003 -40.534508 -200 45 -200 45 -200 45
1739502917.1529 -2.2459974 -40.570873 -200 45 -200 45 -200 45
1740503033.839 -2.2472146 -40.639687 -200 45 -200 45 -200 45
1741503150.5251 -2.2517302 -40.657349 -200 45 -200 45 -200 45
1742503267.2112 -2.2521448 -40.696583 -200 45 -200 45 -200 45
1743503383.8973 -2.2488496 -40.728268 -200 45 -200 45 -200 45
1744503500.5834 -2.2471912 -40.770462 -200 45 -200 45 -200 45
1745503617.2695 -2.2446396 -40.801823 -200 45 -200 45 -200 45
1746503733.9557 -2.2436256 -40.865883 -200 45 -200 45 -200 45
1747503850.6418 -2.2465987 -40.919758 -200 45 -200 45 -200 45
1748503967.3279 -2.2464855 -40.95871 -200 45 -200 45 -200 45
1749504084.014 -2.2441392 -41.008553 -200 45 -200 45 -200 45
1750504200.7001 -2.2470052 -41.051468 -200 45 -200 45 -200 45
1751504317.3862 -2.2481971 -41.110867 -200 45 -200 45 -200 45
1752504434.0723 -2.2469318 -41.142548 -200 45 -200 45 -200 45
1753504550.7585 -2.2446196 -41.18652 -200 45 -200 45 -200 45
1754504667.4446 -2.2403095 -41.226631 -200 45 -200 45 -200 45
1755504784.1307 -2.2412844 -41.2822 -200 45 -200 45 -200 45
1756504900.8168 -2.2412429 -41.313129 -200 45 -200 45 -200 45
1757505017.5029 -2.2390082 -41.362251 -200 45 -200 45 -200 45
1758505134.189 -2.2345667 -41.418667 -200 45 -200 45 -200 45
1759505250.8751 -2.2300806 -41.440498 -200 45 -200 45 -200 45
1760505367.5613 -2.2304964 -41.486633 -200 45 -200 45 -200 45
1761505484.2474 -2.2305982 -41.512356 -200 45 -200 45 -200 45
1762505600.9335 -2.2271976 -41.540955 -200 45 -200 45 -200 45
1763505717.6196 -2.2284553 -41.580116 -200 45 -200 45 -200 45
1764505834.3057 -2.2274799 -41.596008 -200 45 -200 45 -200 45
1765505950.9918 -2.2274156 -41.615566 -200 45 -200 45 -200 45
1766506067.6779 -2.2260993 -41.626438 -200 45 -200 45 -200 45
1767506184.3641 -2.231138 -41.640373 -200 45 -200 45 -200 45
1768506301.0502 -2.226382 -41.656563 -200 45 -200 45 -200 45
1769506417.7363 -2.2248445 -41.656403 -200 45 -200 45 -200 45
1770506534.4224 -2.2240789 -41.668228 -200 45 -200 45 -200 45
1771506651.1085 -2.224859 -41.692513 -200 45 -200 45 -200 45
1772506767.7946 -2.2239969 -41.675591 -200 45 -200 45 -200 45
1773506884.4807 -2.2248404 -41.693546 -200 45 -200 45 -200 45
1774507001.1669 -2.2158108 -41.676353 -200 45 -200 45 -200 45
1775507117.853 -2.2179153 -41.67627 -200 45 -200 45 -200 45
1776507234.5391 -2.2177575 -41.666306 -200 45 -200 45 -200 45
1777507351.2252 -2.2169328 -41.66098 -200 45 -200 45 -200 45
1778507467.9113 -2.2160935 -41.646389 -200 45 -200 45 -200 45
1779507584.5974 -2.21826 -41.645847 -200 45 -200 45 -200 45
1780507701.2835 -2.220583 -41.603916 -200 45 -200 45 -200 45
1781507817.9697 -2.2226782 -41.606392 -200 45 -200 45 -200 45
1782507934.6558 -2.2237837 -41.575588 -200 45 -200 45 -200 45
1783508051.3419 -2.2266927 -41.558716 -200 45 -200 45 -200 45
1784508168.028 -2.2288411 -41.55069 -200 45 -200 45 -200 45
1785508284.7141 -2.2301016 -41.53466 -200 45 -200 45 -200 45
1786508401.4002 -2.2321784 -41.505821 -200 45 -200 45 -200 45
1787508518.0863 -2.2320762 -41.488789 -200 45 -200 45 -200 45
1788508634.7725 -2.2340508 -41.457001 -200 45 -200 45 -200 45
1789508751.4586 -2.2360995 -41.444267 -200 45 -200 45 -200 45
1790508868.1447 -2.2353156 -41.419827 -200 45 -200 45 -200 45
1791508984.8308 -2.2359922 -41.423615 -200 45 -200 45 -200 45
1792509101.5169 -2.240366 -41.392139 -200 45 -200 45 -200 45
1793509218.203 -2.2434969 -41.369881 -200 45 -200 45 -200 45
1794509334.8891 -2.2427227 -41.336334 -200 45 -200 45 -200 45
1795509451.5753 -2.2474222 -41.32856 -200 45 -200 45 -200 45
1796509568.2614 -2.2504835 -41.332287 -200 45 -200 45 -200 45
1797509684.9475 -2.2534878 -41.312275 -200 45 -200 45 -200 45
1798509801.6336 -2.2590444 -41.309246 -200 45 -200 45 -200 45
1799509918.3197 -2.2654564 -41.299828 -200 45 -200 45 -200 45
1800510035.0058 -2.2674699 -41.295227 -200 45 -200 45 -200 45
1801510151.6919 -2.267597 -41.305511 -200 45 -200 45 -200 45
1802510268.3781 -2.2729228 -41.275181 -200 45 -200 45 -200 45
1803510385.0642 -2.2776742 -41.285088 -200 45 -200 45 -200 45
1804510501.7503 -2.2810557 -41.289127 -200 45 -200 45 -200 45
1805510618.4364 -2.2834401 -41.293392 -200 45 -200 45 -200 45
1806510735.1225 -2.2850804 -41.306435 -200 45 -200 45 -200 45
1807510851.8086 -2.2872241 -41.330509 -200 45 -200 45 -200 45
1808510968.4947 -2.2904668 -41.339123 -200 45 -200 45 -200 45
1809511085.1809 -2.2952862 -41.371868 -200 45 -200 45 -200 45
1810511201.867 -2.2969286 -41.38131 -200 45 -200 45 -200 45
1811511318.5531 -2.300874 -41.391209 -200 45 -200 45 -200 45
1812511435.2392 -2.3066595 -41.427219 -200 45 -200 45 -200 45
1813511551.9253 -2.3095531 -41.449795 -200 45 -200 45 -200 45
1814511668.6114 -2.3132 -41.481388 -200 45 -200 45 -200 45
1815511785.2975 -2.317982 -41.518326 -200 45 -200 45 -200 45
1816511901.9837 -2.3220022 -41.565289 -200 45 -200 45 -200 45
1817512018.6698 -2.3248994 -41.585091 -200 45 -200 45 -200 45
1818512135.3559 -2.3227737 -41.615002 -200 45 -200 45 -200 45
1819512252.042 -2.3288898 -41.665184 -200 45 -200 45 -200 45
1820512368.7281 -2.331002 -41.710102 -200 45 -200 45 -200 45
1821512485.4142 -2.3331339 -41.744846 -200 45 -200 45 -200 45
1822512602.1004 -2.3317442 -41.804325 -200 45 -200 45 -200 45
1823512718.7865 -2.3327115 -41.85548 -200 45 -200 45 -200 45
1824512835.4726 -2.332474 -41.903919 -200 45 -200 45 -200 45
1825512952.1587 -2.335712 -41.967293 -200 45 -200 45 -200 45
1826513068.8448 -2.3357511 -42.013428 -200 45 -200 45 -200 45
1827513185.5309 -2.3363609 -42.075405 -200 45 -200 45 -200 45
1828513302.217 -2.3407261 -42.129627 -200 45 -200 45 -200 45
1829513418.9032 -2.3398671 -42.197151 -200 45 -200 45 -200 45
1830513535.5893 -2.3429668 -42.243523 -200 45 -200 45 -200 45
1831513652.2754 -2.3453996 -42.311485 -200 45 -200 45 -200 45
1832513768.9615 -2.3441372 -42.356899 -200 45 -200 45 -200 45
1833513885.6476 -2.3454227 -42.432068 -200 45 -200 45 -200 45
1834514002.3337 -2.343013 -42.466061 -200 45 -200 45 -200 45
1835514119.0198 -2.3427031 -42.531387 -200 45 -200 45 -200 45
1836514235.706 -2.3438206 -42.580288 -200 45 -200 45 -200 45
1837514352.3921 -2.3429863 -42.641476 -200 45 -200 45 -200 45
1838514469.0782 -2.3418038 -42.692078 -200 45 -200 45 -200 45
1839514585.7643 -2.33601 -42.736271 -200 45 -200 45 -200 45
1840514702.4504 -2.3350711 -42.779442 -200 45 -200 45 -200 45
1841514819.1365 -2.3358738 -42.822433 -200 45 -200 45 -200 45
1842514935.8226 -2.333617 -42.878139 -200 45 -200 45 -200 45
1843515052.5088 -2.3339865 -42.920204 -200 45 -200 45 -200 45
1844515169.1949 -2.3297899 -42.941269 -200 45 -200 45 -200 45
1845515285.881 -2.3313396 -42.977383 -200 45 -200 45 -200 45
1846515402.5671 -2.3313737 -43.000618 -200 45 -200 45 -200 45
1847515519.2532 -2.3324785 -43.037563 -200 45 -200 45 -200 45
1848515635.9393 -2.3299723 -43.056583 -200 45 -200 45 -200 45
1849515752.6254 -2.3287323 -43.074459 -200 45 -200 45 -200 45
1850515869.3116 -2.3264344 -43.109142 -200 45 -200 45 -200 45
1851515985.9977 -2.3247128 -43.12376 -200 45 -200 45 -200 45
1852516102.6838 -2.3259461 -43.138359 -200 45 -200 45 -200 45
1853516219.3699 -2.3250272 -43.164448 -200 45 -200 45 -200 45
1854516336.056 -2.321697 -43.136974 -200 45 -200 45 -200 45
1855516452.7421 -2.3157833 -43.158146 -200 45 -200 45 -200 45
1856516569.4282 -2.3156083 -43.166008 -200 45 -200 45 -200 45
1857516686.1144 -2.3140419 -43.156677 -200 45 -200 45 -200 45
1858516802.8005 -2.3142548 -43.149738 -200 45 -200 45 -200 45
1859516919.4866 -2.3113225 -43.1497 -200 45 -200 45 -200 45
1860517036.1727 -2.3137107 -43.138481 -200 45 -200 45 -200 45
1861517152.8588 -2.3121991 -43.124664 -200 45 -200 45 -200 45
1862517269.5449 -2.3117032 -43.115192 -200 45 -200 45 -200 45
1863517386.231 -2.3140221 -43.114044 -200 45 -200 45 -200 45
1864517502.9172 -2.3180318 -43.095486 -200 45 -200 45 -200 45
1865517619.6033 -2.3156259 -43.067894 -200 45 -200 45 -200 45
1866517736.2894 -2.3169038 -43.030899 -200 45 -200 45 -200 45
1867517852.9755 -2.3179243 -43.022491 -200 45 -200 45 -200 45
1868517969.6616 -2.3171985 -42.998646 -200 45 -200 45 -200 45
1869518086.3477 -2.3195455 -42.954952 -200 45 -200 45 -200 45
1870518203.0338 -2.319828 -42.953167 -200 45 -200 45 -200 45
1871518319.72 -2.3185704 -42.933025 -200 45 -200 45 -200 45
1872518436.4061 -2.318311 -42.899086 -200 45 -200 45 -200 45
1873518553.0922 -2.3202546 -42.881531 -200 45 -200 45 -200 45
1874518669.7783 -2.3212795 -42.840542 -200 45 -200 45 -200 45
1875518786.4644 -2.3249547 -42.834873 -200 45 -200 45 -200 45
1876518903.1505 -2.3255887 -42.806297 -200 45 -200 45 -200 45
1877519019.8366 -2.3310251 -42.770218 -200 45 -200 45 -200 45
1878519136.5228 -2.3345375 -42.752274 -200 45 -200 45 -200 45
1879519253.2089 -2.3407736 -42.72134 -200 45 -200 45 -200 45
1880519369.895 -2.3430486 -42.711414 -200 45 -200 45 -200 45
1881519486.5811 -2.3453836 -42.678921 -200 45 -200 45 -200 45
1882519603.2672 -2.3467426 -42.672554 -200 45 -200 45 -200 45
1883519719.9533 -2.3482101 -42.657627 -200 45 -200 45 -200 45
1884519836.6394 -2.3556831 -42.640068 -200 45 -200 45 -200 45
1885519953.3256 -2.3587282 -42.634563 -200 45 -200 45 -200 45
1886520070.0117 -2.3623335 -42.623882 -200 45 -200 45 -200 45
1887520186.6978 -2.3597553 -42.634716 -200 45 -200 45 -200 45
1888520303.3839 -2.3644907 -42.633636 -200 45 -200 45 -200 45
1889520420.07 -2.368803 -42.641651 -200 45 -200 45 -200 45
1890520536.7561 -2.3715386 -42.62923 -200 45 -200 45 -200 45
1891520653.4422 -2.3764238 -42.644146 -200 45 -200 45 -200 45
1892520770.1284 -2.3804345 -42.646797 -200 45 -200 45 -200 45
1893520886.8145 -2.3861275 -42.655552 -200 45 -200 45 -200 45
1894521003.5006 -2.3904037 -42.669529 -200 45 -200 45 -200 45
1895521120.1867 -2.395822 -42.704922 -200 45 -200 45 -200 45
1896521236.8728 -2.3995881 -42.718147 -200 45 -200 45 -200 45
1897521353.5589 -2.4030886 -42.74292 -200 45 -200 45 -200 45
1898521470.245 -2.4068403 -42.786255 -200 45 -200 45 -200 45
1899521586.9312 -2.4099021 -42.815994 -200 45 -200 45 -200 45
1900521703.6173 -2.4132142 -42.851612 -200 45 -200 45 -200 45
1901521820.3034 -2.4178634 -42.88945 -200 45 -200 45 -200 45
1902521936.9895 -2.4198258 -42.929234 -200 45 -200 45 -200 45
1903522053.6756 -2.4175637 -42.960594 -200 45 -200 45 -200 45
1904522170.3617 -2.4202914 -43.022442 -200 45 -200 45 -200 45
1905522287.0478 -2.4232061 -43.082134 -200 45 -200 45 -200 45
1906522403.734 -2.4267745 -43.128654 -200 45 -200 45 -200 45
1907522520.4201 -2.4294879 -43.168282 -200 45 -200 45 -200 45
1908522637.1062 -2.4314337 -43.23719 -200 45 -200 45 -200 45
1909522753.7923 -2.435549 -43.277149 -200 45 -200 45 -200 45
1910522870.4784 -2.4367633 -43.340366 -200 45 -200 45 -200 45
1911522987.1645 -2.4399221 -43.393074 -200 45 -200 45 -200 45
1912523103.8506 -2.4404519 -43.445751 -200 45 -200 45 -200 45
1913523220.5368 -2.4447756 -43.526489 -200 45 -200 45 -200 45
1914523337.2229 -2.4416249 -43.581684 -200 45 -200 45 -200 45
1915523453.909 -2.445322 -43.634716 -200 45 -200 45 -200 45
1916523570.5951 -2.444612 -43.698818 -200 45 -200 45 -200 45
1917523687.2812 -2.4456465 -43.741859 -200 45 -200 45 -200 45
1918523803.9673 -2.443994 -43.807632 -200 45 -200 45 -200 45
1919523920.6534 -2.4396532 -43.871151 -200 45 -200 45 -200 45
1920524037.3396 -2.437649 -43.935661 -200 45 -200 45 -200 45
1921524154.0257 -2.438477 -43.980396 -200 45 -200 45 -200 45
1922524270.7118 -2.437644 -44.036358 -200 45 -200 45 -200 45
1923524387.3979 -2.4371331 -44.082745 -200 45 -200 45 -200 45
1924524504.084 -2.4355888 -44.129883 -200 45 -200 45 -200 45
1925524620.7701 -2.4348578 -44.190498 -200 45 -200 45 -200 45
1926524737.4562 -2.4344466 -44.240505 -200 45 -200 45 -200 45
1927524854.1424 -2.4328656 -44.25145 -200 45 -200 45 -200 45
1928524970.8285 -2.4355857 -44.313282 -200 45 -200 45 -200 45
1929525087.5146 -2.4342129 -44.348026 -200 45 -200 45 -200 45
1930525204.2007 -2.4305103 -44.385269 -200 45 -200 45 -200 45
1931525320.8868 -2.4292819 -44.41991 -200 45 -200 45 -200 45
1932525437.5729 -2.4277337 -44.461548 -200 45 -200 45 -200 45
1933525554.259 -2.4261835 -44.463139 -200 45 -200 45 -200 45
1934525670.9452 -2.4242053 -44.490597 -200 45 -200 45 -200 45
1935525787.6313 -2.4212813 -44.513306 -200 45 -200 45 -200 45
1936525904.3174 -2.4147882 -44.542294 -200 45 -200 45 -200 45
1937526021.0035 -2.4139776 -44.543034 -200 45 -200 45 -200 45
1938526137.6896 -2.4121161 -44.55109 -200 45 -200 45 -200 45
1939526254.3757 -2.4131906 -44.536831 -200 45 -200 45 -200 45
1940526371.0618 -2.412389 -44.547001 -200 45 -200 45 -200 45
1941526487.748 -2.4110005 -44.553501 -200 45 -200 45 -200 45
1942526604.4341 -2.4096704 -44.540607 -200 45 -200 45 -200 45
1943526721.1202 -2.410013 -44.538639 -200 45 -200 45 -200 45
1944526837.8063 -2.4103909 -44.526272 -200 45 -200 45 -200 45
1945526954.4924 -2.4120858 -44.520306 -200 45 -200 45 -200 45
1946527071.1785 -2.4099116 -44.486828 -200 45 -200 45 -200 45
1947527187.8646 -2.4083698 -44.480766 -200 45 -200 45 -200 45
1948527304.5508 -2.406935 -44.461079 -200 45 -200 45 -200 45
1949527421.2369 -2.4081743 -44.42857 -200 45 -200 45 -200 45
1950527537.923 -2.4080377 -44.405647 -200 45 -200 45 -200 45
1951527654.6091 -2.4056125 -44.391632 -200 45 -200 45 -200 45
1952527771.2952 -2.4031997 -44.356449 -200 45 -200 45 -200 45
1953527887.9813 -2.4039605 -44.328106 -200 45 -200 45 -200 45
1954528004.6674 -2.4045198 -44.3083 -200 45 -200 45 -200 45
1955528121.3536 -2.4074478 -44.279121 -200 45 -200 45 -200 45
1956528238.0397 -2.4060452 -44.233418 -200 45 -200 45 -200 45
1957528354.7258 -2.4077525 -44.204605 -200 45 -200 45 -200 45
1958528471.4119 -2.4117165 -44.160728 -200 45 -200 45 -200 45
1959528588.098 -2.4124665 -44.148911 -200 45 -200 45 -200 45
1960528704.7841 -2.4163888 -44.10778 -200 45 -200 45 -200 45
1961528821.4702 -2.4223826 -44.06971 -200 45 -200 45 -200 45
1962528938.1564 -2.4213147 -44.054096 -200 45 -200 45 -200 45
1963529054.8425 -2.4250658 -44.028076 -200 45 -200 45 -200 45
1964529171.5286 -2.4270225 -43.980721 -200 45 -200 45 -200 45
1965529288.2147 -2.430773 -43.971855 -200 45 -200 45 -200 45
1966529404.9008 -2.4382992 -43.950428 -200 45 -200 45 -200 45
1967529521.5869 -2.4349377 -43.922901 -200 45 -200 45 -200 45
1968529638.273 -2.4380429 -43.915173 -200 45 -200 45 -200 45
1969529754.9592 -2.4421694 -43.907024 -200 45 -200 45 -200 45
1970529871.6453 -2.4460576 -43.877522 -200 45 -200 45 -200 45
1971529988.3314 -2.4474723 -43.877953 -200 45 -200 45 -200 45
1972530105.0175 -2.4542964 -43.868279 -200 45 -200 45 -200 45
1973530221.7036 -2.456733 -43.864265 -200 45 -200 45 -200 45
1974530338.3897 -2.4599764 -43.859196 -200 45 -200 45 -200 45
1975530455.0758 -2.4669056 -43.862049 -200 45 -200 45 -200 45
1976530571.762 -2.4732795 -43.866501 -200 45 -200 45 -200 45
1977530688.4481 -2.4779837 -43.864708 -200 45 -200 45 -200 45
1978530805.1342 -2.4805782 -43.877735 -200 45 -200 45 -200 45
1979530921.8203 -2.483197 -43.908005 -200 45 -200 45 -200 45
1980531038.5064 -2.4878244 -43.929138 -200 45 -200 45 -200 45
1981531155.1925 -2.4923847 -43.950848 -200 45 -200 45 -200 45
1982531271.8786 -2.4982483 -43.983978 -200 45 -200 45 -200 45
1983531388.5648 -2.5003011 -44.018257 -200 45 -200 45 -200 45
1984531505.2509 -2.4995637 -44.055134 -200 45 -200 45 -200 45
1985531621.937 -2.5035882 -44.081005 -200 45 -200 45 -200 45
1986531738.6231 -2.5083137 -44.117516 -200 45 -200 45 -200 45
1987531855.3092 -2.5101972 -44.186069 -200 45 -200 45 -200 45
1988531971.9953 -2.5110419 -44.210163 -200 45 -200 45 -200 45
1989532088.6814 -2.5160687 -44.275829 -200 45 -200 45 -200 45
1990532205.3676 -2.5211139 -44.319038 -200 45 -200 45 -200 45
1991532322.0537 -2.5238206 -44.375465 -200 45 -200 45 -200 45
1992532438.7398 -2.5251687 -44.41708 -200 45 -200 45 -200 45
1993532555.4259 -2.5303288 -44.474785 -200 45 -200 45 -200 45
1994532672.112 -2.5318596 -44.541927 -200 45 -200 45 -200 45
1995532788.7981 -2.5321453 -44.609432 -200 45 -200 45 -200 45
1996532905.4842 -2.5342355 -44.664951 -200 45 -200 45 -200 45
1997533022.1704 -2.535531 -44.734062 -200 45 -200 45 -200 45
1998533138.8565 -2.5364964 -44.796169 -200 45 -200 45 -200 45
1999533255.5426 -2.5355468 -44.869171 -200 45 -200 45 -200 45
2000533372.2287 -2.5348599 -44.925846 -200 45 -200 45 -200 45
2001533488.9148 -2.5341871 -44.993206 -200 45 -200 45 -200 45
2002533605.6009 -2.5329642 -45.059433 -200 45 -200 45 -200 45
2003533722.287 -2.5333002 -45.117882 -200 45 -200 45 -200 45
2004533838.9732 -2.5315108 -45.202492 -200 45 -200 45 -200 45
2005533955.6593 -2.5331953 -45.255394 -200 45 -200 45 -200 45
2006534072.3454 -2.5325348 -45.302853 -200 45 -200 45 -200 45
2007534189.0315 -2.5342929 -45.343605 -200 45 -200 45 -200 45
2008534305.7176 -2.532084 -45.416168 -200 45 -200 45 -200 45
2009534422.4037 -2.5327282 -45.455334 -200 45 -200 45 -200 45
2010534539.0898 -2.528245 -45.515705 -200 45 -200 45 -200 45
2011534655.776 -2.5256169 -45.561077 -200 45 -200 45 -200 45
2012534772.4621 -2.5251744 -45.593357 -200 45 -200 45 -200 45
2013534889.1482 -2.5266585 -45.638191 -200 45 -200 45 -200 45
2014535005.8343 -2.5255957 -45.681477 -200 45 -200 45 -200 45
2015535122.5204 -2.5207911 -45.732632 -200 45 -200 45 -200 45
2016535239.2065 -2.5153549 -45.755081 -200 45 -200 45 -200 45
2017535355.8926 -2.5143175 -45.789673 -200 45 -200 45 -200 45
2018535472.5788 -2.5136852 -45.806694 -200 45 -200 45 -200 45
2019535589.2649 -2.5131335 -45.826782 -200 45 -200 45 -200 45
2020535705.951 -2.5110526 -45.817715 -200 45 -200 45 -200 45
2021535822.6371 -2.5093799 -45.812992 -200 45 -200 45 -200 45
2022535939.3232 -2.5056813 -45.8284 -200 45 -200 45 -200 45
2023536056.0093 -2.5015507 -45.834656 -200 45 -200 45 -200 45
2024536172.6954 -2.502002 -45.846214 -200 45 -200 45 -200 45
2025536289.3816 -2.5021558 -45.84639 -200 45 -200 45 -200 45
2026536406.0677 -2.4976466 -45.827259 -200 45 -200 45 -200 45
2027536522.7538 -2.4937413 -45.828674 -200 45 -200 45 -200 45
2028536639.4399 -2.4922907 -45.804829 -200 45 -200 45 -200 45
2029536756.126 -2.4931309 -45.810566 -200 45 -200 45 -200 45
2030536872.8121 -2.4876237 -45.806015 -200 45 -200 45 -200 45
2031536989.4982 -2.4889662 -45.752327 -200 45 -200 45 -200 45
2032537106.1844 -2.4840848 -45.747005 -200 45 -200 45 -200 45
2033537222.8705 -2.4829445 -45.721905 -200 45 -200 45 -200 45
2034537339.5566 -2.4803517 -45.689201 -200 45 -200 45 -200 45
2035537456.2427 -2.4814472 -45.659153 -200 45 -200 45 -200 45
2036537572.9288 -2.4810638 -45.633457 -200 45 -200 45 -200 45
2037537689.6149 -2.4796269 -45.607994 -200 45 -200 45 -200 45
2038537806.3011 -2.482826 -45.567696 -200 45 -200 45 -200 45
2039537922.9872 -2.483027 -45.540257 -200 45 -200 45 -200 45
2040538039.6733 -2.4869478 -45.497761 -200 45 -200 45 -200 45
2041538156.3594 -2.488575 -45.456451 -200 45 -200 45 -200 45
2042538273.0455 -2.489116 -45.424213 -200 45 -200 45 -200 45
2043538389.7316 -2.4916217 -45.393997 -200 45 -200 45 -200 45
2044538506.4177 -2.4919369 -45.36552 -200 45 -200 45 -200 45
2045538623.1039 -2.4950607 -45.321697 -200 45 -200 45 -200 45
2046538739.79 -2.4986744 -45.291691 -200 45 -200 45 -200 45
2047538856.4761 -2.4987407 -45.268921 -200 45 -200 45 -200 45
2048538973.1622 -2.4987748 -45.224525 -200 45 -200 45 -200 45
2049539089.8483 -2.5031517 -45.215656 -200 45 -200 45 -200 45
2050539206.5344 -2.5046716 -45.169388 -200 45 -200 45 -200 45
2051539323.2205 -2.5070693 -45.153416 -200 45 -200 45 -200 45
2052539439.9067 -2.511322 -45.129402 -200 45 -200 45 -200 45
2053539556.5928 -2.5160184 -45.105267 -200 45 -200 45 -200 45
2054539673.2789 -2.518822 -45.099812 -200 45 -200 45 -200 45
2055539789.965 -2.523385 -45.087017 -200 45 -200 45 -200 45
2056539906.6511 -2.5283985 -45.062286 -200 45 -200 45 -200 45
2057540023.3372 -2.5349348 -45.066898 -200 45 -200 45 -200 45
2058540140.0233 -2.5378327 -45.064617 -200 45 -200 45 -200 45
2059540256.7095 -2.5443301 -45.05648 -200 45 -200 45 -200 45
2060540373.3956 -2.5478537 -45.059597 -200 45 -200 45 -200 45
2061540490.0817 -2.5530164 -45.063183 -200 45 -200 45 -200 45
2062540606.7678 -2.5568869 -45.081882 -200 45 -200 45 -200 45
2063540723.4539 -2.5605094 -45.091911 -200 45 -200 45 -200 45
2064540840.14 -2.5597301 -45.12785 -200 45 -200 45 -200 45
2065540956.8261 -2.5646269 -45.14975 -200 45 -200 45 -200 45
2066541073.5123 -2.570539 -45.189781 -200 45 -200 45 -200 45
2067541190.1984 -2.5730083 -45.212147 -200 45 -200 45 -200 45
2068541306.8845 -2.5773182 -45.249722 -200 45 -200 45 -200 45
2069541423.5706 -2.5812171 -45.281429 -200 45 -200 45 -200 45
2070541540.2567 -2.583797 -45.317245 -200 45 -200 45 -200 45
2071541656.9428 -2.5903881 -45.364845 -200 45 -200 45 -200 45
2072541773.6289 -2.5945425 -45.421021 -200 45 -200 45 -200 45
2073541890.3151 -2.5983465 -45.481823 -200 45 -200 45 -200 45
2074542007.0012 -2.6018543 -45.524643 -200 45 -200 45 -200 45
2075542123.6873 -2.6045089 -45.574707 -200 45 -200 45 -200 45
2076542240.3734 -2.6039515 -45.636208 -200 45 -200 45 -200 45
2077542357.0595 -2.6100256 -45.711555 -200 45 -200 45 -200 45
2078542473.7456 -2.6095407 -45.74831 -200 45 -200 45 -200 45
2079542590.4317 -2.6128111 -45.838718 -200 45 -200 45 -200 45
2080542707.1179 -2.6097767 -45.90028 -200 45 -200 45 -200 45
2081542823.804 -2.6097238 -45.990738 -200 45 -200 45 -200 45
2082542940.4901 -2.6122947 -46.037834 -200 45 -200 45 -200 45
2083543057.1762 -2.6133351 -46.107178 -200 45 -200 45 -200 45
2084543173.8623 -2.6127274 -46.187992 -200 45 -200 45 -200 45
2085543290.5484 -2.6124761 -46.246868 -200 45 -200 45 -200 45
2086543407.2345 -2.613802 -46.311188 -200 45 -200 45 -200 45
2087543523.9207 -2.6141543 -46.396656 -200 45 -200 45 -200 45
2088543640.6068 -2.6147878 -46.456493 -200 45 -200 45 -200 45
2089543757.2929 -2.6155503 -46.506512 -200 45 -200 45 -200 45
2090543873.979 -2.6147017 -46.58749 -200 45 -200 45 -200 45
2091543990.6651 -2.6108193 -46.63998 -200 45 -200 45 -200 45
2092544107.3512 -2.6093335 -46.701698 -200 45 -200 45 -200 45
2093544224.0373 -2.6070638 -46.740913 -200 45 -200 45 -200 45
2094544340.7235 -2.6082544 -46.824223 -200 45 -200 45 -200 45
2095544457.4096 -2.6055958 -46.871117 -200 45 -200 45 -200 45
2096544574.0957 -2.6007349 -46.916306 -200 45 -200 45 -200 45
2097544690.7818 -2.5946996 -46.964966 -200 45 -200 45 -200 45
2098544807.4679 -2.5929053 -47.00729 -200 45 -200 45 -200 45
2099544924.154 -2.5897169 -47.040058 -200 45 -200 45 -200 45
2100545040.8401 -2.5883636 -47.087357 -200 45 -200 45 -200 45
2101545157.5263 -2.587322 -47.11475 -200 45 -200 45 -200 45
2102545274.2124 -2.5807106 -47.155018 -200 45 -200 45 -200 45
2103545390.8985 -2.582176 -47.169991 -200 45 -200 45 -200 45
2104545507.5846 -2.5794506 -47.193367 -200 45 -200 45 -200 45
2105545624.2707 -2.5799055 -47.187855 -200 45 -200 45 -200 45
2106545740.9568 -2.5751059 -47.209156 -200 45 -200 45 -200 45
2107545857.6429 -2.5711539 -47.21698 -200 45 -200 45 -200 45
2108545974.3291 -2.5685344 -47.209312 -200 45 -200 45 -200 45
2109546091.0152 -2.5652752 -47.225296 -200 45 -200 45 -200 45
2110546207.7013 -2.5654018 -47.210564 -200 45 -200 45 -200 45
2111546324.3874 -2.5621734 -47.199455 -200 45 -200 45 -200 45
2112546441.0735 -2.5564129 -47.194561 -200 45 -200 45 -200 45
2113546557.7596 -2.5522971 -47.168701 -200 45 -200 45 -200 45
2114546674.4457 -2.5527742 -47.158913 -200 45 -200 45 -200 45
2115546791.1319 -2.5503678 -47.130543 -200 45 -200 45 -200 45
2116546907.818 -2.548605 -47.089985 -200 45 -200 45 -200 45
2117547024.5041 -2.5484533 -47.062923 -200 45 -200 45 -200 45
2118547141.1902 -2.5467932 -47.043579 -200 45 -200 45 -200 45
2119547257.8763 -2.5496376 -47.000217 -200 45 -200 45 -200 45
2120547374.5624 -2.5459962 -46.981037 -200 45 -200 45 -200 45
2121547491.2485 -2.5485537 -46.938747 -200 45 -200 45 -200 45
2122547607.9347 -2.5493267 -46.890633 -200 45 -200 45 -200 45
2123547724.6208 -2.5502224 -46.860897 -200 45 -200 45 -200 45
2124547841.3069 -2.5493388 -46.817989 -200 45 -200 45 -200 45
2125547957.993 -2.5488546 -46.780891 -200 45 -200 45 -200 45
2126548074.6791 -2.5521359 -46.723015 -200 45 -200 45 -200 45
2127548191.3652 -2.5555322 -46.681656 -200 45 -200 45 -200 45
2128548308.0513 -2.5545621 -46.64555 -200 45 -200 45 -200 45
2129548424.7375 -2.5530519 -46.602493 -200 45 -200 45 -200 45
2130548541.4236 -2.5561981 -46.563934 -200 45 -200 45 -200 45
2131548658.1097 -2.5594056 -46.53624 -200 45 -200 45 -200 45
2132548774.7958 -2.5620697 -46.479488 -200 45 -200 45 -200 45
2133548891.4819 -2.5636239 -46.460766 -200 45 -200 45 -200 45
2134549008.168 -2.567399 -46.4179 -200 45 -200 45 -200 45
2135549124.8541 -2.5711699 -46.388779 -200 45 -200 45 -200 45
2136549241.5403 -2.5769489 -46.3517 -200 45 -200 45 -200 45
2137549358.2264 -2.5823956 -46.319233 -200 45 -200 45 -200 45
2138549474.9125 -2.5902603 -46.303329 -200 45 -200 45 -200 45
2139549591.5986 -2.5900214 -46.280674 -200 45 -200 45 -200 45
2140549708.2847 -2.5958614 -46.265583 -200 45 -200 45 -200 45
2141549824.9708 -2.5976534 -46.252335 -200 45 -200 45 -200 45
2142549941.6569 -2.6037149 -46.251232 -200 45 -200 45 -200 45
2143550058.3431 -2.6087325 -46.237755 -200 45 -200 45 -200 45
2144550175.0292 -2.6137726 -46.246655 -200 45 -200 45 -200 45
2145550291.7153 -2.6125612 -46.260853 -200 45 -200 45 -200 45
2146550408.4014 -2.6176937 -46.257786 -200 45 -200 45 -200 45
2147550525.0875 -2.6228294 -46.279778 -200 45 -200 45 -200 45
2148550641.7736 -2.6293869 -46.294273 -200 45 -200 45 -200 45
2149550758.4597 -2.6332235 -46.328793 -200 45 -200 45 -200 45
2150550875.1459 -2.6385391 -46.350685 -200 45 -200 45 -200 45
2151550991.832 -2.6437111 -46.367725 -200 45 -200 45 -200 45
2152551108.5181 -2.6476192 -46.405109 -200 45 -200 45 -200 45
2153551225.2042 -2.6532938 -46.428284 -200 45 -200 45 -200 45
2154551341.8903 -2.6600573 -46.484959 -200 45 -200 45 -200 45
2155551458.5764 -2.661196 -46.547485 -200 45 -200 45 -200 45
2156551575.2625 -2.6631098 -46.595016 -200 45 -200 45 -200 45
2157551691.9487 -2.6672938 -46.632584 -200 45 -200 45 -200 45
2158551808.6348 -2.6729546 -46.704266 -200 45 -200 45 -200 45
2159551925.3209 -2.6757329 -46.76112 -200 45 -200 45 -200 45
2160552042.007 -2.6781514 -46.837685 -200 45 -200 45 -200 45
2161552158.6931 -2.6755497 -46.905773 -200 45 -200 45 -200 45
2162552275.3792 -2.6792114 -46.978401 -200 45 -200 45 -200 45
2163552392.0653 -2.6832285 -47.050247 -200 45 -200 45 -200 45
2164552508.7515 -2.6848719 -47.121601 -200 45 -200 45 -200 45
2165552625.4376 -2.6858597 -47.222637 -200 45 -200 45 -200 45
2166552742.1237 -2.688539 -47.281578 -200 45 -200 45 -200 45
2167552858.8098 -2.6906633 -47.352932 -200 45 -200 45 -200 45
2168552975.4959 -2.6901863 -47.440311 -200 45 -200 45 -200 45
2169553092.182 -2.6924872 -47.506706 -200 45 -200 45 -200 45
2170553208.8681 -2.6924882 -47.57391 -200 45 -200 45 -200 45
2171553325.5543 -2.6924477 -47.655304 -200 45 -200 45 -200 45
2172553442.2404 -2.6885912 -47.734661 -200 45 -200 45 -200 45
2173553558.9265 -2.6878202 -47.798405 -200 45 -200 45 -200 45
2174553675.6126 -2.6885169 -47.866142 -200 45 -200 45 -200 45
2175553792.2987 -2.6877279 -47.935291 -200 45 -200 45 -200 45
2176553908.9848 -2.6866028 -47.999851 -200 45 -200 45 -200 45
2177554025.6709 -2.6783402 -48.074455 -200 45 -200 45 -200 45
2178554142.3571 -2.6755512 -48.137695 -200 45 -200 45 -200 45
2179554259.0432 -2.6765125 -48.201084 -200 45 -200 45 -200 45
2180554375.7293 -2.6707163 -48.244911 -200 45 -200 45 -200 45
2181554492.4154 -2.6700585 -48.30072 -200 45 -200 45 -200 45
2182554609.1015 -2.6639969 -48.337532 -200 45 -200 45 -200 45
2183554725.7876 -2.6632876 -48.395348 -200 45 -200 45 -200 45
2184554842.4737 -2.6611173 -48.418171 -200 45 -200 45 -200 45
2185554959.1599 -2.660567 -48.452564 -200 45 -200 45 -200 45
2186555075.846 -2.6570847 -48.499748 -200 45 -200 45 -200 45
2187555192.5321 -2.6543021 -48.506222 -200 45 -200 45 -200 45
2188555309.2182 -2.6509504 -48.52335 -200 45 -200 45 -200 45
2189555425.9043 -2.646204 -48.544331 -200 45 -200 45 -200 45
2190555542.5904 -2.6454375 -48.544659 -200 45 -200 45 -200 45
2191555659.2765 -2.6409578 -48.565437 -200 45 -200 45 -200 45
2192555775.9627 -2.6374443 -48.576511 -200 45 -200 45 -200 45
2193555892.6488 -2.6318173 -48.563004 -200 45 -200 45 -200 45
2194556009.3349 -2.6281457 -48.557693 -200 45 -200 45 -200 45
2195556126.021 -2.6247268 -48.562447 -200 45 -200 45 -200 45
2196556242.7071 -2.6220779 -48.538734 -200 45 -200 45 -200 45
2197556359.3932 -2.6152709 -48.524258 -200 45 -200 45 -200 45
2198556476.0793 -2.6186488 -48.495052 -200 45 -200 45 -200 45
2199556592.7655 -2.6157658 -48.459686 -200 45 -200 45 -200 45
2200556709.4516 -2.6162088 -48.425465 -200 45 -200 45 -200 45
2201556826.1377 -2.6161625 -48.411274 -200 45 -200 45 -200 45
2202556942.8238 -2.614846 -48.364639 -200 45 -200 45 -200 45
2203557059.5099 -2.6158087 -48.324871 -200 45 -200 45 -200 45
2204557176.196 -2.6172633 -48.286533 -200 45 -200 45 -200 45
2205557292.8821 -2.6137216 -48.235416 -200 45 -200 45 -200 45
2206557409.5683 -2.6135137 -48.20364 -200 45 -200 45 -200 45
2207557526.2544 -2.6167974 -48.142769 -200 45 -200 45 -200 45
2208557642.9405 -2.6156321 -48.09713 -200 45 -200 45 -200 45
2209557759.6266 -2.6119788 -48.050426 -200 45 -200 45 -200 45
2210557876.3127 -2.6119812 -47.999187 -200 45 -200 45 -200 45
2211557992.9988 -2.6137803 -47.956024 -200 45 -200 45 -200 45
2212558109.6849 -2.6155384 -47.892529 -200 45 -200 45 -200 45
2213558226.3711 -2.6147301 -47.85865 -200 45 -200 45 -200 45
2214558343.0572 -2.6172841 -47.819813 -200 45 -200 45 -200 45
2215558459.7433 -2.6216159 -47.764145 -200 45 -200 45 -200 45
2216558576.4294 -2.6258657 -47.726654 -200 45 -200 45 -200 45
2217558693.1155 -2.6301894 -47.68697 -200 45 -200 45 -200 45
2218558809.8016 -2.6343181 -47.640621 -200 45 -200 45 -200 45
2219558926.4877 -2.6389117 -47.61974 -200 45 -200 45 -200 45
2220559043.1739 -2.6399984 -47.582085 -200 45 -200 45 -200 45
2221559159.86 -2.6455424 -47.550816 -200 45 -200 45 -200 45
2222559276.5461 -2.6482022 -47.531036 -200 45 -200 45 -200 45
2223559393.2322 -2.6531794 -47.507111 -200 45 -200 45 -200 45
2224559509.9183 -2.6591175 -47.485107 -200 45 -200 45 -200 45
2225559626.6044 -2.6611755 -47.478302 -200 45 -200 45 -200 45
2226559743.2905 -2.6613986 -47.470692 -200 45 -200 45 -200 45
2227559859.9767 -2.6672373 -47.473465 -200 45 -200 45 -200 45
2228559976.6628 -2.672833 -47.464649 -200 45 -200 45 -200 45
2229560093.3489 -2.677129 -47.460117 -200 45 -200 45 -200 45
2230560210.035 -2.6834548 -47.485092 -200 45 -200 45 -200 45
2231560326.7211 -2.6888924 -47.485733 -200 45 -200 45 -200 45
2232560443.4072 -2.6930676 -47.514484 -200 45 -200 45 -200 45
2233560560.0933 -2.6997752 -47.532215 -200 45 -200 45 -200 45
2234560676.7795 -2.7074268 -47.564541 -200 45 -200 45 -200 45
2235560793.4656 -2.7119293 -47.58046 -200 45 -200 45 -200 45
2236560910.1517 -2.7198555 -47.631241 -200 45 -200 45 -200 45
2237561026.8378 -2.720629 -47.689072 -200 45 -200 45 -200 45
2238561143.5239 -2.726609 -47.722267 -200 45 -200 45 -200 45
2239561260.21 -2.7301323 -47.786602 -200 45 -200 45 -200 45
2240561376.8961 -2.7327094 -47.829247 -200 45 -200 45 -200 45
2241561493.5823 -2.7364156 -47.897232 -200 45 -200 45 -200 45
2242561610.2684 -2.7391567 -47.954041 -200 45 -200 45 -200 45
2243561726.9545 -2.7405787 -48.020496 -200 45 -200 45 -200 45
2244561843.6406 -2.7444537 -48.101871 -200 45 -200 45 -200 45
2245561960.3267 -2.7459714 -48.173962 -200 45 -200 45 -200 45
2246562077.0128 -2.7477624 -48.234234 -200 45 -200 45 -200 45
2247562193.6989 -2.7522845 -48.308834 -200 45 -200 45 -200 45
2248562310.3851 -2.7535214 -48.394375 -200 45 -200 45 -200 45
2249562427.0712 -2.7580059 -48.471291 -200 45 -200 45 -200 45
2250562543.7573 -2.7589679 -48.539875 -200 45 -200 45 -200 45
2251562660.4434 -2.7603998 -48.605167 -200 45 -200 45 -200 45
2252562777.1295 -2.7614908 -48.70443 -200 45 -200 45 -200 45
2253562893.8156 -2.7611213 -48.786568 -200 45 -200 45 -200 45
2254563010.5018 -2.7597589 -48.859661 -200 45 -200 45 -200 45
2255563127.1879 -2.7606115 -48.950703 -200 45 -200 45 -200 45
2256563243.874 -2.7587001 -49.032585 -200 45 -200 45 -200 45
2257563360.5601 -2.7588081 -49.102272 -200 45 -200 45 -200 45
2258563477.2462 -2.7528081 -49.191574 -200 45 -200 45 -200 45
2259563593.9323 -2.7499614 -49.261616 -200 45 -200 45 -200 45
2260563710.6184 -2.7502935 -49.347191 -200 45 -200 45 -200 45
2261563827.3046 -2.7461302 -49.397419 -200 45 -200 45 -200 45
2262563943.9907 -2.7441854 -49.487289 -200 45 -200 45 -200 45
2263564060.6768 -2.7398016 -49.539928 -200 45 -200 45 -200 45
2264564177.3629 -2.7403946 -49.594498 -200 45 -200 45 -200 45
2265564294.049 -2.7368109 -49.642479 -200 45 -200 45 -200 45
2266564410.7351 -2.7354271 -49.684483 -200 45 -200 45 -200 45
2267564527.4212 -2.7348509 -49.736244 -200 45 -200 45 -200 45
2268564644.1074 -2.7290583 -49.771084 -200 45 -200 45 -200 45
2269564760.7935 -2.724112 -49.828648 -200 45 -200 45 -200 45
2270564877.4796 -2.7178698 -49.838535 -200 45 -200 45 -200 45
2271564994.1657 -2.7165689 -49.869015 -200 45 -200 45 -200 45
2272565110.8518 -2.7147839 -49.907761 -200 45 -200 45 -200 45
2273565227.5379 -2.7089431 -49.921532 -200 45 -200 45 -200 45
2274565344.224 -2.699353 -49.926418 -200 45 -200 45 -200 45
2275565460.9102 -2.6952627 -49.932297 -200 45 -200 45 -200 45
2276565577.5963 -2.6953406 -49.936222 -200 45 -200 45 -200 45
2277565694.2824 -2.6920128 -49.94265 -200 45 -200 45 -200 45
2278565810.9685 -2.6857679 -49.928078 -200 45 -200 45 -200 45
2279565927.6546 -2.6830053 -49.920895 -200 45 -200 45 -200 45
2280566044.3407 -2.680727 -49.886505 -200 45 -200 45 -200 45
2281566161.0268 -2.6803308 -49.870483 -200 45 -200 45 -200 45
2282566277.713 -2.6758618 -49.846249 -200 45 -200 45 -200 45
2283566394.3991 -2.6774042 -49.803394 -200 45 -200 45 -200 45
2284566511.0852 -2.6737375 -49.778244 -200 45 -200 45 -200 45
2285566627.7713 -2.6701982 -49.742687 -200 45 -200 45 -200 45
2286566744.4574 -2.6688063 -49.701015 -200 45 -200 45 -200 45
2287566861.1435 -2.6693366 -49.653347 -200 45 -200 45 -200 45
2288566977.8296 -2.6689312 -49.605911 -200 45 -200 45 -200 45
2289567094.5158 -2.6651859 -49.576073 -200 45 -200 45 -200 45
2290567211.2019 -2.6628428 -49.530651 -200 45 -200 45 -200 45
2291567327.888 -2.6616461 -49.476742 -200 45 -200 45 -200 45
2292567444.5741 -2.6629052 -49.419731 -200 45 -200 45 -200 45
2293567561.2602 -2.6629503 -49.376286 -200 45 -200 45 -200 45
2294567677.9463 -2.663486 -49.329384 -200 45 -200 45 -200 45
2295567794.6324 -2.6671805 -49.270363 -200 45 -200 45 -200 45
2296567911.3186 -2.6677048 -49.231194 -200 45 -200 45 -200 45
2297568028.0047 -2.6701145 -49.16608 -200 45 -200 45 -200 45
2298568144.6908 -2.6746738 -49.113518 -200 45 -200 45 -200 45
2299568261.3769 -2.6805985 -49.068447 -200 45 -200 45 -200 45
2300568378.063 -2.6801858 -49.02158 -200 45 -200 45 -200 45
2301568494.7491 -2.6852095 -48.975155 -200 45 -200 45 -200 45
2302568611.4352 -2.687207 -48.935646 -200 45 -200 45 -200 45
2303568728.1214 -2.6924508 -48.903713 -200 45 -200 45 -200 45
2304568844.8075 -2.6985834 -48.850544 -200 45 -200 45 -200 45
2305568961.4936 -2.7003329 -48.821323 -200 45 -200 45 -200 45
2306569078.1797 -2.7016799 -48.818359 -200 45 -200 45 -200 45
2307569194.8658 -2.7058516 -48.788082 -200 45 -200 45 -200 45
2308569311.5519 -2.7122583 -48.746559 -200 45 -200 45 -200 45
2309569428.238 -2.7156932 -48.745785 -200 45 -200 45 -200 45
2310569544.9242 -2.7229276 -48.731277 -200 45 -200 45 -200 45
2311569661.6103 -2.7302036 -48.731464 -200 45 -200 45 -200 45
2312569778.2964 -2.7331407 -48.719818 -200 45 -200 45 -200 45
2313569894.9825 -2.7413538 -48.714279 -200 45 -200 45 -200 45
2314570011.6686 -2.7464907 -48.72683 -200 45 -200 45 -200 45
2315570128.3547 -2.7563479 -48.729015 -200 45 -200 45 -200 45
2316570245.0408 -2.7604375 -48.76136 -200 45 -200 45 -200 45
2317570361.727 -2.765367 -48.781036 -200 45 -200 45 -200 45
2318570478.4131 -2.7717948 -48.823009 -200 45 -200 45 -200 45
2319570595.0992 -2.7778876 -48.858574 -200 45 -200 45 -200 45
2320570711.7853 -2.7814105 -48.879009 -200 45 -200 45 -200 45
2321570828.4714 -2.7894776 -48.931606 -200 45 -200 45 -200 45
2322570945.1575 -2.7893693 -49.005894 -200 45 -200 45 -200 45
2323571061.8436 -2.7931862 -49.039494 -200 45 -200 45 -200 45
2324571178.5298 -2.7981558 -49.095055 -200 45 -200 45 -200 45
2325571295.2159 -2.8023076 -49.164539 -200 45 -200 45 -200 45
2326571411.902 -2.8058825 -49.228897 -200 45 -200 45 -200 45
2327571528.5881 -2.8103449 -49.308796 -200 45 -200 45 -200 45
2328571645.2742 -2.8140788 -49.377712 -200 45 -200 45 -200 45
2329571761.9603 -2.8170514 -49.457993 -200 45 -200 45 -200 45
2330571878.6464 -2.8223474 -49.529057 -200 45 -200 45 -200 45
2331571995.3326 -2.8280244 -49.625656 -200 45 -200 45 -200 45
2332572112.0187 -2.8280661 -49.696815 -200 45 -200 45 -200 45
2333572228.7048 -2.8301775 -49.794411 -200 45 -200 45 -200 45
2334572345.3909 -2.8295734 -49.873371 -200 45 -200 45 -200 45
2335572462.077 -2.8304224 -49.959553 -200 45 -200 45 -200 45
2336572578.7631 -2.836585 -50.056404 -200 45 -200 45 -200 45
2337572695.4492 -2.8319848 -50.15123 -200 45 -200 45 -200 45
2338572812.1354 -2.829859 -50.244694 -200 45 -200 45 -200 45
2339572928.8215 -2.8284633 -50.324249 -200 45 -200 45 -200 45
2340573045.5076 -2.8265407 -50.410694 -200 45 -200 45 -200 45
2341573162.1937 -2.8251488 -50.506489 -200 45 -200 45 -200 45
2342573278.8798 -2.8264196 -50.576515 -200 45 -200 45 -200 45
2343573395.5659 -2.8200998 -50.677967 -200 45 -200 45 -200 45
2344573512.252 -2.8197541 -50.73777 -200 45 -200 45 -200 45
2345573628.9382 -2.8199909 -50.817173 -200 45 -200 45 -200 45
2346573745.6243 -2.8185813 -50.887409 -200 45 -200 45 -200 45
2347573862.3104 -2.8168201 -50.949329 -200 45 -200 45 -200 45
2348573978.9965 -2.8145015 -51.018936 -200 45 -200 45 -200 45
2349574095.6826 -2.8117354 -51.054127 -200 45 -200 45 -200 45
2350574212.3687 -2.8060069 -51.117268 -200 45 -200 45 -200 45
2351574329.0548 -2.8005772 -51.173473 -200 45 -200 45 -200 45
2352574445.741 -2.7999034 -51.225079 -200 45 -200 45 -200 45
2353574562.4271 -2.7962668 -51.255661 -200 45 -200 45 -200 45
2354574679.1132 -2.7864354 -51.294456 -200 45 -200 45 -200 45
2355574795.7993 -2.7827313 -51.319168 -200 45 -200 45 -200 45
2356574912.4854 -2.7775338 -51.347965 -200 45 -200 45 -200 45
2357575029.1715 -2.7734702 -51.378906 -200 45 -200 45 -200 45
2358575145.8576 -2.767904 -51.378532 -200 45 -200 45 -200 45
2359575262.5438 -2.7643449 -51.395279 -200 45 -200 45 -200 45
2360575379.2299 -2.761529 -51.393993 -200 45 -200 45 -200 45
2361575495.916 -2.7590301 -51.374653 -200 45 -200 45 -200 45
2362575612.6021 -2.7552342 -51.382256 -200 45 -200 45 -200 45
2363575729.2882 -2.7534394 -51.36171 -200 45 -200 45 -200 45
2364575845.9743 -2.7513249 -51.327892 -200 45 -200 45 -200 45
2365575962.6604 -2.7482054 -51.313354 -200 45 -200 45 -200 45
2366576079.3466 -2.7450376 -51.290112 -200 45 -200 45 -200 45
2367576196.0327 -2.7437003 -51.257545 -200 45 -200 45 -200 45
2368576312.7188 -2.7412691 -51.203556 -200 45 -200 45 -200 45
2369576429.4049 -2.7385263 -51.164989 -200 45 -200 45 -200 45
2370576546.091 -2.7336993 -51.139179 -200 45 -200 45 -200 45
2371576662.7771 -2.7298567 -51.07328 -200 45 -200 45 -200 45
2372576779.4632 -2.7279696 -51.026886 -200 45 -200 45 -200 45
2373576896.1494 -2.7317262 -50.989506 -200 45 -200 45 -200 45
2374577012.8355 -2.7286067 -50.931484 -200 45 -200 45 -200 45
2375577129.5216 -2.7289162 -50.884613 -200 45 -200 45 -200 45
2376577246.2077 -2.7293873 -50.832241 -200 45 -200 45 -200 45
2377577362.8938 -2.7309246 -50.768604 -200 45 -200 45 -200 45
2378577479.5799 -2.7338588 -50.718182 -200 45 -200 45 -200 45
2379577596.266 -2.7358432 -50.651958 -200 45 -200 45 -200 45
2380577712.9522 -2.7410004 -50.602879 -200 45 -200 45 -200 45
2381577829.6383 -2.7403829 -50.544552 -200 45 -200 45 -200 45
2382577946.3244 -2.7455177 -50.489597 -200 45 -200 45 -200 45
2383578063.0105 -2.7494285 -50.445492 -200 45 -200 45 -200 45
2384578179.6966 -2.7523532 -50.390583 -200 45 -200 45 -200 45
2385578296.3827 -2.7550774 -50.346424 -200 45 -200 45 -200 45
2386578413.0688 -2.7567468 -50.283119 -200 45 -200 45 -200 45
2387578529.755 -2.7592611 -50.254719 -200 45 -200 45 -200 45
2388578646.4411 -2.7615643 -50.218834 -200 45 -200 45 -200 45
2389578763.1272 -2.7678561 -50.190819 -200 45 -200 45 -200 45
2390578879.8133 -2.7719345 -50.167252 -200 45 -200 45 -200 45
2391578996.4994 -2.7787974 -50.153637 -200 45 -200 45 -200 45
2392579113.1855 -2.7836692 -50.13184 -200 45 -200 45 -200 45
2393579229.8716 -2.7942092 -50.11132 -200 45 -200 45 -200 45
2394579346.5578 -2.7984176 -50.117275 -200 45 -200 45 -200 45
2395579463.2439 -2.8100507 -50.105148 -200 45 -200 45 -200 45
2396579579.93 -2.8164399 -50.10564 -200 45 -200 45 -200 45
2397579696.6161 -2.8219209 -50.101185 -200 45 -200 45 -200 45
2398579813.3022 -2.8272166 -50.117641 -200 45 -200 45 -200 45
2399579929.9883 -2.8340812 -50.135288 -200 45 -200 45 -200 45
2400580046.6744 -2.8418653 -50.156517 -200 45 -200 45 -200 45
2401580163.3606 -2.8458159 -50.187416 -200 45 -200 45 -200 45
2402580280.0467 -2.8530829 -50.22699 -200 45 -200 45 -200 45
2403580396.7328 -2.8586671 -50.266262 -200 45 -200 45 -200 45
2404580513.4189 -2.8610072 -50.32811 -200 45 -200 45 -200 45
2405580630.105 -2.8703625 -50.374817 -200 45 -200 45 -200 45
2406580746.7911 -2.875277 -50.440685 -200 45 -200 45 -200 45
2407580863.4772 -2.8816178 -50.497444 -200 45 -200 45 -200 45
2408580980.1634 -2.8888154 -50.577026 -200 45 -200 45 -200 45
2409581096.8495 -2.8958521 -50.652645 -200 45 -200 45 -200 45
2410581213.5356 -2.9026103 -50.729431 -200 45 -200 45 -200 45
2411581330.2217 -2.9112785 -50.797894 -200 45 -200 45 -200 45
2412581446.9078 -2.9161391 -50.873585 -200 45 -200 45 -200 45
2413581563.5939 -2.9210465 -50.948036 -200 45 -200 45 -200 45
2414581680.28 -2.9231071 -51.037632 -200 45 -200 45 -200 45
2415581796.9662 -2.9262042 -51.132332 -200 45 -200 45 -200 45
2416581913.6523 -2.9317253 -51.23481 -200 45 -200 45 -200 45
2417582030.3384 -2.9332459 -51.362762 -200 45 -200 45 -200 45
2418582147.0245 -2.9345114 -51.441643 -200 45 -200 45 -200 45
2419582263.7106 -2.9341319 -51.561859 -200 45 -200 45 -200 45
2420582380.3967 -2.9372108 -51.66132 -200 45 -200 45 -200 45
2421582497.0828 -2.9385941 -51.768238 -200 45 -200 45 -200 45
2422582613.769 -2.9399796 -51.875725 -200 45 -200 45 -200 45
2423582730.4551 -2.9446487 -51.994705 -200 45 -200 45 -200 45
2424582847.1412 -2.9445951 -52.10899 -200 45 -200 45 -200 45
2425582963.8273 -2.9495382 -52.186741 -200 45 -200 45 -200 45
2426583080.5134 -2.9487934 -52.298347 -200 45 -200 45 -200 45
2427583197.1995 -2.9519491 -52.368587 -200 45 -200 45 -200 45
2428583313.8856 -2.9538417 -52.470646 -200 45 -200 45 -200 45
2429583430.5718 -2.9541698 -52.563847 -200 45 -200 45 -200 45
2430583547.2579 -2.9539657 -52.639462 -200 45 -200 45 -200 45
2431583663.944 -2.9551153 -52.754429 -200 45 -200 45 -200 45
2432583780.6301 -2.9560523 -52.816944 -200 45 -200 45 -200 45
2433583897.3162 -2.9578371 -52.897705 -200 45 -200 45 -200 45
2434584014.0023 -2.9570546 -52.980965 -200 45 -200 45 -200 45
2435584130.6884 -2.9583836 -53.061512 -200 45 -200 45 -200 45
2436584247.3746 -2.9616351 -53.150482 -200 45 -200 45 -200 45
2437584364.0607 -2.9695439 -53.22459 -200 45 -200 45 -200 45
2438584480.7468 -2.973922 -53.280323 -200 45 -200 45 -200 45
2439584597.4329 -2.9862394 -53.338669 -200 45 -200 45 -200 45
2440584714.119 -2.9994347 -53.393017 -200 45 -200 45 -200 45
2441584830.8051 -3.018126 -53.415104 -200 45 -200 45 -200 45
2442584947.4912 -3.0413189 -53.407925 -200 45 -200 45 -200 45
2443585064.1774 -3.0684307 -53.363804 -200 45 -200 45 -200 45
2444585180.8635 -3.1022468 -53.249081 -200 45 -200 45 -200 45
2445585297.5496 -3.129447 -53.047169 -200 45 -200 45 -200 45
2446585414.2357 -3.1582711 -52.781555 -200 45 -200 45 -200 45
2447585530.9218 -3.1723442 -52.407066 -200 45 -200 45 -200 45
2448585647.6079 -3.1767097 -51.945683 -200 45 -200 45 -200 45
2449585764.294 -3.1509571 -51.47266 -200 45 -200 45 -200 45
2450585880.9802 -3.1021352 -51.142433 -200 45 -200 45 -200 45
2451585997.6663 -3.0511935 -50.956413 -200 45 -200 45 -200 45
2452586114.3524 -3.0073977 -50.846989 -200 45 -200 45 -200 45
2453586231.0385 -2.9717984 -50.720108 -200 45 -200 45 -200 45
2454586347.7246 -2.9353235 -50.658581 -200 45 -200 45 -200 45
2455586464.4107 -2.8959534 -50.629391 -200 45 -200 45 -200 45
2456586581.0968 -2.8662086 -50.672371 -200 45 -200 45 -200 45
2457586697.783 -2.8463223 -50.734928 -200 45 -200 45 -200 45
2458586814.4691 -2.8350208 -50.788055 -200 45 -200 45 -200 45
2459586931.1552 -2.8347185 -50.806675 -200 45 -200 45 -200 45
2460587047.8413 -2.8362069 -50.794167 -200 45 -200 45 -200 45
2461587164.5274 -2.8410213 -50.725849 -200 45 -200 45 -200 45
2462587281.2135 -2.8342776 -50.644741 -200 45 -200 45 -200 45
2463587397.8997 -2.8296316 -50.595737 -200 45 -200 45 -200 45
2464587514.5858 -2.8274143 -50.521812 -200 45 -200 45 -200 45
2465587631.2719 -2.8256586 -50.45438 -200 45 -200 45 -200 45
2466587747.958 -2.8240685 -50.361843 -200 45 -200 45 -200 45
2467587864.6441 -2.8082457 -50.261299 -200 45 -200 45 -200 45
2468587981.3302 -2.7933133 -50.215809 -200 45 -200 45 -200 45
2469588098.0163 -2.7826636 -50.214344 -200 45 -200 45 -200 45
2470588214.7025 -2.7783806 -50.247707 -200 45 -200 45 -200 45
2471588331.3886 -2.7761707 -50.252666 -200 45 -200 45 -200 45
2472588448.0747 -2.7770867 -50.267406 -200 45 -200 45 -200 45
2473588564.7608 -2.7812622 -50.275799 -200 45 -200 45 -200 45
2474588681.4469 -2.7857711 -50.284641 -200 45 -200 45 -200 45
2475588798.133 -2.7897182 -50.29171 -200 45 -200 45 -200 45
2476588914.8191 -2.7967489 -50.299843 -200 45 -200 45 -200 45
2477589031.5053 -2.8013833 -50.31287 -200 45 -200 45 -200 45
2478589148.1914 -2.8080292 -50.320175 -200 45 -200 45 -200 45
2479589264.8775 -2.8122339 -50.342636 -200 45 -200 45 -200 45
2480589381.5636 -2.8178315 -50.367443 -200 45 -200 45 -200 45
2481589498.2497 -2.8252406 -50.392372 -200 45 -200 45 -200 45
2482589614.9358 -2.8323703 -50.43013 -200 45 -200 45 -200 45
2483589731.6219 -2.8347783 -50.471111 -200 45 -200 45 -200 45
2484589848.3081 -2.840034 -50.508003 -200 45 -200 45 -200 45
2485589964.9942 -2.8461523 -50.571434 -200 45 -200 45 -200 45
2486590081.6803 -2.8549936 -50.614613 -200 45 -200 45 -200 45
2487590198.3664 -2.8611922 -50.677025 -200 45 -200 45 -200 45
2488590315.0525 -2.8680415 -50.730167 -200 45 -200 45 -200 45
2489590431.7386 -2.8737185 -50.803074 -200 45 -200 45 -200 45
2490590548.4247 -2.8822656 -50.854588 -200 45 -200 45 -200 45
2491590665.1109 -2.88866 -50.919746 -200 45 -200 45 -200 45
2492590781.797 -2.8958127 -51.028572 -200 45 -200 45 -200 45
2493590898.4831 -2.9002948 -51.10775 -200 45 -200 45 -200 45
2494591015.1692 -2.9063811 -51.196362 -200 45 -200 45 -200 45
2495591131.8553 -2.9070985 -51.292431 -200 45 -200 45 -200 45
2496591248.5414 -2.912528 -51.402466 -200 45 -200 45 -200 45
2497591365.2275 -2.9174576 -51.492733 -200 45 -200 45 -200 45
2498591481.9137 -2.920975 -51.610455 -200 45 -200 45 -200 45
2499591598.5998 -2.9238558 -51.724861 -200 45 -200 45 -200 45
2500591715.2859 -2.923872 -51.829185 -200 45 -200 45 -200 45
2501591831.972 -2.925308 -51.940674 -200 45 -200 45 -200 45
2502591948.6581 -2.9286647 -52.052883 -200 45 -200 45 -200 45
2503592065.3442 -2.9304001 -52.169678 -200 45 -200 45 -200 45
2504592182.0303 -2.9304559 -52.289551 -200 45 -200 45 -200 45
2505592298.7165 -2.9340937 -52.395973 -200 45 -200 45 -200 45
2506592415.4026 -2.9335439 -52.505318 -200 45 -200 45 -200 45
2507592532.0887 -2.9352808 -52.631962 -200 45 -200 45 -200 45
2508592648.7748 -2.9349658 -52.731392 -200 45 -200 45 -200 45
2509592765.4609 -2.9336233 -52.822365 -200 45 -200 45 -200 45
2510592882.147 -2.9325364 -52.951595 -200 45 -200 45 -200 45
2511592998.8331 -2.9293475 -53.052711 -200 45 -200 45 -200 45
2512593115.5193 -2.9258986 -53.140156 -200 45 -200 45 -200 45
2513593232.2054 -2.9233954 -53.2304 -200 45 -200 45 -200 45
2514593348.8915 -2.9184256 -53.328625 -200 45 -200 45 -200 45
2515593465.5776 -2.9126754 -53.419239 -200 45 -200 45 -200 45
2516593582.2637 -2.9105427 -53.515331 -200 45 -200 45 -200 45
2517593698.9498 -2.9065394 -53.572628 -200 45 -200 45 -200 45
2518593815.6359 -2.9006598 -53.669689 -200 45 -200 45 -200 45
2519593932.3221 -2.8992295 -53.717064 -200 45 -200 45 -200 45
2520594049.0082 -2.8952789 -53.780968 -200 45 -200 45 -200 45
2521594165.6943 -2.8901346 -53.823612 -200 45 -200 45 -200 45
2522594282.3804 -2.8876345 -53.859962 -200 45 -200 45 -200 45
2523594399.0665 -2.8847072 -53.910069 -200 45 -200 45 -200 45
2524594515.7526 -2.8794665 -53.94836 -200 45 -200 45 -200 45
2525594632.4387 -2.8783164 -53.979614 -200 45 -200 45 -200 45
2526594749.1249 -2.8716691 -53.998798 -200 45 -200 45 -200 45
2527594865.811 -2.8673627 -54.035049 -200 45 -200 45 -200 45
2528594982.4971 -2.8670199 -54.022793 -200 45 -200 45 -200 45
2529595099.1832 -2.8602915 -54.038738 -200 45 -200 45 -200 45
2530595215.8693 -2.8595128 -54.032585 -200 45 -200 45 -200 45
2531595332.5554 -2.8522995 -54.036518 -200 45 -200 45 -200 45
2532595449.2415 -2.8492918 -54.031864 -200 45 -200 45 -200 45
2533595565.9277 -2.8492403 -54.015709 -200 45 -200 45 -200 45
2534595682.6138 -2.8473744 -53.986771 -200 45 -200 45 -200 45
2535595799.2999 -2.8454316 -53.976276 -200 45 -200 45 -200 45
2536595915.986 -2.8444059 -53.951244 -200 45 -200 45 -200 45
2537596032.6721 -2.8492358 -53.905052 -200 45 -200 45 -200 45
2538596149.3582 -2.8461015 -53.890347 -200 45 -200 45 -200 45
2539596266.0443 -2.8511035 -53.839077 -200 45 -200 45 -200 45
2540596382.7305 -2.8554401 -53.812286 -200 45 -200 45 -200 45
2541596499.4166 -2.857501 -53.775101 -200 45 -200 45 -200 45
2542596616.1027 -2.8589237 -53.738461 -200 45 -200 45 -200 45
2543596732.7888 -2.8641586 -53.698925 -200 45 -200 45 -200 45
2544596849.4749 -2.8707294 -53.659191 -200 45 -200 45 -200 45
2545596966.161 -2.877568 -53.616219 -200 45 -200 45 -200 45
2546597082.8471 -2.8817706 -53.599701 -200 45 -200 45 -200 45
2547597199.5333 -2.8898849 -53.583847 -200 45 -200 45 -200 45
2548597316.2194 -2.9012182 -53.561501 -200 45 -200 45 -200 45
2549597432.9055 -2.9117429 -53.529755 -200 45 -200 45 -200 45
2550597549.5916 -2.9261489 -53.531387 -200 45 -200 45 -200 45
2551597666.2777 -2.9422612 -53.508415 -200 45 -200 45 -200 45
2552597782.9638 -2.9625769 -53.533932 -200 45 -200 45 -200 45
2553597899.6499 -2.9844997 -53.534313 -200 45 -200 45 -200 45
2554598016.3361 -3.011219 -53.545967 -200 45 -200 45 -200 45
2555598133.0222 -3.0427077 -53.55064 -200 45 -200 45 -200 45
2556598249.7083 -3.0832112 -53.604671 -200 45 -200 45 -200 45
2557598366.3944 -3.1296101 -53.623611 -200 45 -200 45 -200 45
2558598483.0805 -3.1888673 -53.647202 -200 45 -200 45 -200 45
2559598599.7666 -3.2606885 -53.601036 -200 45 -200 45 -200 45
2560598716.4527 -3.3492091 -53.452259 -200 45 -200 45 -200 45
2561598833.1389 -3.4521453 -53.056046 -200 45 -200 45 -200 45
2562598949.825 -3.5387383 -52.347546 -200 45 -200 45 -200 45
2563599066.5111 -3.5701995 -51.459873 -200 45 -200 45 -200 45
2564599183.1972 -3.5569389 -50.642464 -200 45 -200 45 -200 45
2565599299.8833 -3.5162187 -49.990681 -200 45 -200 45 -200 45
2566599416.5694 -3.4645452 -49.473351 -200 45 -200 45 -200 45
2567599533.2555 -3.3938267 -49.100132 -200 45 -200 45 -200 45
2568599649.9417 -3.3226829 -48.9398 -200 45 -200 45 -200 45
2569599766.6278 -3.2695243 -48.929462 -200 45 -200 45 -200 45
2570599883.3139 -3.2339234 -48.949909 -200 45 -200 45 -200 45
2571600000 -3.2089543 -48.917217 -200 45 -200 45 -200 45
2572600116.6861 -3.1825166 -48.888851 -200 45 -200 45 -200 45
2573600233.3722 -3.1464496 -48.825596 -200 45 -200 45 -200 45
2574600350.0583 -3.1017122 -48.783657 -200 45 -200 45 -200 45
2575600466.7445 -3.045568 -48.869244 -200 45 -200 45 -200 45
2576600583.4306 -2.9965379 -49.06588 -200 45 -200 45 -200 45
2577600700.1167 -2.9557307 -49.35416 -200 45 -200 45 -200 45
2578600816.8028 -2.9362059 -49.662212 -200 45 -200 45 -200 45
2579600933.4889 -2.917598 -49.945976 -200 45 -200 45 -200 45
2580601050.175 -2.9114039 -50.21838 -200 45 -200 45 -200 45
2581601166.8611 -2.9046063 -50.456661 -200 45 -200 45 -200 45
2582601283.5473 -2.9031115 -50.692421 -200 45 -200 45 -200 45
2583601400.2334 -2.9017313 -50.910854 -200 45 -200 45 -200 45
2584601516.9195 -2.902775 -51.120831 -200 45 -200 45 -200 45
2585601633.6056 -2.9036741 -51.290848 -200 45 -200 45 -200 45
2586601750.2917 -2.9003923 -51.48175 -200 45 -200 45 -200 45
2587601866.9778 -2.9043391 -51.668812 -200 45 -200 45 -200 45
2588601983.6639 -2.9066825 -51.858189 -200 45 -200 45 -200 45
2589602100.3501 -2.9064646 -52.0079 -200 45 -200 45 -200 45
2590602217.0362 -2.9042096 -52.165272 -200 45 -200 45 -200 45
2591602333.7223 -2.903372 -52.335144 -200 45 -200 45 -200 45
2592602450.4084 -2.9003246 -52.472958 -200 45 -200 45 -200 45
2593602567.0945 -2.8970156 -52.611256 -200 45 -200 45 -200 45
2594602683.7806 -2.8950768 -52.754684 -200 45 -200 45 -200 45
2595602800.4667 -2.8936985 -52.877705 -200 45 -200 45 -200 45
2596602917.1529 -2.8870175 -53.004322 -200 45 -200 45 -200 45
2597603033.839 -2.882915 -53.107967 -200 45 -200 45 -200 45
2598603150.5251 -2.876303 -53.222061 -200 45 -200 45 -200 45
2599603267.2112 -2.8730311 -53.335197 -200 45 -200 45 -200 45
2600603383.8973 -2.8705971 -53.425385 -200 45 -200 45 -200 45
2601603500.5834 -2.8653963 -53.519539 -200 45 -200 45 -200 45
2602603617.2695 -2.8603799 -53.622467 -200 45 -200 45 -200 45
2603603733.9557 -2.8544691 -53.705254 -200 45 -200 45 -200 45
2604603850.6418 -2.8497751 -53.768562 -200 45 -200 45 -200 45
2605603967.3279 -2.8410506 -53.842503 -200 45 -200 45 -200 45
2606604084.014 -2.8351099 -53.896912 -200 45 -200 45 -200 45
2607604200.7001 -2.8299117 -53.947929 -200 45 -200 45 -200 45
2608604317.3862 -2.8265467 -53.985035 -200 45 -200 45 -200 45
2609604434.0723 -2.8198566 -54.033802 -200 45 -200 45 -200 45
2610604550.7585 -2.8124073 -54.066906 -200 45 -200 45 -200 45
2611604667.4446 -2.8041492 -54.077572 -200 45 -200 45 -200 45
2612604784.1307 -2.7960284 -54.107296 -200 45 -200 45 -200 45
2613604900.8168 -2.7920158 -54.103237 -200 45 -200 45 -200 45
2614605017.5029 -2.7859259 -54.111885 -200 45 -200 45 -200 45
2615605134.189 -2.7811134 -54.108978 -200 45 -200 45 -200 45
2616605250.8751 -2.7747102 -54.08939 -200 45 -200 45 -200 45
2617605367.5613 -2.7728441 -54.070957 -200 45 -200 45 -200 45
2618605484.2474 -2.7667339 -54.047459 -200 45 -200 45 -200 45
2619605600.9335 -2.7670972 -54.013733 -200 45 -200 45 -200 45
2620605717.6196 -2.7637315 -53.985992 -200 45 -200 45 -200 45
2621605834.3057 -2.7554367 -53.939495 -200 45 -200 45 -200 45
2622605950.9918 -2.7540035 -53.894817 -200 45 -200 45 -200 45
2623606067.6779 -2.7524645 -53.856121 -200 45 -200 45 -200 45
2624606184.3641 -2.7478049 -53.813919 -200 45 -200 45 -200 45
2625606301.0502 -2.746876 -53.739742 -200 45 -200 45 -200 45
2626606417.7363 -2.7460766 -53.694359 -200 45 -200 45 -200 45
2627606534.4224 -2.7403169 -53.647209 -200 45 -200 45 -200 45
2628606651.1085 -2.7382607 -53.589825 -200 45 -200 45 -200 45
2629606767.7946 -2.7392924 -53.515968 -200 45 -200 45 -200 45
2630606884.4807 -2.744127 -53.466465 -200 45 -200 45 -200 45
2631607001.1669 -2.7401986 -53.399876 -200 45 -200 45 -200 45
2632607117.853 -2.7441196 -53.340672 -200 45 -200 45 -200 45
2633607234.5391 -2.7462592 -53.277733 -200 45 -200 45 -200 45
2634607351.2252 -2.7500975 -53.208076 -200 45 -200 45 -200 45
2635607467.9113 -2.752291 -53.165401 -200 45 -200 45 -200 45
2636607584.5974 -2.757165 -53.102535 -200 45 -200 45 -200 45
2637607701.2835 -2.7592831 -53.06617 -200 45 -200 45 -200 45
2638607817.9697 -2.7642975 -53.006313 -200 45 -200 45 -200 45
2639607934.6558 -2.7670512 -52.959267 -200 45 -200 45 -200 45
2640608051.3419 -2.7744625 -52.912834 -200 45 -200 45 -200 45
2641608168.028 -2.7793021 -52.865677 -200 45 -200 45 -200 45
2642608284.7141 -2.7822068 -52.855602 -200 45 -200 45 -200 45
2643608401.4002 -2.7877128 -52.829624 -200 45 -200 45 -200 45
2644608518.0863 -2.7944093 -52.803223 -200 45 -200 45 -200 45
2645608634.7725 -2.7999434 -52.780132 -200 45 -200 45 -200 45
2646608751.4586 -2.805793 -52.760925 -200 45 -200 45 -200 45
2647608868.1447 -2.8120105 -52.775814 -200 45 -200 45 -200 45
2648608984.8308 -2.820379 -52.776997 -200 45 -200 45 -200 45
2649609101.5169 -2.8274996 -52.792839 -200 45 -200 45 -200 45
2650609218.203 -2.8332863 -52.80304 -200 45 -200 45 -200 45
2651609334.8891 -2.8434243 -52.821964 -200 45 -200 45 -200 45
2652609451.5753 -2.8509743 -52.828045 -200 45 -200 45 -200 45
2653609568.2614 -2.857615 -52.87513 -200 45 -200 45 -200 45
2654609684.9475 -2.8635836 -52.922466 -200 45 -200 45 -200 45
2655609801.6336 -2.871305 -52.965298 -200 45 -200 45 -200 45
2656609918.3197 -2.8776424 -53.015709 -200 45 -200 45 -200 45
2657610035.0058 -2.8838711 -53.071892 -200 45 -200 45 -200 45
2658610151.6919 -2.8897994 -53.140759 -200 45 -200 45 -200 45
2659610268.3781 -2.8960886 -53.225227 -200 45 -200 45 -200 45
2660610385.0642 -2.898685 -53.308571 -200 45 -200 45 -200 45
2661610501.7503 -2.9049463 -53.390141 -200 45 -200 45 -200 45
2662610618.4364 -2.9134374 -53.477306 -200 45 -200 45 -200 45
2663610735.1225 -2.9153004 -53.567093 -200 45 -200 45 -200 45
2664610851.8086 -2.9196587 -53.651936 -200 45 -200 45 -200 45
2665610968.4947 -2.9240577 -53.756115 -200 45 -200 45 -200 45
2666611085.1809 -2.9280097 -53.865986 -200 45 -200 45 -200 45
2667611201.867 -2.9341862 -53.965618 -200 45 -200 45 -200 45
2668611318.5531 -2.9380946 -54.076141 -200 45 -200 45 -200 45
2669611435.2392 -2.9377234 -54.197887 -200 45 -200 45 -200 45
2670611551.9253 -2.9391558 -54.316795 -200 45 -200 45 -200 45
2671611668.6114 -2.940758 -54.40501 -200 45 -200 45 -200 45
2672611785.2975 -2.9424589 -54.533993 -200 45 -200 45 -200 45
2673611901.9837 -2.939872 -54.638275 -200 45 -200 45 -200 45
2674612018.6698 -2.9395485 -54.757133 -200 45 -200 45 -200 45
2675612135.3559 -2.935008 -54.853477 -200 45 -200 45 -200 45
2676612252.042 -2.9345429 -54.979107 -200 45 -200 45 -200 45
2677612368.7281 -2.929997 -55.074909 -200 45 -200 45 -200 45
2678612485.4142 -2.930362 -55.182701 -200 45 -200 45 -200 45
2679612602.1004 -2.9239516 -55.286026 -200 45 -200 45 -200 45
2680612718.7865 -2.9258614 -55.379971 -200 45 -200 45 -200 45
2681612835.4726 -2.9207356 -55.475544 -200 45 -200 45 -200 45
2682612952.1587 -2.9168079 -55.554485 -200 45 -200 45 -200 45
2683613068.8448 -2.9156945 -55.634937 -200 45 -200 45 -200 45
2684613185.5309 -2.9101481 -55.698395 -200 45 -200 45 -200 45
2685613302.217 -2.9062819 -55.785114 -200 45 -200 45 -200 45
2686613418.9032 -2.898627 -55.833019 -200 45 -200 45 -200 45
2687613535.5893 -2.8916149 -55.91785 -200 45 -200 45 -200 45
2688613652.2754 -2.8894765 -55.939941 -200 45 -200 45 -200 45
2689613768.9615 -2.8805459 -56.005779 -200 45 -200 45 -200 45
2690613885.6476 -2.873862 -56.029564 -200 45 -200 45 -200 45
2691614002.3337 -2.865546 -56.084278 -200 45 -200 45 -200 45
2692614119.0198 -2.8598313 -56.103779 -200 45 -200 45 -200 45
2693614235.706 -2.854214 -56.110447 -200 45 -200 45 -200 45
2694614352.3921 -2.8490233 -56.12962 -200 45 -200 45 -200 45
2695614469.0782 -2.8424928 -56.129787 -200 45 -200 45 -200 45
2696614585.7643 -2.8368585 -56.14484 -200 45 -200 45 -200 45
2697614702.4504 -2.8336575 -56.132843 -200 45 -200 45 -200 45
2698614819.1365 -2.8287592 -56.098766 -200 45 -200 45 -200 45
2699614935.8226 -2.8237145 -56.075619 -200 45 -200 45 -200 45
2700615052.5088 -2.818774 -56.063396 -200 45 -200 45 -200 45
2701615169.1949 -2.815582 -56.039722 -200 45 -200 45 -200 45
2702615285.881 -2.8098209 -56.002548 -200 45 -200 45 -200 45
2703615402.5671 -2.8072677 -55.946529 -200 45 -200 45 -200 45
2704615519.2532 -2.8028338 -55.88488 -200 45 -200 45 -200 45
2705615635.9393 -2.8013864 -55.846573 -200 45 -200 45 -200 45
2706615752.6254 -2.7935531 -55.794312 -200 45 -200 45 -200 45
2707615869.3116 -2.7893836 -55.735332 -200 45 -200 45 -200 45
2708615985.9977 -2.7892418 -55.678062 -200 45 -200 45 -200 45
2709616102.6838 -2.7872667 -55.611759 -200 45 -200 45 -200 45
2710616219.3699 -2.7869802 -55.528576 -200 45 -200 45 -200 45
2711616336.056 -2.7836483 -55.454411 -200 45 -200 45 -200 45
2712616452.7421 -2.7866545 -55.414944 -200 45 -200 45 -200 45
2713616569.4282 -2.787071 -55.3409 -200 45 -200 45 -200 45
2714616686.1144 -2.7905793 -55.265087 -200 45 -200 45 -200 45
2715616802.8005 -2.7942595 -55.194744 -200 45 -200 45 -200 45
2716616919.4866 -2.7932961 -55.129765 -200 45 -200 45 -200 45
2717617036.1727 -2.7969267 -55.043308 -200 45 -200 45 -200 45
2718617152.8588 -2.8022292 -54.982418 -200 45 -200 45 -200 45
2719617269.5449 -2.8034284 -54.919846 -200 45 -200 45 -200 45
2720617386.231 -2.8079624 -54.864136 -200 45 -200 45 -200 45
2721617502.9172 -2.8107142 -54.807922 -200 45 -200 45 -200 45
2722617619.6033 -2.8143547 -54.744556 -200 45 -200 45 -200 45
2723617736.2894 -2.8159885 -54.692398 -200 45 -200 45 -200 45
2724617852.9755 -2.825537 -54.658733 -200 45 -200 45 -200 45
2725617969.6616 -2.829273 -54.610542 -200 45 -200 45 -200 45
2726618086.3477 -2.8373899 -54.582859 -200 45 -200 45 -200 45
2727618203.0338 -2.8435807 -54.557571 -200 45 -200 45 -200 45
2728618319.72 -2.8523605 -54.519093 -200 45 -200 45 -200 45
2729618436.4061 -2.8602338 -54.503323 -200 45 -200 45 -200 45
2730618553.0922 -2.8673537 -54.477558 -200 45 -200 45 -200 45
2731618669.7783 -2.8763974 -54.481293 -200 45 -200 45 -200 45
2732618786.4644 -2.8838553 -54.475086 -200 45 -200 45 -200 45
2733618903.1505 -2.8904428 -54.488667 -200 45 -200 45 -200 45
2734619019.8366 -2.898201 -54.493706 -200 45 -200 45 -200 45
2735619136.5228 -2.9074907 -54.519798 -200 45 -200 45 -200 45
2736619253.2089 -2.9148612 -54.549446 -200 45 -200 45 -200 45
2737619369.895 -2.9217329 -54.584785 -200 45 -200 45 -200 45
2738619486.5811 -2.9280825 -54.635967 -200 45 -200 45 -200 45
2739619603.2672 -2.9349368 -54.691231 -200 45 -200 45 -200 45
2740619719.9533 -2.9435987 -54.739353 -200 45 -200 45 -200 45
2741619836.6394 -2.9510798 -54.793476 -200 45 -200 45 -200 45
2742619953.3256 -2.9570386 -54.879871 -200 45 -200 45 -200 45
2743620070.0117 -2.9658604 -54.961079 -200 45 -200 45 -200 45
2744620186.6978 -2.9734359 -55.032192 -200 45 -200 45 -200 45
2745620303.3839 -2.980123 -55.110786 -200 45 -200 45 -200 45
2746620420.07 -2.9898691 -55.218868 -200 45 -200 45 -200 45
2747620536.7561 -2.9940441 -55.301804 -200 45 -200 45 -200 45
2748620653.4422 -2.9984205 -55.39518 -200 45 -200 45 -200 45
2749620770.1284 -3.0045094 -55.498329 -200 45 -200 45 -200 45
2750620886.8145 -3.0082819 -55.601913 -200 45 -200 45 -200 45
2751621003.5006 -3.0115645 -55.713039 -200 45 -200 45 -200 45
2752621120.1867 -3.0161102 -55.837093 -200 45 -200 45 -200 45
2753621236.8728 -3.0183482 -55.951523 -200 45 -200 45 -200 45
2754621353.5589 -3.016783 -56.077408 -200 45 -200 45 -200 45
2755621470.245 -3.0218112 -56.208466 -200 45 -200 45 -200 45
2756621586.9312 -3.0212486 -56.318901 -200 45 -200 45 -200 45
2757621703.6173 -3.0224094 -56.434147 -200 45 -200 45 -200 45
2758621820.3034 -3.025146 -56.561432 -200 45 -200 45 -200 45
2759621936.9895 -3.0258498 -56.673603 -200 45 -200 45 -200 45
2760622053.6756 -3.0263181 -56.788734 -200 45 -200 45 -200 45
2761622170.3617 -3.0247214 -56.893234 -200 45 -200 45 -200 45
2762622287.0478 -3.0246096 -56.991447 -200 45 -200 45 -200 45
2763622403.734 -3.0206189 -57.107555 -200 45 -200 45 -200 45
2764622520.4201 -3.0217085 -57.2271 -200 45 -200 45 -200 45
2765622637.1062 -3.017513 -57.339966 -200 45 -200 45 -200 45
2766622753.7923 -3.014231 -57.436764 -200 45 -200 45 -200 45
2767622870.4784 -3.0131567 -57.557636 -200 45 -200 45 -200 45
2768622987.1645 -3.0123341 -57.642365 -200 45 -200 45 -200 45
2769623103.8506 -3.0143249 -57.739258 -200 45 -200 45 -200 45
2770623220.5368 -3.0099361 -57.806889 -200 45 -200 45 -200 45
2771623337.2229 -3.0071011 -57.910641 -200 45 -200 45 -200 45
2772623453.909 -3.0087025 -57.970512 -200 45 -200 45 -200 45
2773623570.5951 -3.008568 -58.004875 -200 45 -200 45 -200 45
2774623687.2812 -3.0116706 -58.04213 -200 45 -200 45 -200 45
2775623803.9673 -3.0131857 -58.090042 -200 45 -200 45 -200 45
2776623920.6534 -3.0149188 -58.139084 -200 45 -200 45 -200 45
2777624037.3396 -3.0205038 -58.200138 -200 45 -200 45 -200 45
2778624154.0257 -3.0322716 -58.221054 -200 45 -200 45 -200 45
2779624270.7118 -3.0436046 -58.211777 -200 45 -200 45 -200 45
2780624387.3979 -3.0614479 -58.201332 -200 45 -200 45 -200 45
2781624504.084 -3.0754173 -58.121708 -200 45 -200 45 -200 45
2782624620.7701 -3.0976307 -58.017239 -200 45 -200 45 -200 45
2783624737.4562 -3.1191096 -57.877827 -200 45 -200 45 -200 45
2784624854.1424 -3.1433356 -57.650314 -200 45 -200 45 -200 45
2785624970.8285 -3.1656616 -57.275753 -200 45 -200 45 -200 45
2786625087.5146 -3.1558943 -56.804409 -200 45 -200 45 -200 45
2787625204.2007 -3.121953 -56.391121 -200 45 -200 45 -200 45
2788625320.8868 -3.0796351 -56.110046 -200 45 -200 45 -200 45
2789625437.5729 -3.0303695 -55.96867 -200 45 -200 45 -200 45
2790625554.259 -2.9913607 -55.882389 -200 45 -200 45 -200 45
2791625670.9452 -2.9653218 -55.84808 -200 45 -200 45 -200 45
2792625787.6313 -2.9419293 -55.81963 -200 45 -200 45 -200 45
2793625904.3174 -2.9200349 -55.756115 -200 45 -200 45 -200 45
2794626021.0035 -2.9066789 -55.735809 -200 45 -200 45 -200 45
2795626137.6896 -2.8969162 -55.733513 -200 45 -200 45 -200 45
2796626254.3757 -2.8946915 -55.691368 -200 45 -200 45 -200 45
2797626371.0618 -2.8912981 -55.606327 -200 45 -200 45 -200 45
2798626487.748 -2.8879049 -55.514435 -200 45 -200 45 -200 45
2799626604.4341 -2.879133 -55.390465 -200 45 -200 45 -200 45
2800626721.1202 -2.8686614 -55.295891 -200 45 -200 45 -200 45
2801626837.8063 -2.8527648 -55.217651 -200 45 -200 45 -200 45
2802626954.4924 -2.8379526 -55.190853 -200 45 -200 45 -200 45
2803627071.1785 -2.8271151 -55.170162 -200 45 -200 45 -200 45
2804627187.8646 -2.8261685 -55.194344 -200 45 -200 45 -200 45
2805627304.5508 -2.8214619 -55.1819 -200 45 -200 45 -200 45
2806627421.2369 -2.8248155 -55.198414 -200 45 -200 45 -200 45
2807627537.923 -2.8271785 -55.188427 -200 45 -200 45 -200 45
2808627654.6091 -2.8332794 -55.177792 -200 45 -200 45 -200 45
2809627771.2952 -2.8374863 -55.159309 -200 45 -200 45 -200 45
2810627887.9813 -2.8470135 -55.154488 -200 45 -200 45 -200 45
2811628004.6674 -2.8515661 -55.139458 -200 45 -200 45 -200 45
2812628121.3536 -2.8574715 -55.139523 -200 45 -200 45 -200 45
2813628238.0397 -2.863121 -55.135529 -200 45 -200 45 -200 45
2814628354.7258 -2.8710914 -55.142929 -200 45 -200 45 -200 45
2815628471.4119 -2.8790457 -55.148991 -200 45 -200 45 -200 45
2816628588.098 -2.8849075 -55.163948 -200 45 -200 45 -200 45
2817628704.7841 -2.8925061 -55.194996 -200 45 -200 45 -200 45
2818628821.4702 -2.8972168 -55.225811 -200 45 -200 45 -200 45
2819628938.1564 -2.9053471 -55.273766 -200 45 -200 45 -200 45
2820629054.8425 -2.9113417 -55.29451 -200 45 -200 45 -200 45
2821629171.5286 -2.9194903 -55.352669 -200 45 -200 45 -200 45
2822629288.2147 -2.9252436 -55.395714 -200 45 -200 45 -200 45
2823629404.9008 -2.9350305 -55.46875 -200 45 -200 45 -200 45
2824629521.5869 -2.9427812 -55.533005 -200 45 -200 45 -200 45
2825629638.273 -2.9490917 -55.607349 -200 45 -200 45 -200 45
2826629754.9592 -2.9581974 -55.667583 -200 45 -200 45 -200 45
2827629871.6453 -2.9637489 -55.756947 -200 45 -200 45 -200 45
2828629988.3314 -2.9696217 -55.860832 -200 45 -200 45 -200 45
2829630105.0175 -2.9765215 -55.934597 -200 45 -200 45 -200 45
2830630221.7036 -2.9840245 -56.056988 -200 45 -200 45 -200 45
2831630338.3897 -2.9870169 -56.145187 -200 45 -200 45 -200 45
2832630455.0758 -2.9912112 -56.25349 -200 45 -200 45 -200 45
2833630571.762 -2.992861 -56.370213 -200 45 -200 45 -200 45
2834630688.4481 -2.991236 -56.48798 -200 45 -200 45 -200 45
2835630805.1342 -2.9960055 -56.618454 -200 45 -200 45 -200 45
2836630921.8203 -2.9982028 -56.706619 -200 45 -200 45 -200 45
2837631038.5064 -3.0000679 -56.83987 -200 45 -200 45 -200 45
2838631155.1925 -3.0023162 -56.962505 -200 45 -200 45 -200 45
2839631271.8786 -3.0047514 -57.061543 -200 45 -200 45 -200 45
2840631388.5648 -3.0041373 -57.213898 -200 45 -200 45 -200 45
2841631505.2509 -3.0036957 -57.342648 -200 45 -200 45 -200 45
2842631621.937 -3.0066848 -57.447048 -200 45 -200 45 -200 45
2843631738.6231 -3.0030549 -57.586037 -200 45 -200 45 -200 45
2844631855.3092 -3.0009842 -57.6745 -200 45 -200 45 -200 45
2845631971.9953 -2.99628 -57.81702 -200 45 -200 45 -200 45
2846632088.6814 -2.9930904 -57.921535 -200 45 -200 45 -200 45
2847632205.3676 -2.9932189 -58.021938 -200 45 -200 45 -200 45
2848632322.0537 -2.9872797 -58.127239 -200 45 -200 45 -200 45
2849632438.7398 -2.9805911 -58.21677 -200 45 -200 45 -200 45
2850632555.4259 -2.9747152 -58.306416 -200 45 -200 45 -200 45
2851632672.112 -2.9667213 -58.404007 -200 45 -200 45 -200 45
2852632788.7981 -2.9647934 -58.486752 -200 45 -200 45 -200 45
2853632905.4842 -2.9577844 -58.557842 -200 45 -200 45 -200 45
2854633022.1704 -2.9490354 -58.619068 -200 45 -200 45 -200 45
2855633138.8565 -2.9454856 -58.68045 -200 45 -200 45 -200 45
2856633255.5426 -2.9379623 -58.738468 -200 45 -200 45 -200 45
2857633372.2287 -2.9314508 -58.776936 -200 45 -200 45 -200 45
2858633488.9148 -2.9266987 -58.819679 -200 45 -200 45 -200 45
2859633605.6009 -2.9212494 -58.859703 -200 45 -200 45 -200 45
2860633722.287 -2.9125848 -58.862831 -200 45 -200 45 -200 45
2861633838.9732 -2.9057727 -58.895519 -200 45 -200 45 -200 45
2862633955.6593 -2.8990967 -58.908695 -200 45 -200 45 -200 45
2863634072.3454 -2.8943861 -58.907043 -200 45 -200 45 -200 45
2864634189.0315 -2.8860483 -58.906387 -200 45 -200 45 -200 45
2865634305.7176 -2.8789265 -58.891853 -200 45 -200 45 -200 45
2866634422.4037 -2.8683121 -58.878719 -200 45 -200 45 -200 45
2867634539.0898 -2.8635881 -58.854191 -200 45 -200 45 -200 45
2868634655.776 -2.8572772 -58.825687 -200 45 -200 45 -200 45
2869634772.4621 -2.8504593 -58.78199 -200 45 -200 45 -200 45
2870634889.1482 -2.8478618 -58.725658 -200 45 -200 45 -200 45
2871635005.8343 -2.8453608 -58.688709 -200 45 -200 45 -200 45
2872635122.5204 -2.8403049 -58.651913 -200 45 -200 45 -200 45
2873635239.2065 -2.8381343 -58.600536 -200 45 -200 45 -200 45
2874635355.8926 -2.8389711 -58.540356 -200 45 -200 45 -200 45
2875635472.5788 -2.8375411 -58.465805 -200 45 -200 45 -200 45
2876635589.2649 -2.8348324 -58.387913 -200 45 -200 45 -200 45
2877635705.951 -2.8317497 -58.322685 -200 45 -200 45 -200 45
2878635822.6371 -2.8290968 -58.258858 -200 45 -200 45 -200 45
2879635939.3232 -2.8302524 -58.18055 -200 45 -200 45 -200 45
2880636056.0093 -2.8322287 -58.105793 -200 45 -200 45 -200 45
2881636172.6954 -2.8306842 -58.041649 -200 45 -200 45 -200 45
2882636289.3816 -2.8286707 -57.95483 -200 45 -200 45 -200 45
2883636406.0677 -2.8317666 -57.890083 -200 45 -200 45 -200 45
2884636522.7538 -2.833168 -57.821808 -200 45 -200 45 -200 45
2885636639.4399 -2.8354938 -57.760281 -200 45 -200 45 -200 45
2886636756.126 -2.8387611 -57.673428 -200 45 -200 45 -200 45
2887636872.8121 -2.8432026 -57.604019 -200 45 -200 45 -200 45
2888636989.4983 -2.8503065 -57.523792 -200 45 -200 45 -200 45
2889637106.1844 -2.8540931 -57.463398 -200 45 -200 45 -200 45
2890637222.8705 -2.8607955 -57.416843 -200 45 -200 45 -200 45
2891637339.5566 -2.8671908 -57.356281 -200 45 -200 45 -200 45
2892637456.2427 -2.8724303 -57.316242 -200 45 -200 45 -200 45
2893637572.9288 -2.8792124 -57.277359 -200 45 -200 45 -200 45
2894637689.6149 -2.8845122 -57.229412 -200 45 -200 45 -200 45
2895637806.3011 -2.8948488 -57.212219 -200 45 -200 45 -200 45
2896637922.9872 -2.9016216 -57.158371 -200 45 -200 45 -200 45
2897638039.6733 -2.9060931 -57.162178 -200 45 -200 45 -200 45
2898638156.3594 -2.9150395 -57.133507 -200 45 -200 45 -200 45
2899638273.0455 -2.921962 -57.145924 -200 45 -200 45 -200 45
2900638389.7316 -2.9322383 -57.147282 -200 45 -200 45 -200 45
2901638506.4177 -2.9388778 -57.167023 -200 45 -200 45 -200 45
2902638623.1039 -2.9469874 -57.181133 -200 45 -200 45 -200 45
2903638739.79 -2.9569268 -57.200897 -200 45 -200 45 -200 45
2904638856.4761 -2.9659612 -57.239403 -200 45 -200 45 -200 45
2905638973.1622 -2.9761708 -57.276459 -200 45 -200 45 -200 45
2906639089.8483 -2.9838681 -57.310337 -200 45 -200 45 -200 45
2907639206.5344 -2.9947543 -57.369648 -200 45 -200 45 -200 45
2908639323.2205 -3.0012174 -57.430328 -200 45 -200 45 -200 45
2909639439.9067 -3.006757 -57.499599 -200 45 -200 45 -200 45
2910639556.5928 -3.0161512 -57.562866 -200 45 -200 45 -200 45
2911639673.2789 -3.0286582 -57.667328 -200 45 -200 45 -200 45
2912639789.965 -3.0303817 -57.752151 -200 45 -200 45 -200 45
2913639906.6511 -3.0356348 -57.833801 -200 45 -200 45 -200 45
2914640023.3372 -3.0404747 -57.944122 -200 45 -200 45 -200 45
2915640140.0233 -3.0457637 -58.059612 -200 45 -200 45 -200 45
2916640256.7095 -3.0527878 -58.167046 -200 45 -200 45 -200 45
2917640373.3956 -3.056911 -58.285603 -200 45 -200 45 -200 45
2918640490.0817 -3.0623779 -58.395473 -200 45 -200 45 -200 45
2919640606.7678 -3.0670493 -58.515507 -200 45 -200 45 -200 45
2920640723.4539 -3.0696814 -58.625931 -200 45 -200 45 -200 45
2921640840.14 -3.0736821 -58.748444 -200 45 -200 45 -200 45
2922640956.8261 -3.0758448 -58.852093 -200 45 -200 45 -200 45
2923641073.5123 -3.0783083 -59.000275 -200 45 -200 45 -200 45
2924641190.1984 -3.0779433 -59.12685 -200 45 -200 45 -200 45
2925641306.8845 -3.0771439 -59.277431 -200 45 -200 45 -200 45
2926641423.5706 -3.0768354 -59.390694 -200 45 -200 45 -200 45
2927641540.2567 -3.0779142 -59.514225 -200 45 -200 45 -200 45
2928641656.9428 -3.0757697 -59.631283 -200 45 -200 45 -200 45
2929641773.6289 -3.0756664 -59.747116 -200 45 -200 45 -200 45
2930641890.3151 -3.0704858 -59.88113 -200 45 -200 45 -200 45
2931642007.0012 -3.0656817 -59.99081 -200 45 -200 45 -200 45
2932642123.6873 -3.064707 -60.090393 -200 45 -200 45 -200 45
2933642240.3734 -3.0592411 -60.199886 -200 45 -200 45 -200 45
2934642357.0595 -3.0576901 -60.308086 -200 45 -200 45 -200 45
2935642473.7456 -3.0519087 -60.388866 -200 45 -200 45 -200 45
2936642590.4317 -3.0497923 -60.456696 -200 45 -200 45 -200 45
2937642707.1179 -3.0451229 -60.5532 -200 45 -200 45 -200 45
2938642823.804 -3.0435514 -60.632862 -200 45 -200 45 -200 45
2939642940.4901 -3.0389688 -60.710835 -200 45 -200 45 -200 45
2940643057.1762 -3.0312815 -60.783623 -200 45 -200 45 -200 45
2941643173.8623 -3.0244329 -60.831413 -200 45 -200 45 -200 45
2942643290.5484 -3.0213606 -60.873405 -200 45 -200 45 -200 45
2943643407.2345 -3.018518 -60.917797 -200 45 -200 45 -200 45
2944643523.9207 -3.0111713 -60.943142 -200 45 -200 45 -200 45
2945643640.6068 -3.0065775 -60.984035 -200 45 -200 45 -200 45
2946643757.2929 -3.0003505 -61.014599 -200 45 -200 45 -200 45
2947643873.979 -2.9967186 -61.018246 -200 45 -200 45 -200 45
2948643990.6651 -2.9940498 -61.046379 -200 45 -200 45 -200 45
2949644107.3512 -2.9904029 -61.03524 -200 45 -200 45 -200 45
2950644224.0373 -2.9874012 -61.038418 -200 45 -200 45 -200 45
2951644340.7235 -2.9880099 -61.035213 -200 45 -200 45 -200 45
2952644457.4096 -2.9877322 -61.037209 -200 45 -200 45 -200 45
2953644574.0957 -2.9879229 -61.001751 -200 45 -200 45 -200 45
2954644690.7818 -2.9908278 -60.987675 -200 45 -200 45 -200 45
2955644807.4679 -2.9966171 -60.958702 -200 45 -200 45 -200 45
2956644924.154 -2.9950075 -60.930641 -200 45 -200 45 -200 45
2957645040.8401 -3.0031488 -60.893997 -200 45 -200 45 -200 45
2958645157.5263 -3.0091667 -60.843838 -200 45 -200 45 -200 45
2959645274.2124 -3.0166452 -60.805614 -200 45 -200 45 -200 45
2960645390.8985 -3.0293937 -60.762417 -200 45 -200 45 -200 45
2961645507.5846 -3.0422306 -60.689095 -200 45 -200 45 -200 45
2962645624.2707 -3.0543711 -60.64101 -200 45 -200 45 -200 45
2963645740.9568 -3.0732195 -60.565918 -200 45 -200 45 -200 45
2964645857.6429 -3.0973122 -60.473213 -200 45 -200 45 -200 45
2965645974.3291 -3.1265171 -60.328659 -200 45 -200 45 -200 45
2966646091.0152 -3.1543202 -60.151939 -200 45 -200 45 -200 45
2967646207.7013 -3.1856294 -59.90173 -200 45 -200 45 -200 45
2968646324.3874 -3.2141266 -59.626793 -200 45 -200 45 -200 45
2969646441.0735 -3.2315936 -59.290016 -200 45 -200 45 -200 45
2970646557.7596 -3.2401481 -58.917198 -200 45 -200 45 -200 45
2971646674.4457 -3.2389665 -58.57983 -200 45 -200 45 -200 45
2972646791.1319 -3.2244754 -58.269787 -200 45 -200 45 -200 45
2973646907.818 -3.2077985 -58.01228 -200 45 -200 45 -200 45
2974647024.5041 -3.1844983 -57.828522 -200 45 -200 45 -200 45
2975647141.1902 -3.1677744 -57.709 -200 45 -200 45 -200 45
2976647257.8763 -3.1529024 -57.615288 -200 45 -200 45 -200 45
2977647374.5624 -3.1373017 -57.538448 -200 45 -200 45 -200 45
2978647491.2485 -3.1280906 -57.499374 -200 45 -200 45 -200 45
2979647607.9347 -3.119143 -57.479088 -200 45 -200 45 -200 45
2980647724.6208 -3.1161397 -57.485931 -200 45 -200 45 -200 45
2981647841.3069 -3.1152031 -57.498077 -200 45 -200 45 -200 45
2982647957.993 -3.1198716 -57.520111 -200 45 -200 45 -200 45
2983648074.6791 -3.127444 -57.559288 -200 45 -200 45 -200 45
2984648191.3652 -3.1414151 -57.580429 -200 45 -200 45 -200 45
2985648308.0513 -3.1535015 -57.594425 -200 45 -200 45 -200 45
2986648424.7375 -3.1719658 -57.61594 -200 45 -200 45 -200 45
2987648541.4236 -3.1941822 -57.583332 -200 45 -200 45 -200 45
2988648658.1097 -3.2108467 -57.521252 -200 45 -200 45 -200 45
2989648774.7958 -3.2295966 -57.422588 -200 45 -200 45 -200 45
2990648891.4819 -3.2373509 -57.320671 -200 45 -200 45 -200 45
2991649008.168 -3.2402723 -57.194374 -200 45 -200 45 -200 45
2992649124.8541 -3.2348151 -57.115421 -200 45 -200 45 -200 45
2993649241.5403 -3.2227716 -57.011742 -200 45 -200 45 -200 45
2994649358.2264 -3.2048304 -56.98851 -200 45 -200 45 -200 45
2995649474.9125 -3.1855664 -57.023624 -200 45 -200 45 -200 45
2996649591.5986 -3.1658242 -57.079422 -200 45 -200 45 -200 45
2997649708.2847 -3.1474116 -57.186104 -200 45 -200 45 -200 45
2998649824.9708 -3.1310463 -57.341038 -200 45 -200 45 -200 45
2999649941.6569 -3.123292 -57.475136 -200 45 -200 45 -200 45
3000650058.3431 -3.1101732 -57.640549 -200 45 -200 45 -200 45
3001650175.0292 -3.1041732 -57.812702 -200 45 -200 45 -200 45
3002650291.7153 -3.0984745 -57.991497 -200 45 -200 45 -200 45
3003650408.4014 -3.0913763 -58.176357 -200 45 -200 45 -200 45
3004650525.0875 -3.0840178 -58.390347 -200 45 -200 45 -200 45
3005650641.7736 -3.0812898 -58.587662 -200 45 -200 45 -200 45
3006650758.4597 -3.0807226 -58.77808 -200 45 -200 45 -200 45
3007650875.1459 -3.0811889 -58.946453 -200 45 -200 45 -200 45
3008650991.832 -3.082257 -59.120159 -200 45 -200 45 -200 45
3009651108.5181 -3.0765171 -59.294628 -200 45 -200 45 -200 45
3010651225.2042 -3.0702624 -59.462383 -200 45 -200 45 -200 45
3011651341.8903 -3.0706661 -59.615204 -200 45 -200 45 -200 45
3012651458.5764 -3.0684822 -59.75676 -200 45 -200 45 -200 45
3013651575.2625 -3.0684266 -59.897305 -200 45 -200 45 -200 45
3014651691.9487 -3.0621991 -60.0364 -200 45 -200 45 -200 45
3015651808.6348 -3.0566669 -60.17424 -200 45 -200 45 -200 45
3016651925.3209 -3.05636 -60.285927 -200 45 -200 45 -200 45
3017652042.007 -3.0520656 -60.39019 -200 45 -200 45 -200 45
3018652158.6931 -3.0458992 -60.489452 -200 45 -200 45 -200 45
3019652275.3792 -3.043113 -60.602932 -200 45 -200 45 -200 45
3020652392.0653 -3.0337012 -60.690773 -200 45 -200 45 -200 45
3021652508.7515 -3.0247757 -60.783562 -200 45 -200 45 -200 45
3022652625.4376 -3.0143671 -60.854336 -200 45 -200 45 -200 45
3023652742.1237 -3.0079978 -60.933121 -200 45 -200 45 -200 45
3024652858.8098 -2.9963207 -61.030308 -200 45 -200 45 -200 45
3025652975.4959 -2.9887717 -61.099541 -200 45 -200 45 -200 45
3026653092.182 -2.9774628 -61.171825 -200 45 -200 45 -200 45
3027653208.8681 -2.9739964 -61.226486 -200 45 -200 45 -200 45
3028653325.5543 -2.9674492 -61.278122 -200 45 -200 45 -200 45
3029653442.2404 -2.9588597 -61.309731 -200 45 -200 45 -200 45
3030653558.9265 -2.9521279 -61.324226 -200 45 -200 45 -200 45
3031653675.6126 -2.9438446 -61.346779 -200 45 -200 45 -200 45
3032653792.2987 -2.9390347 -61.352222 -200 45 -200 45 -200 45
3033653908.9848 -2.9340241 -61.360466 -200 45 -200 45 -200 45
3034654025.6709 -2.9285443 -61.358952 -200 45 -200 45 -200 45
3035654142.3571 -2.9242461 -61.366718 -200 45 -200 45 -200 45
3036654259.0432 -2.9169686 -61.346691 -200 45 -200 45 -200 45
3037654375.7293 -2.9090402 -61.331261 -200 45 -200 45 -200 45
3038654492.4154 -2.9070191 -61.307396 -200 45 -200 45 -200 45
3039654609.1015 -2.9053183 -61.275944 -200 45 -200 45 -200 45
3040654725.7876 -2.9043694 -61.248226 -200 45 -200 45 -200 45
3041654842.4737 -2.8966949 -61.193047 -200 45 -200 45 -200 45
3042654959.1599 -2.8943055 -61.141994 -200 45 -200 45 -200 45
3043655075.846 -2.8916447 -61.096233 -200 45 -200 45 -200 45
3044655192.5321 -2.8929636 -61.024147 -200 45 -200 45 -200 45
3045655309.2182 -2.889122 -60.982464 -200 45 -200 45 -200 45
3046655425.9043 -2.8909109 -60.910023 -200 45 -200 45 -200 45
3047655542.5904 -2.8928287 -60.843395 -200 45 -200 45 -200 45
3048655659.2765 -2.8937216 -60.784847 -200 45 -200 45 -200 45
3049655775.9627 -2.896709 -60.728619 -200 45 -200 45 -200 45
3050655892.6488 -2.9023862 -60.668877 -200 45 -200 45 -200 45
3051656009.3349 -2.9046078 -60.59623 -200 45 -200 45 -200 45
3052656126.021 -2.9084995 -60.546375 -200 45 -200 45 -200 45
3053656242.7071 -2.9121737 -60.484413 -200 45 -200 45 -200 45
3054656359.3932 -2.9192896 -60.433781 -200 45 -200 45 -200 45
3055656476.0793 -2.9240973 -60.391815 -200 45 -200 45 -200 45
3056656592.7655 -2.9311345 -60.324211 -200 45 -200 45 -200 45
3057656709.4516 -2.9358888 -60.273239 -200 45 -200 45 -200 45
3058656826.1377 -2.9446824 -60.237446 -200 45 -200 45 -200 45
3059656942.8238 -2.9495542 -60.201233 -200 45 -200 45 -200 45
3060657059.5099 -2.9623008 -60.181385 -200 45 -200 45 -200 45
3061657176.196 -2.9707806 -60.14946 -200 45 -200 45 -200 45
3062657292.8821 -2.9796233 -60.132732 -200 45 -200 45 -200 45
3063657409.5683 -2.9929032 -60.106888 -200 45 -200 45 -200 45
3064657526.2544 -3.0026221 -60.107258 -200 45 -200 45 -200 45
3065657642.9405 -3.015682 -60.116219 -200 45 -200 45 -200 45
3066657759.6266 -3.029716 -60.114338 -200 45 -200 45 -200 45
3067657876.3127 -3.0394135 -60.130802 -200 45 -200 45 -200 45
3068657992.9988 -3.0551591 -60.180183 -200 45 -200 45 -200 45
3069658109.6849 -3.066453 -60.214523 -200 45 -200 45 -200 45
3070658226.3711 -3.0824628 -60.243793 -200 45 -200 45 -200 45
3071658343.0572 -3.0970669 -60.294903 -200 45 -200 45 -200 45
3072658459.7433 -3.1110191 -60.369774 -200 45 -200 45 -200 45
3073658576.4294 -3.1228931 -60.438206 -200 45 -200 45 -200 45
3074658693.1155 -3.1403193 -60.52779 -200 45 -200 45 -200 45
3075658809.8016 -3.156827 -60.627239 -200 45 -200 45 -200 45
3076658926.4877 -3.1700714 -60.715992 -200 45 -200 45 -200 45
3077659043.1739 -3.1870482 -60.809483 -200 45 -200 45 -200 45
3078659159.86 -3.2043059 -60.935928 -200 45 -200 45 -200 45
3079659276.5461 -3.225081 -61.05407 -200 45 -200 45 -200 45
3080659393.2322 -3.2450871 -61.194206 -200 45 -200 45 -200 45
3081659509.9183 -3.2655065 -61.337818 -200 45 -200 45 -200 45
3082659626.6044 -3.2899699 -61.471786 -200 45 -200 45 -200 45
3083659743.2905 -3.3092446 -61.646404 -200 45 -200 45 -200 45
3084659859.9767 -3.335793 -61.788898 -200 45 -200 45 -200 45
3085659976.6628 -3.3614881 -61.949368 -200 45 -200 45 -200 45
3086660093.3489 -3.3944111 -62.107075 -200 45 -200 45 -200 45
3087660210.035 -3.4273701 -62.278957 -200 45 -200 45 -200 45
3088660326.7211 -3.4635196 -62.429813 -200 45 -200 45 -200 45
3089660443.4072 -3.5010626 -62.566296 -200 45 -200 45 -200 45
3090660560.0933 -3.5483305 -62.656193 -200 45 -200 45 -200 45
3091660676.7795 -3.6029809 -62.710938 -200 45 -200 45 -200 45
3092660793.4656 -3.6592748 -62.720978 -200 45 -200 45 -200 45
3093660910.1517 -3.7168982 -62.631771 -200 45 -200 45 -200 45
3094661026.8378 -3.7811129 -62.446125 -200 45 -200 45 -200 45
3095661143.5239 -3.8340232 -62.15546 -200 45 -200 45 -200 45
3096661260.21 -3.885308 -61.726749 -200 45 -200 45 -200 45
3097661376.8961 -3.9197152 -61.138042 -200 45 -200 45 -200 45
3098661493.5823 -3.9155619 -60.452488 -200 45 -200 45 -200 45
3099661610.2684 -3.8783934 -59.806519 -200 45 -200 45 -200 45
3100661726.9545 -3.8039997 -59.290668 -200 45 -200 45 -200 45
3101661843.6406 -3.7153645 -58.982483 -200 45 -200 45 -200 45
3102661960.3267 -3.6329587 -58.824917 -200 45 -200 45 -200 45
3103662077.0128 -3.5556929 -58.764832 -200 45 -200 45 -200 45
3104662193.6989 -3.4826488 -58.792603 -200 45 -200 45 -200 45
3105662310.3851 -3.4140575 -58.891525 -200 45 -200 45 -200 45
3106662427.0712 -3.3568265 -59.031509 -200 45 -200 45 -200 45
3107662543.7573 -3.3114195 -59.183624 -200 45 -200 45 -200 45
3108662660.4434 -3.2753925 -59.317966 -200 45 -200 45 -200 45
3109662777.1295 -3.244915 -59.425049 -200 45 -200 45 -200 45
3110662893.8156 -3.2165384 -59.494297 -200 45 -200 45 -200 45
3111663010.5018 -3.187855 -59.554176 -200 45 -200 45 -200 45
3112663127.1879 -3.1578696 -59.615025 -200 45 -200 45 -200 45
3113663243.874 -3.1327295 -59.671188 -200 45 -200 45 -200 45
3114663360.5601 -3.1129637 -59.726952 -200 45 -200 45 -200 45
3115663477.2462 -3.09267 -59.73555 -200 45 -200 45 -200 45
3116663593.9323 -3.0686049 -59.713734 -200 45 -200 45 -200 45
3117663710.6184 -3.0381565 -59.660309 -200 45 -200 45 -200 45
3118663827.3046 -3.0062182 -59.630634 -200 45 -200 45 -200 45
3119663943.9907 -2.9718323 -59.663662 -200 45 -200 45 -200 45
3120664060.6768 -2.9390388 -59.744473 -200 45 -200 45 -200 45
3121664177.3629 -2.912118 -59.818264 -200 45 -200 45 -200 45
3122664294.049 -2.8910024 -59.88525 -200 45 -200 45 -200 45
3123664410.7351 -2.877193 -59.957485 -200 45 -200 45 -200 45
3124664527.4212 -2.8656938 -59.97385 -200 45 -200 45 -200 45
3125664644.1074 -2.8539217 -60.008991 -200 45 -200 45 -200 45
3126664760.7935 -2.8444233 -60.015583 -200 45 -200 45 -200 45
3127664877.4796 -2.8357005 -60.002735 -200 45 -200 45 -200 45
3128664994.1657 -2.8268027 -60.010574 -200 45 -200 45 -200 45
3129665110.8518 -2.8228753 -59.998985 -200 45 -200 45 -200 45
3130665227.5379 -2.8159087 -59.98357 -200 45 -200 45 -200 45
3131665344.224 -2.8112063 -59.967827 -200 45 -200 45 -200 45
3132665460.9102 -2.8085747 -59.975086 -200 45 -200 45 -200 45
3133665577.5963 -2.8046222 -59.960884 -200 45 -200 45 -200 45
3134665694.2824 -2.8069017 -59.9333 -200 45 -200 45 -200 45
3135665810.9685 -2.8088164 -59.8964 -200 45 -200 45 -200 45
3136665927.6546 -2.8098259 -59.8596 -200 45 -200 45 -200 45
3137666044.3407 -2.8106678 -59.84053 -200 45 -200 45 -200 45
3138666161.0268 -2.8113389 -59.797173 -200 45 -200 45 -200 45
3139666277.713 -2.8149104 -59.758392 -200 45 -200 45 -200 45
3140666394.3991 -2.8198423 -59.718224 -200 45 -200 45 -200 45
3141666511.0852 -2.8245332 -59.676994 -200 45 -200 45 -200 45
3142666627.7713 -2.8308728 -59.642052 -200 45 -200 45 -200 45
3143666744.4574 -2.8379033 -59.609104 -200 45 -200 45 -200 45
3144666861.1435 -2.8441737 -59.592274 -200 45 -200 45 -200 45
3145666977.8296 -2.8524606 -59.549633 -200 45 -200 45 -200 45
3146667094.5158 -2.8586097 -59.531574 -200 45 -200 45 -200 45
3147667211.2019 -2.8664742 -59.529015 -200 45 -200 45 -200 45
3148667327.888 -2.878222 -59.508408 -200 45 -200 45 -200 45
3149667444.5741 -2.8808432 -59.515755 -200 45 -200 45 -200 45
3150667561.2602 -2.8908045 -59.50668 -200 45 -200 45 -200 45
3151667677.9463 -2.8996165 -59.512444 -200 45 -200 45 -200 45
3152667794.6324 -2.9078417 -59.523048 -200 45 -200 45 -200 45
3153667911.3186 -2.9116499 -59.521648 -200 45 -200 45 -200 45
3154668028.0047 -2.9219463 -59.564106 -200 45 -200 45 -200 45
3155668144.6908 -2.9304919 -59.583 -200 45 -200 45 -200 45
3156668261.3769 -2.934423 -59.625763 -200 45 -200 45 -200 45
3157668378.063 -2.9439092 -59.686359 -200 45 -200 45 -200 45
3158668494.7491 -2.9539306 -59.739265 -200 45 -200 45 -200 45
3159668611.4352 -2.9623852 -59.791771 -200 45 -200 45 -200 45
3160668728.1214 -2.9723055 -59.861439 -200 45 -200 45 -200 45
3161668844.8075 -2.9814103 -59.939056 -200 45 -200 45 -200 45
3162668961.4936 -2.987669 -60.010677 -200 45 -200 45 -200 45
3163669078.1797 -2.9953218 -60.091354 -200 45 -200 45 -200 45
3164669194.8658 -3.0004532 -60.188187 -200 45 -200 45 -200 45
3165669311.5519 -3.0043952 -60.27935 -200 45 -200 45 -200 45
3166669428.238 -3.0106366 -60.386387 -200 45 -200 45 -200 45
3167669544.9242 -3.0165627 -60.497936 -200 45 -200 45 -200 45
3168669661.6103 -3.020294 -60.634937 -200 45 -200 45 -200 45
3169669778.2964 -3.0197341 -60.733078 -200 45 -200 45 -200 45
3170669894.9825 -3.0259945 -60.847 -200 45 -200 45 -200 45
3171670011.6686 -3.0281391 -61.003036 -200 45 -200 45 -200 45
3172670128.3547 -3.0274262 -61.108959 -200 45 -200 45 -200 45
3173670245.0408 -3.0302305 -61.255768 -200 45 -200 45 -200 45
3174670361.727 -3.0295699 -61.361717 -200 45 -200 45 -200 45
3175670478.4131 -3.0316308 -61.498539 -200 45 -200 45 -200 45
3176670595.0992 -3.0297229 -61.617809 -200 45 -200 45 -200 45
3177670711.7853 -3.0308537 -61.768276 -200 45 -200 45 -200 45
3178670828.4714 -3.0275042 -61.878716 -200 45 -200 45 -200 45
3179670945.1575 -3.0267539 -62.00547 -200 45 -200 45 -200 45
3180671061.8436 -3.0229762 -62.119957 -200 45 -200 45 -200 45
3181671178.5298 -3.0194106 -62.276409 -200 45 -200 45 -200 45
3182671295.2159 -3.0138097 -62.382755 -200 45 -200 45 -200 45
3183671411.902 -3.0109682 -62.504421 -200 45 -200 45 -200 45
3184671528.5881 -3.0052624 -62.592846 -200 45 -200 45 -200 45
3185671645.2742 -2.9952667 -62.702579 -200 45 -200 45 -200 45
3186671761.9603 -2.9880574 -62.800961 -200 45 -200 45 -200 45
3187671878.6464 -2.9824014 -62.891502 -200 45 -200 45 -200 45
3188671995.3326 -2.9762669 -62.973648 -200 45 -200 45 -200 45
3189672112.0187 -2.9675922 -63.059147 -200 45 -200 45 -200 45
3190672228.7048 -2.9592645 -63.12756 -200 45 -200 45 -200 45
3191672345.3909 -2.9528129 -63.203594 -200 45 -200 45 -200 45
3192672462.077 -2.9451082 -63.265961 -200 45 -200 45 -200 45
3193672578.7631 -2.9387317 -63.325073 -200 45 -200 45 -200 45
3194672695.4492 -2.9333129 -63.357983 -200 45 -200 45 -200 45
3195672812.1354 -2.9210289 -63.399456 -200 45 -200 45 -200 45
3196672928.8215 -2.9162242 -63.423008 -200 45 -200 45 -200 45
3197673045.5076 -2.9037266 -63.460743 -200 45 -200 45 -200 45
3198673162.1937 -2.8987808 -63.450588 -200 45 -200 45 -200 45
3199673278.8798 -2.8887601 -63.464432 -200 45 -200 45 -200 45
3200673395.5659 -2.8802125 -63.460457 -200 45 -200 45 -200 45
3201673512.252 -2.8703618 -63.468674 -200 45 -200 45 -200 45
3202673628.9382 -2.8615034 -63.443115 -200 45 -200 45 -200 45
3203673745.6243 -2.8561997 -63.417152 -200 45 -200 45 -200 45
3204673862.3104 -2.8507087 -63.398479 -200 45 -200 45 -200 45
3205673978.9965 -2.842701 -63.356991 -200 45 -200 45 -200 45
3206674095.6826 -2.8370371 -63.32972 -200 45 -200 45 -200 45
3207674212.3687 -2.8312051 -63.279785 -200 45 -200 45 -200 45
3208674329.0548 -2.8276844 -63.229328 -200 45 -200 45 -200 45
3209674445.741 -2.8260062 -63.164608 -200 45 -200 45 -200 45
3210674562.4271 -2.8223979 -63.120224 -200 45 -200 45 -200 45
3211674679.1132 -2.8164573 -63.059586 -200 45 -200 45 -200 45
3212674795.7993 -2.8154895 -62.98896 -200 45 -200 45 -200 45
3213674912.4854 -2.8113842 -62.918964 -200 45 -200 45 -200 45
3214675029.1715 -2.8120756 -62.853909 -200 45 -200 45 -200 45
3215675145.8576 -2.8103089 -62.774426 -200 45 -200 45 -200 45
3216675262.5438 -2.8064189 -62.693489 -200 45 -200 45 -200 45
3217675379.2299 -2.8052509 -62.639637 -200 45 -200 45 -200 45
3218675495.916 -2.8059561 -62.553463 -200 45 -200 45 -200 45
3219675612.6021 -2.8081269 -62.469875 -200 45 -200 45 -200 45
3220675729.2882 -2.8102841 -62.405342 -200 45 -200 45 -200 45
3221675845.9743 -2.8096681 -62.337559 -200 45 -200 45 -200 45
3222675962.6604 -2.8152201 -62.258007 -200 45 -200 45 -200 45
3223676079.3466 -2.8213866 -62.191181 -200 45 -200 45 -200 45
3224676196.0327 -2.8236921 -62.133808 -200 45 -200 45 -200 45
3225676312.7188 -2.8312912 -62.055042 -200 45 -200 45 -200 45
3226676429.4049 -2.8373401 -62.011795 -200 45 -200 45 -200 45
3227676546.091 -2.8413522 -61.957802 -200 45 -200 45 -200 45
3228676662.7771 -2.8459671 -61.905918 -200 45 -200 45 -200 45
3229676779.4632 -2.8545022 -61.873577 -200 45 -200 45 -200 45
3230676896.1494 -2.8634615 -61.823685 -200 45 -200 45 -200 45
3231677012.8355 -2.8675981 -61.803589 -200 45 -200 45 -200 45
3232677129.5216 -2.871469 -61.773563 -200 45 -200 45 -200 45
3233677246.2077 -2.8803508 -61.757248 -200 45 -200 45 -200 45
3234677362.8938 -2.8890386 -61.743065 -200 45 -200 45 -200 45
3235677479.5799 -2.8964014 -61.733444 -200 45 -200 45 -200 45
3236677596.266 -2.903409 -61.759125 -200 45 -200 45 -200 45
3237677712.9522 -2.9139647 -61.744999 -200 45 -200 45 -200 45
3238677829.6383 -2.9219625 -61.770573 -200 45 -200 45 -200 45
3239677946.3244 -2.9320493 -61.803745 -200 45 -200 45 -200 45
3240678063.0105 -2.9422159 -61.824928 -200 45 -200 45 -200 45
3241678179.6966 -2.9528124 -61.844406 -200 45 -200 45 -200 45
3242678296.3827 -2.9622829 -61.892601 -200 45 -200 45 -200 45
3243678413.0688 -2.9698875 -61.94408 -200 45 -200 45 -200 45
3244678529.755 -2.9767835 -62.010326 -200 45 -200 45 -200 45
3245678646.4411 -2.9854245 -62.072071 -200 45 -200 45 -200 45
3246678763.1272 -2.9907742 -62.162323 -200 45 -200 45 -200 45
3247678879.8133 -2.9959321 -62.244839 -200 45 -200 45 -200 45
3248678996.4994 -3.0029519 -62.324711 -200 45 -200 45 -200 45
3249679113.1855 -3.0092082 -62.437733 -200 45 -200 45 -200 45
3250679229.8716 -3.0133519 -62.525555 -200 45 -200 45 -200 45
3251679346.5578 -3.0190299 -62.637268 -200 45 -200 45 -200 45
3252679463.2439 -3.0244603 -62.754879 -200 45 -200 45 -200 45
3253679579.93 -3.0290046 -62.85936 -200 45 -200 45 -200 45
3254679696.6161 -3.0330212 -62.963589 -200 45 -200 45 -200 45
3255679813.3022 -3.037853 -63.100185 -200 45 -200 45 -200 45
3256679929.9883 -3.0373986 -63.193424 -200 45 -200 45 -200 45
3257680046.6744 -3.0436454 -63.318012 -200 45 -200 45 -200 45
3258680163.3606 -3.0407915 -63.462711 -200 45 -200 45 -200 45
3259680280.0467 -3.0423284 -63.560936 -200 45 -200 45 -200 45
3260680396.7328 -3.0397577 -63.691944 -200 45 -200 45 -200 45
3261680513.4189 -3.0382941 -63.833584 -200 45 -200 45 -200 45
3262680630.105 -3.0405912 -63.945702 -200 45 -200 45 -200 45
3263680746.7911 -3.0407944 -64.090698 -200 45 -200 45 -200 45
3264680863.4772 -3.0304682 -64.188881 -200 45 -200 45 -200 45
3265680980.1634 -3.0274875 -64.332413 -200 45 -200 45 -200 45
3266681096.8495 -3.0235531 -64.442596 -200 45 -200 45 -200 45
3267681213.5356 -3.0191634 -64.553383 -200 45 -200 45 -200 45
3268681330.2217 -3.0149057 -64.654724 -200 45 -200 45 -200 45
3269681446.9078 -3.0102079 -64.779381 -200 45 -200 45 -200 45
3270681563.5939 -3.0029385 -64.873474 -200 45 -200 45 -200 45
3271681680.28 -2.9984784 -64.943085 -200 45 -200 45 -200 45
3272681796.9662 -2.9917138 -65.061707 -200 45 -200 45 -200 45
3273681913.6523 -2.9867704 -65.12117 -200 45 -200 45 -200 45
3274682030.3384 -2.9799287 -65.205894 -200 45 -200 45 -200 45
3275682147.0245 -2.9723651 -65.259384 -200 45 -200 45 -200 45
3276682263.7106 -2.964818 -65.323097 -200 45 -200 45 -200 45
3277682380.3967 -2.9573977 -65.359444 -200 45 -200 45 -200 45
3278682497.0828 -2.9536397 -65.407097 -200 45 -200 45 -200 45
3279682613.769 -2.9461405 -65.432724 -200 45 -200 45 -200 45
3280682730.4551 -2.9359968 -65.469345 -200 45 -200 45 -200 45
3281682847.1412 -2.927681 -65.469498 -200 45 -200 45 -200 45
3282682963.8273 -2.9181094 -65.509285 -200 45 -200 45 -200 45
3283683080.5134 -2.9099696 -65.496864 -200 45 -200 45 -200 45
3284683197.1995 -2.9051342 -65.514465 -200 45 -200 45 -200 45
3285683313.8856 -2.898792 -65.493515 -200 45 -200 45 -200 45
3286683430.5718 -2.8927264 -65.459953 -200 45 -200 45 -200 45
3287683547.2579 -2.8870881 -65.433014 -200 45 -200 45 -200 45
3288683663.944 -2.8807831 -65.415909 -200 45 -200 45 -200 45
3289683780.6301 -2.8767989 -65.393608 -200 45 -200 45 -200 45
3290683897.3162 -2.8732719 -65.326096 -200 45 -200 45 -200 45
3291684014.0023 -2.8698802 -65.276558 -200 45 -200 45 -200 45
3292684130.6884 -2.8638935 -65.221077 -200 45 -200 45 -200 45
3293684247.3746 -2.8621628 -65.166336 -200 45 -200 45 -200 45
3294684364.0607 -2.8587003 -65.101715 -200 45 -200 45 -200 45
3295684480.7468 -2.8570371 -65.043381 -200 45 -200 45 -200 45
3296684597.4329 -2.8520219 -64.963554 -200 45 -200 45 -200 45
3297684714.119 -2.8495727 -64.889748 -200 45 -200 45 -200 45
3298684830.8051 -2.8467393 -64.837204 -200 45 -200 45 -200 45
3299684947.4912 -2.848129 -64.750496 -200 45 -200 45 -200 45
3300685064.1774 -2.8520749 -64.678207 -200 45 -200 45 -200 45
3301685180.8635 -2.8514514 -64.596031 -200 45 -200 45 -200 45
3302685297.5496 -2.8550575 -64.493423 -200 45 -200 45 -200 45
3303685414.2357 -2.8591423 -64.411011 -200 45 -200 45 -200 45
3304685530.9218 -2.8616655 -64.328255 -200 45 -200 45 -200 45
3305685647.6079 -2.8662653 -64.237946 -200 45 -200 45 -200 45
3306685764.294 -2.8692818 -64.149284 -200 45 -200 45 -200 45
3307685880.9802 -2.8736446 -64.052895 -200 45 -200 45 -200 45
3308685997.6663 -2.8765438 -63.992294 -200 45 -200 45 -200 45
3309686114.3524 -2.8806911 -63.90955 -200 45 -200 45 -200 45
3310686231.0385 -2.885062 -63.850883 -200 45 -200 45 -200 45
3311686347.7246 -2.8892257 -63.783867 -200 45 -200 45 -200 45
3312686464.4107 -2.8911169 -63.73106 -200 45 -200 45 -200 45
3313686581.0968 -2.8988838 -63.698856 -200 45 -200 45 -200 45
3314686697.783 -2.9036705 -63.635208 -200 45 -200 45 -200 45
3315686814.4691 -2.9134231 -63.632324 -200 45 -200 45 -200 45
3316686931.1552 -2.9195211 -63.601624 -200 45 -200 45 -200 45
3317687047.8413 -2.9268644 -63.575989 -200 45 -200 45 -200 45
3318687164.5274 -2.9369211 -63.542221 -200 45 -200 45 -200 45
3319687281.2135 -2.9457462 -63.524845 -200 45 -200 45 -200 45
3320687397.8997 -2.9545841 -63.526039 -200 45 -200 45 -200 45
3321687514.5858 -2.9610531 -63.507946 -200 45 -200 45 -200 45
3322687631.2719 -2.970448 -63.55582 -200 45 -200 45 -200 45
3323687747.958 -2.9795971 -63.566399 -200 45 -200 45 -200 45
3324687864.6441 -2.9859471 -63.579704 -200 45 -200 45 -200 45
3325687981.3302 -2.9953997 -63.630516 -200 45 -200 45 -200 45
3326688098.0163 -3.0033736 -63.689991 -200 45 -200 45 -200 45
3327688214.7025 -3.0117586 -63.726601 -200 45 -200 45 -200 45
3328688331.3886 -3.018012 -63.818344 -200 45 -200 45 -200 45
3329688448.0747 -3.0251312 -63.877991 -200 45 -200 45 -200 45
3330688564.7608 -3.0335317 -63.9468 -200 45 -200 45 -200 45
3331688681.4469 -3.0383089 -64.025475 -200 45 -200 45 -200 45
3332688798.133 -3.0455153 -64.092636 -200 45 -200 45 -200 45
3333688914.8191 -3.0555823 -64.180695 -200 45 -200 45 -200 45
3334689031.5053 -3.0579801 -64.279625 -200 45 -200 45 -200 45
3335689148.1914 -3.0666058 -64.379677 -200 45 -200 45 -200 45
3336689264.8775 -3.0684569 -64.501938 -200 45 -200 45 -200 45
3337689381.5636 -3.0757873 -64.606323 -200 45 -200 45 -200 45
3338689498.2497 -3.0796921 -64.711655 -200 45 -200 45 -200 45
3339689614.9358 -3.0801659 -64.83696 -200 45 -200 45 -200 45
3340689731.6219 -3.0847471 -64.974632 -200 45 -200 45 -200 45
3341689848.3081 -3.0833249 -65.085655 -200 45 -200 45 -200 45
3342689964.9942 -3.0882545 -65.213951 -200 45 -200 45 -200 45
3343690081.6803 -3.0877497 -65.340462 -200 45 -200 45 -200 45
3344690198.3664 -3.0872922 -65.469749 -200 45 -200 45 -200 45
3345690315.0525 -3.086411 -65.587868 -200 45 -200 45 -200 45
3346690431.7386 -3.0847607 -65.710159 -200 45 -200 45 -200 45
3347690548.4247 -3.0862858 -65.825539 -200 45 -200 45 -200 45
3348690665.1109 -3.0820689 -65.935768 -200 45 -200 45 -200 45
3349690781.797 -3.0756748 -66.054169 -200 45 -200 45 -200 45
3350690898.4831 -3.0744035 -66.15519 -200 45 -200 45 -200 45
3351691015.1692 -3.0679865 -66.290863 -200 45 -200 45 -200 45
3352691131.8553 -3.067584 -66.390617 -200 45 -200 45 -200 45
3353691248.5414 -3.0608263 -66.480545 -200 45 -200 45 -200 45
3354691365.2275 -3.0554132 -66.578697 -200 45 -200 45 -200 45
3355691481.9137 -3.0501804 -66.662491 -200 45 -200 45 -200 45
3356691598.5998 -3.0470335 -66.749954 -200 45 -200 45 -200 45
3357691715.2859 -3.0386999 -66.833641 -200 45 -200 45 -200 45
3358691831.972 -3.0337043 -66.896233 -200 45 -200 45 -200 45
3359691948.6581 -3.0250535 -66.94915 -200 45 -200 45 -200 45
3360692065.3442 -3.0170612 -67.006081 -200 45 -200 45 -200 45
3361692182.0303 -3.0094473 -67.028717 -200 45 -200 45 -200 45
3362692298.7165 -2.9992018 -67.083786 -200 45 -200 45 -200 45
3363692415.4026 -2.9923041 -67.111504 -200 45 -200 45 -200 45
3364692532.0887 -2.9819667 -67.131462 -200 45 -200 45 -200 45
3365692648.7748 -2.9776323 -67.165672 -200 45 -200 45 -200 45
3366692765.4609 -2.969336 -67.169044 -200 45 -200 45 -200 45
3367692882.147 -2.9624503 -67.149918 -200 45 -200 45 -200 45
3368692998.8331 -2.9577568 -67.150581 -200 45 -200 45 -200 45
3369693115.5193 -2.9516366 -67.152428 -200 45 -200 45 -200 45
3370693232.2054 -2.948009 -67.134598 -200 45 -200 45 -200 45
3371693348.8915 -2.9414637 -67.098412 -200 45 -200 45 -200 45
3372693465.5776 -2.9319456 -67.064674 -200 45 -200 45 -200 45
3373693582.2637 -2.9289823 -67.002052 -200 45 -200 45 -200 45
3374693698.9498 -2.9258797 -66.957191 -200 45 -200 45 -200 45
3375693815.6359 -2.9201438 -66.892372 -200 45 -200 45 -200 45
3376693932.3221 -2.9137537 -66.85347 -200 45 -200 45 -200 45
3377694049.0082 -2.9084313 -66.763092 -200 45 -200 45 -200 45
3378694165.6943 -2.9013352 -66.722336 -200 45 -200 45 -200 45
3379694282.3804 -2.9006259 -66.659798 -200 45 -200 45 -200 45
3380694399.0665 -2.8967795 -66.579491 -200 45 -200 45 -200 45
3381694515.7526 -2.8959701 -66.505699 -200 45 -200 45 -200 45
3382694632.4387 -2.8962228 -66.439301 -200 45 -200 45 -200 45
3383694749.1249 -2.8999047 -66.356377 -200 45 -200 45 -200 45
3384694865.811 -2.9005179 -66.283165 -200 45 -200 45 -200 45
3385694982.4971 -2.9006205 -66.185555 -200 45 -200 45 -200 45
3386695099.1832 -2.9031701 -66.115822 -200 45 -200 45 -200 45
3387695215.8693 -2.9066532 -66.011871 -200 45 -200 45 -200 45
3388695332.5554 -2.9059005 -65.93486 -200 45 -200 45 -200 45
3389695449.2415 -2.9092042 -65.845985 -200 45 -200 45 -200 45
3390695565.9277 -2.9125443 -65.775963 -200 45 -200 45 -200 45
3391695682.6138 -2.9145052 -65.704956 -200 45 -200 45 -200 45
3392695799.2999 -2.9152567 -65.621574 -200 45 -200 45 -200 45
3393695915.986 -2.9180272 -65.582603 -200 45 -200 45 -200 45
3394696032.6721 -2.9256086 -65.511955 -200 45 -200 45 -200 45
3395696149.3582 -2.9322653 -65.46978 -200 45 -200 45 -200 45
3396696266.0443 -2.938586 -65.411469 -200 45 -200 45 -200 45
3397696382.7305 -2.946068 -65.356171 -200 45 -200 45 -200 45
3398696499.4166 -2.9557498 -65.332512 -200 45 -200 45 -200 45
3399696616.1027 -2.9639318 -65.278915 -200 45 -200 45 -200 45
3400696732.7888 -2.9724164 -65.248932 -200 45 -200 45 -200 45
3401696849.4749 -2.983916 -65.220459 -200 45 -200 45 -200 45
3402696966.161 -2.9925413 -65.189629 -200 45 -200 45 -200 45
3403697082.8471 -3.001581 -65.19725 -200 45 -200 45 -200 45
3404697199.5333 -3.0062058 -65.192581 -200 45 -200 45 -200 45
3405697316.2194 -3.0149984 -65.192795 -200 45 -200 45 -200 45
3406697432.9055 -3.0246515 -65.199951 -200 45 -200 45 -200 45
3407697549.5916 -3.0321972 -65.207001 -200 45 -200 45 -200 45
3408697666.2777 -3.0372813 -65.254318 -200 45 -200 45 -200 45
3409697782.9638 -3.0448561 -65.276436 -200 45 -200 45 -200 45
3410697899.6499 -3.053493 -65.347206 -200 45 -200 45 -200 45
3411698016.3361 -3.062669 -65.394363 -200 45 -200 45 -200 45
3412698133.0222 -3.0730846 -65.457207 -200 45 -200 45 -200 45
3413698249.7083 -3.0784161 -65.525246 -200 45 -200 45 -200 45
3414698366.3944 -3.0897286 -65.598053 -200 45 -200 45 -200 45
3415698483.0805 -3.0959308 -65.676788 -200 45 -200 45 -200 45
3416698599.7666 -3.1030686 -65.753845 -200 45 -200 45 -200 45
3417698716.4527 -3.1148753 -65.847374 -200 45 -200 45 -200 45
3418698833.1389 -3.1195731 -65.934875 -200 45 -200 45 -200 45
3419698949.825 -3.1249418 -66.020012 -200 45 -200 45 -200 45
3420699066.5111 -3.13006 -66.135117 -200 45 -200 45 -200 45
3421699183.1972 -3.1321635 -66.228317 -200 45 -200 45 -200 45
3422699299.8833 -3.1375289 -66.353729 -200 45 -200 45 -200 45
3423699416.5694 -3.1394763 -66.467834 -200 45 -200 45 -200 45
3424699533.2555 -3.1369278 -66.618896 -200 45 -200 45 -200 45
3425699649.9417 -3.1367602 -66.73716 -200 45 -200 45 -200 45
3426699766.6278 -3.1412582 -66.867455 -200 45 -200 45 -200 45
3427699883.3139 -3.1437776 -66.990196 -200 45 -200 45 -200 45
3428700000 -3.1421025 -67.111382 -200 45 -200 45 -200 45
3429700116.6861 -3.1444263 -67.253418 -200 45 -200 45 -200 45
3430700233.3722 -3.1453063 -67.365517 -200 45 -200 45 -200 45
3431700350.0583 -3.1418905 -67.46566 -200 45 -200 45 -200 45
3432700466.7445 -3.1435356 -67.608597 -200 45 -200 45 -200 45
3433700583.4306 -3.1412826 -67.696136 -200 45 -200 45 -200 45
3434700700.1167 -3.1359003 -67.8078 -200 45 -200 45 -200 45
3435700816.8028 -3.1316133 -67.925728 -200 45 -200 45 -200 45
3436700933.4889 -3.1289771 -68.011894 -200 45 -200 45 -200 45
3437701050.175 -3.1226048 -68.125664 -200 45 -200 45 -200 45
3438701166.8611 -3.1156323 -68.215942 -200 45 -200 45 -200 45
3439701283.5473 -3.1113269 -68.30777 -200 45 -200 45 -200 45
3440701400.2334 -3.1025953 -68.403862 -200 45 -200 45 -200 45
3441701516.9195 -3.0944984 -68.466003 -200 45 -200 45 -200 45
3442701633.6056 -3.0892558 -68.544487 -200 45 -200 45 -200 45
3443701750.2917 -3.0826116 -68.606491 -200 45 -200 45 -200 45
3444701866.9778 -3.0759737 -68.65889 -200 45 -200 45 -200 45
3445701983.6639 -3.0673342 -68.692505 -200 45 -200 45 -200 45
3446702100.3501 -3.0631757 -68.760864 -200 45 -200 45 -200 45
3447702217.0362 -3.0564988 -68.796249 -200 45 -200 45 -200 45
3448702333.7223 -3.050369 -68.806633 -200 45 -200 45 -200 45
3449702450.4084 -3.045228 -68.809669 -200 45 -200 45 -200 45
3450702567.0945 -3.03808 -68.833313 -200 45 -200 45 -200 45
3451702683.7806 -3.0289996 -68.814003 -200 45 -200 45 -200 45
3452702800.4667 -3.0224264 -68.81926 -200 45 -200 45 -200 45
3453702917.1529 -3.0143902 -68.79776 -200 45 -200 45 -200 45
3454703033.839 -3.0068507 -68.776443 -200 45 -200 45 -200 45
3455703150.5251 -2.9995489 -68.78791 -200 45 -200 45 -200 45
3456703267.2112 -2.9931822 -68.748367 -200 45 -200 45 -200 45
3457703383.8973 -2.985631 -68.707253 -200 45 -200 45 -200 45
3458703500.5834 -2.9819534 -68.662247 -200 45 -200 45 -200 45
3459703617.2695 -2.9776816 -68.63472 -200 45 -200 45 -200 45
3460703733.9557 -2.9756329 -68.573273 -200 45 -200 45 -200 45
3461703850.6418 -2.9726524 -68.5028 -200 45 -200 45 -200 45
3462703967.3279 -2.9700229 -68.45134 -200 45 -200 45 -200 45
3463704084.014 -2.9701209 -68.359329 -200 45 -200 45 -200 45
3464704200.7001 -2.9684439 -68.294296 -200 45 -200 45 -200 45
3465704317.3862 -2.9653089 -68.209404 -200 45 -200 45 -200 45
3466704434.0723 -2.9640143 -68.131241 -200 45 -200 45 -200 45
3467704550.7585 -2.963052 -68.051514 -200 45 -200 45 -200 45
3468704667.4446 -2.9606125 -67.973274 -200 45 -200 45 -200 45
3469704784.1307 -2.9625266 -67.880539 -200 45 -200 45 -200 45
3470704900.8168 -2.9644661 -67.823509 -200 45 -200 45 -200 45
3471705017.5029 -2.9671185 -67.761276 -200 45 -200 45 -200 45
3472705134.189 -2.9673173 -67.672424 -200 45 -200 45 -200 45
3473705250.8751 -2.9737942 -67.605377 -200 45 -200 45 -200 45
3474705367.5613 -2.9782887 -67.507797 -200 45 -200 45 -200 45
3475705484.2474 -2.9851887 -67.444588 -200 45 -200 45 -200 45
3476705600.9335 -2.9911571 -67.360153 -200 45 -200 45 -200 45
3477705717.6196 -2.9970155 -67.284538 -200 45 -200 45 -200 45
3478705834.3057 -3.0035872 -67.191879 -200 45 -200 45 -200 45
3479705950.9918 -3.0076625 -67.138817 -200 45 -200 45 -200 45
3480706067.6779 -3.0153775 -67.077057 -200 45 -200 45 -200 45
3481706184.3641 -3.0208745 -67.034203 -200 45 -200 45 -200 45
3482706301.0502 -3.0291903 -66.993622 -200 45 -200 45 -200 45
3483706417.7363 -3.0380325 -66.981476 -200 45 -200 45 -200 45
3484706534.4224 -3.0446134 -66.939087 -200 45 -200 45 -200 45
3485706651.1085 -3.0547748 -66.918571 -200 45 -200 45 -200 45
3486706767.7946 -3.0643165 -66.907043 -200 45 -200 45 -200 45
3487706884.4807 -3.0757601 -66.900307 -200 45 -200 45 -200 45
3488707001.1669 -3.0820289 -66.902275 -200 45 -200 45 -200 45
3489707117.853 -3.0920875 -66.907692 -200 45 -200 45 -200 45
3490707234.5391 -3.1026921 -66.895531 -200 45 -200 45 -200 45
3491707351.2252 -3.1134145 -66.906311 -200 45 -200 45 -200 45
3492707467.9113 -3.1211431 -66.958397 -200 45 -200 45 -200 45
3493707584.5974 -3.1304586 -66.972916 -200 45 -200 45 -200 45
3494707701.2835 -3.1417639 -67.041069 -200 45 -200 45 -200 45
3495707817.9697 -3.1501949 -67.082642 -200 45 -200 45 -200 45
3496707934.6558 -3.1606104 -67.154602 -200 45 -200 45 -200 45
3497708051.3419 -3.1695452 -67.217354 -200 45 -200 45 -200 45
3498708168.028 -3.177825 -67.300186 -200 45 -200 45 -200 45
3499708284.7141 -3.1856954 -67.397476 -200 45 -200 45 -200 45
3500708401.4002 -3.194324 -67.487099 -200 45 -200 45 -200 45
3501708518.0863 -3.202096 -67.585007 -200 45 -200 45 -200 45
3502708634.7725 -3.2116108 -67.656662 -200 45 -200 45 -200 45
3503708751.4586 -3.2158866 -67.789055 -200 45 -200 45 -200 45
3504708868.1447 -3.2191863 -67.898277 -200 45 -200 45 -200 45
3505708984.8308 -3.2236056 -68.002037 -200 45 -200 45 -200 45
3506709101.5169 -3.2299154 -68.108971 -200 45 -200 45 -200 45
3507709218.203 -3.2352016 -68.233337 -200 45 -200 45 -200 45
3508709334.8891 -3.2376525 -68.359344 -200 45 -200 45 -200 45
3509709451.5753 -3.2370086 -68.471802 -200 45 -200 45 -200 45
3510709568.2614 -3.2414815 -68.604225 -200 45 -200 45 -200 45
3511709684.9475 -3.2420323 -68.716621 -200 45 -200 45 -200 45
3512709801.6336 -3.2443333 -68.862717 -200 45 -200 45 -200 45
3513709918.3197 -3.2419231 -69.006981 -200 45 -200 45 -200 45
3514710035.0058 -3.240742 -69.14138 -200 45 -200 45 -200 45
3515710151.6919 -3.240258 -69.278793 -200 45 -200 45 -200 45
3516710268.3781 -3.2395287 -69.40699 -200 45 -200 45 -200 45
3517710385.0642 -3.2395279 -69.529121 -200 45 -200 45 -200 45
3518710501.7503 -3.2386916 -69.655731 -200 45 -200 45 -200 45
3519710618.4364 -3.2351232 -69.749069 -200 45 -200 45 -200 45
3520710735.1225 -3.2286563 -69.876053 -200 45 -200 45 -200 45
3521710851.8086 -3.2221646 -69.976738 -200 45 -200 45 -200 45
3522710968.4947 -3.2143922 -70.058914 -200 45 -200 45 -200 45
3523711085.1809 -3.2095184 -70.160492 -200 45 -200 45 -200 45
3524711201.867 -3.2035799 -70.242767 -200 45 -200 45 -200 45
3525711318.5531 -3.1982052 -70.324738 -200 45 -200 45 -200 45
3526711435.2392 -3.191721 -70.433014 -200 45 -200 45 -200 45
3527711551.9253 -3.1838386 -70.505577 -200 45 -200 45 -200 45
3528711668.6114 -3.1787348 -70.579384 -200 45 -200 45 -200 45
3529711785.2975 -3.1753402 -70.623177 -200 45 -200 45 -200 45
3530711901.9837 -3.1672039 -70.699638 -200 45 -200 45 -200 45
3531712018.6698 -3.161886 -70.756485 -200 45 -200 45 -200 45
3532712135.3559 -3.1561594 -70.759361 -200 45 -200 45 -200 45
3533712252.042 -3.152657 -70.796211 -200 45 -200 45 -200 45
3534712368.7281 -3.1472812 -70.819931 -200 45 -200 45 -200 45
3535712485.4142 -3.1396079 -70.812317 -200 45 -200 45 -200 45
3536712602.1004 -3.1318057 -70.837822 -200 45 -200 45 -200 45
3537712718.7865 -3.1262777 -70.84063 -200 45 -200 45 -200 45
3538712835.4726 -3.1227226 -70.833542 -200 45 -200 45 -200 45
3539712952.1587 -3.1162264 -70.802452 -200 45 -200 45 -200 45
3540713068.8448 -3.112215 -70.774513 -200 45 -200 45 -200 45
3541713185.5309 -3.1087089 -70.759895 -200 45 -200 45 -200 45
3542713302.217 -3.105607 -70.725288 -200 45 -200 45 -200 45
3543713418.9032 -3.1022029 -70.68576 -200 45 -200 45 -200 45
3544713535.5893 -3.1032851 -70.627151 -200 45 -200 45 -200 45
3545713652.2754 -3.1043961 -70.578583 -200 45 -200 45 -200 45
3546713768.9615 -3.1021264 -70.516884 -200 45 -200 45 -200 45
3547713885.6476 -3.1026242 -70.459114 -200 45 -200 45 -200 45
3548714002.3337 -3.1027505 -70.398262 -200 45 -200 45 -200 45
3549714119.0198 -3.1055789 -70.335617 -200 45 -200 45 -200 45
3550714235.706 -3.1042833 -70.262573 -200 45 -200 45 -200 45
3551714352.3921 -3.107506 -70.198883 -200 45 -200 45 -200 45
3552714469.0782 -3.1090009 -70.1287 -200 45 -200 45 -200 45
3553714585.7643 -3.1115744 -70.061615 -200 45 -200 45 -200 45
3554714702.4504 -3.1155114 -69.998665 -200 45 -200 45 -200 45
3555714819.1365 -3.1230674 -69.935814 -200 45 -200 45 -200 45
3556714935.8226 -3.1308596 -69.875046 -200 45 -200 45 -200 45
3557715052.5088 -3.1391561 -69.816544 -200 45 -200 45 -200 45
3558715169.1949 -3.1451497 -69.745941 -200 45 -200 45 -200 45
3559715285.881 -3.1566916 -69.70871 -200 45 -200 45 -200 45
3560715402.5671 -3.1677291 -69.629448 -200 45 -200 45 -200 45
3561715519.2532 -3.1811652 -69.585342 -200 45 -200 45 -200 45
3562715635.9393 -3.193002 -69.5476 -200 45 -200 45 -200 45
3563715752.6254 -3.2070701 -69.497963 -200 45 -200 45 -200 45
3564715869.3116 -3.2205284 -69.470451 -200 45 -200 45 -200 45
3565715985.9977 -3.2352684 -69.452179 -200 45 -200 45 -200 45
3566716102.6838 -3.2526648 -69.446632 -200 45 -200 45 -200 45
3567716219.3699 -3.2656999 -69.423889 -200 45 -200 45 -200 45
3568716336.056 -3.2849722 -69.428108 -200 45 -200 45 -200 45
3569716452.7421 -3.3049202 -69.427681 -200 45 -200 45 -200 45
3570716569.4282 -3.3307304 -69.441811 -200 45 -200 45 -200 45
3571716686.1144 -3.3524985 -69.475449 -200 45 -200 45 -200 45
3572716802.8005 -3.3767552 -69.476807 -200 45 -200 45 -200 45
3573716919.4866 -3.4049699 -69.501747 -200 45 -200 45 -200 45
3574717036.1727 -3.4330728 -69.517502 -200 45 -200 45 -200 45
3575717152.8588 -3.4612701 -69.562599 -200 45 -200 45 -200 45
3576717269.5449 -3.4929838 -69.586761 -200 45 -200 45 -200 45
3577717386.231 -3.5251498 -69.619217 -200 45 -200 45 -200 45
3578717502.9172 -3.5569496 -69.668037 -200 45 -200 45 -200 45
3579717619.6033 -3.5892425 -69.755867 -200 45 -200 45 -200 45
3580717736.2894 -3.6262729 -69.802826 -200 45 -200 45 -200 45
3581717852.9755 -3.6706858 -69.878563 -200 45 -200 45 -200 45
3582717969.6616 -3.7158551 -69.911102 -200 45 -200 45 -200 45
3583718086.3477 -3.7619252 -69.943466 -200 45 -200 45 -200 45
3584718203.0338 -3.8166056 -69.934044 -200 45 -200 45 -200 45
3585718319.72 -3.8766515 -69.884117 -200 45 -200 45 -200 45
3586718436.4061 -3.9352386 -69.768265 -200 45 -200 45 -200 45
3587718553.0922 -3.993983 -69.595184 -200 45 -200 45 -200 45
3588718669.7783 -4.0464153 -69.293747 -200 45 -200 45 -200 45
3589718786.4644 -4.0876274 -68.934738 -200 45 -200 45 -200 45
3590718903.1505 -4.1184092 -68.519882 -200 45 -200 45 -200 45
3591719019.8366 -4.1272502 -68.089111 -200 45 -200 45 -200 45
3592719136.5228 -4.1223898 -67.625656 -200 45 -200 45 -200 45
3593719253.2089 -4.0893383 -67.238907 -200 45 -200 45 -200 45
3594719369.895 -4.043818 -66.933464 -200 45 -200 45 -200 45
3595719486.5811 -3.985008 -66.741669 -200 45 -200 45 -200 45
3596719603.2672 -3.9291921 -66.663536 -200 45 -200 45 -200 45
3597719719.9533 -3.8728826 -66.715309 -200 45 -200 45 -200 45
3598719836.6394 -3.8303001 -66.834351 -200 45 -200 45 -200 45
3599719953.3256 -3.7952096 -66.973152 -200 45 -200 45 -200 45
3600720070.0117 -3.7643564 -67.122215 -200 45 -200 45 -200 45
3601720186.6978 -3.7416689 -67.229111 -200 45 -200 45 -200 45
3602720303.3839 -3.7261953 -67.310684 -200 45 -200 45 -200 45
3603720420.07 -3.7069366 -67.372482 -200 45 -200 45 -200 45
3604720536.7561 -3.6819122 -67.414986 -200 45 -200 45 -200 45
3605720653.4422 -3.6603603 -67.476151 -200 45 -200 45 -200 45
3606720770.1284 -3.6345038 -67.571762 -200 45 -200 45 -200 45
3607720886.8145 -3.6119461 -67.658249 -200 45 -200 45 -200 45
3608721003.5006 -3.5965099 -67.740959 -200 45 -200 45 -200 45
3609721120.1867 -3.5813477 -67.797318 -200 45 -200 45 -200 45
3610721236.8728 -3.5674682 -67.830208 -200 45 -200 45 -200 45
3611721353.5589 -3.5507574 -67.814957 -200 45 -200 45 -200 45
3612721470.245 -3.5299923 -67.773308 -200 45 -200 45 -200 45
3613721586.9312 -3.505527 -67.710838 -200 45 -200 45 -200 45
3614721703.6173 -3.4764366 -67.626808 -200 45 -200 45 -200 45
3615721820.3034 -3.4398167 -67.559692 -200 45 -200 45 -200 45
3616721936.9895 -3.3962634 -67.546509 -200 45 -200 45 -200 45
3617722053.6756 -3.352582 -67.539474 -200 45 -200 45 -200 45
3618722170.3617 -3.3096082 -67.582664 -200 45 -200 45 -200 45
3619722287.0478 -3.2710464 -67.677071 -200 45 -200 45 -200 45
3620722403.734 -3.2395287 -67.773407 -200 45 -200 45 -200 45
3621722520.4201 -3.2092931 -67.877724 -200 45 -200 45 -200 45
3622722637.1062 -3.190074 -67.97023 -200 45 -200 45 -200 45
3623722753.7923 -3.172348 -68.042885 -200 45 -200 45 -200 45
3624722870.4784 -3.1589742 -68.090302 -200 45 -200 45 -200 45
3625722987.1645 -3.1464784 -68.120621 -200 45 -200 45 -200 45
3626723103.8506 -3.1317852 -68.121346 -200 45 -200 45 -200 45
3627723220.5368 -3.1176181 -68.105904 -200 45 -200 45 -200 45
3628723337.2229 -3.1083605 -68.041779 -200 45 -200 45 -200 45
3629723453.909 -3.0965314 -68.00238 -200 45 -200 45 -200 45
3630723570.5951 -3.0827477 -67.945351 -200 45 -200 45 -200 45
3631723687.2812 -3.0640221 -67.876778 -200 45 -200 45 -200 45
3632723803.9673 -3.043535 -67.8405 -200 45 -200 45 -200 45
3633723920.6534 -3.0225267 -67.799515 -200 45 -200 45 -200 45
3634724037.3396 -3.0015118 -67.75087 -200 45 -200 45 -200 45
3635724154.0257 -2.983366 -67.731865 -200 45 -200 45 -200 45
3636724270.7118 -2.9674947 -67.752472 -200 45 -200 45 -200 45
3637724387.3979 -2.9561131 -67.780327 -200 45 -200 45 -200 45
3638724504.084 -2.9461038 -67.796738 -200 45 -200 45 -200 45
3639724620.7701 -2.9426515 -67.816017 -200 45 -200 45 -200 45
3640724737.4562 -2.9429452 -67.838989 -200 45 -200 45 -200 45
3641724854.1424 -2.941139 -67.860741 -200 45 -200 45 -200 45
3642724970.8285 -2.9439266 -67.87413 -200 45 -200 45 -200 45
3643725087.5146 -2.947238 -67.887077 -200 45 -200 45 -200 45
3644725204.2007 -2.959553 -67.888832 -200 45 -200 45 -200 45
3645725320.8868 -2.9692478 -67.862564 -200 45 -200 45 -200 45
3646725437.5729 -2.9784694 -67.857407 -200 45 -200 45 -200 45
3647725554.259 -2.9865866 -67.835701 -200 45 -200 45 -200 45
3648725670.9452 -2.9991744 -67.810181 -200 45 -200 45 -200 45
3649725787.6313 -3.0105567 -67.774269 -200 45 -200 45 -200 45
3650725904.3174 -3.0239482 -67.720665 -200 45 -200 45 -200 45
3651726021.0035 -3.0337083 -67.653473 -200 45 -200 45 -200 45
3652726137.6896 -3.0449574 -67.591698 -200 45 -200 45 -200 45
3653726254.3757 -3.0527582 -67.577896 -200 45 -200 45 -200 45
3654726371.0618 -3.0637898 -67.549767 -200 45 -200 45 -200 45
3655726487.748 -3.0739381 -67.530663 -200 45 -200 45 -200 45
3656726604.4341 -3.0889733 -67.51461 -200 45 -200 45 -200 45
3657726721.1202 -3.0992837 -67.474129 -200 45 -200 45 -200 45
3658726837.8063 -3.1060431 -67.452507 -200 45 -200 45 -200 45
3659726954.4924 -3.1138952 -67.432823 -200 45 -200 45 -200 45
3660727071.1785 -3.12044 -67.42662 -200 45 -200 45 -200 45
3661727187.8646 -3.1231067 -67.427818 -200 45 -200 45 -200 45
3662727304.5508 -3.1287334 -67.458786 -200 45 -200 45 -200 45
3663727421.2369 -3.1280093 -67.501595 -200 45 -200 45 -200 45
3664727537.923 -3.1316948 -67.575363 -200 45 -200 45 -200 45
3665727654.6091 -3.1384246 -67.64505 -200 45 -200 45 -200 45
3666727771.2952 -3.1459286 -67.735802 -200 45 -200 45 -200 45
3667727887.9813 -3.1531045 -67.796516 -200 45 -200 45 -200 45
3668728004.6674 -3.1606505 -67.85849 -200 45 -200 45 -200 45
3669728121.3536 -3.1677079 -67.946373 -200 45 -200 45 -200 45
3670728238.0397 -3.1712935 -68.016663 -200 45 -200 45 -200 45
3671728354.7258 -3.1740115 -68.112427 -200 45 -200 45 -200 45
3672728471.4119 -3.1792274 -68.216675 -200 45 -200 45 -200 45
3673728588.098 -3.1784329 -68.322388 -200 45 -200 45 -200 45
3674728704.7841 -3.1809943 -68.440437 -200 45 -200 45 -200 45
3675728821.4702 -3.1846714 -68.567589 -200 45 -200 45 -200 45
3676728938.1564 -3.1834412 -68.664665 -200 45 -200 45 -200 45
3677729054.8425 -3.1822076 -68.798454 -200 45 -200 45 -200 45
3678729171.5286 -3.177211 -68.932152 -200 45 -200 45 -200 45
3679729288.2147 -3.1694829 -69.08168 -200 45 -200 45 -200 45
3680729404.9008 -3.1667683 -69.237106 -200 45 -200 45 -200 45
3681729521.5869 -3.1635973 -69.416611 -200 45 -200 45 -200 45
3682729638.273 -3.1641941 -69.575615 -200 45 -200 45 -200 45
3683729754.9592 -3.1618829 -69.718109 -200 45 -200 45 -200 45
3684729871.6453 -3.1600006 -69.8582 -200 45 -200 45 -200 45
3685729988.3314 -3.1582386 -70.011757 -200 45 -200 45 -200 45
3686730105.0175 -3.1531816 -70.152496 -200 45 -200 45 -200 45
3687730221.7036 -3.1527658 -70.280182 -200 45 -200 45 -200 45
3688730338.3897 -3.1529207 -70.436295 -200 45 -200 45 -200 45
3689730455.0758 -3.1472218 -70.535805 -200 45 -200 45 -200 45
3690730571.762 -3.1413374 -70.663506 -200 45 -200 45 -200 45
3691730688.4481 -3.1373188 -70.794983 -200 45 -200 45 -200 45
3692730805.1342 -3.1312304 -70.902367 -200 45 -200 45 -200 45
3693730921.8203 -3.125843 -70.997177 -200 45 -200 45 -200 45
3694731038.5064 -3.1209207 -71.106209 -200 45 -200 45 -200 45
3695731155.1925 -3.1119874 -71.182724 -200 45 -200 45 -200 45
3696731271.8786 -3.1073704 -71.254097 -200 45 -200 45 -200 45
3697731388.5648 -3.1022673 -71.32132 -200 45 -200 45 -200 45
3698731505.2509 -3.0948637 -71.378395 -200 45 -200 45 -200 45
3699731621.937 -3.0890188 -71.410812 -200 45 -200 45 -200 45
3700731738.6231 -3.0802794 -71.463753 -200 45 -200 45 -200 45
3701731855.3092 -3.0738223 -71.4785 -200 45 -200 45 -200 45
3702731971.9953 -3.068727 -71.47522 -200 45 -200 45 -200 45
3703732088.6814 -3.0630786 -71.471657 -200 45 -200 45 -200 45
3704732205.3676 -3.0547805 -71.466042 -200 45 -200 45 -200 45
3705732322.0537 -3.046689 -71.463089 -200 45 -200 45 -200 45
3706732438.7398 -3.0321639 -71.464409 -200 45 -200 45 -200 45
3707732555.4259 -3.021615 -71.43689 -200 45 -200 45 -200 45
3708732672.112 -3.0153186 -71.433052 -200 45 -200 45 -200 45
3709732788.7981 -3.0040691 -71.407028 -200 45 -200 45 -200 45
3710732905.4842 -3.0004332 -71.379234 -200 45 -200 45 -200 45
3711733022.1704 -2.9873748 -71.365868 -200 45 -200 45 -200 45
3712733138.8565 -2.9788117 -71.328369 -200 45 -200 45 -200 45
3713733255.5426 -2.9720588 -71.265808 -200 45 -200 45 -200 45
3714733372.2287 -2.9698946 -71.229904 -200 45 -200 45 -200 45
3715733488.9148 -2.9641838 -71.173134 -200 45 -200 45 -200 45
3716733605.6009 -2.9612753 -71.114845 -200 45 -200 45 -200 45
3717733722.287 -2.9561234 -71.062096 -200 45 -200 45 -200 45
3718733838.9732 -2.9536858 -71.003578 -200 45 -200 45 -200 45
3719733955.6593 -2.954421 -70.932938 -200 45 -200 45 -200 45
3720734072.3454 -2.9517887 -70.867516 -200 45 -200 45 -200 45
3721734189.0315 -2.95344 -70.809967 -200 45 -200 45 -200 45
3722734305.7176 -2.9524508 -70.733566 -200 45 -200 45 -200 45
3723734422.4037 -2.9527297 -70.640144 -200 45 -200 45 -200 45
3724734539.0898 -2.9559674 -70.568993 -200 45 -200 45 -200 45
3725734655.776 -2.9560013 -70.492775 -200 45 -200 45 -200 45
3726734772.4621 -2.9588971 -70.435974 -200 45 -200 45 -200 45
3727734889.1482 -2.9597321 -70.345146 -200 45 -200 45 -200 45
3728735005.8343 -2.9615047 -70.291145 -200 45 -200 45 -200 45
3729735122.5204 -2.9669869 -70.200935 -200 45 -200 45 -200 45
3730735239.2065 -2.9707205 -70.145615 -200 45 -200 45 -200 45
3731735355.8926 -2.9801967 -70.089195 -200 45 -200 45 -200 45
3732735472.5788 -2.9820809 -70.032196 -200 45 -200 45 -200 45
3733735589.2649 -2.9878173 -69.975693 -200 45 -200 45 -200 45
3734735705.951 -2.995363 -69.91053 -200 45 -200 45 -200 45
3735735822.6371 -3.0044749 -69.884598 -200 45 -200 45 -200 45
3736735939.3232 -3.0118933 -69.820007 -200 45 -200 45 -200 45
3737736056.0093 -3.0217702 -69.793846 -200 45 -200 45 -200 45
3738736172.6954 -3.0275762 -69.770226 -200 45 -200 45 -200 45
3739736289.3816 -3.0358741 -69.755409 -200 45 -200 45 -200 45
3740736406.0677 -3.0444717 -69.749527 -200 45 -200 45 -200 45
3741736522.7538 -3.052937 -69.728859 -200 45 -200 45 -200 45
3742736639.4399 -3.0635552 -69.731537 -200 45 -200 45 -200 45
3743736756.126 -3.0688293 -69.729774 -200 45 -200 45 -200 45
3744736872.8121 -3.0758281 -69.764664 -200 45 -200 45 -200 45
3745736989.4983 -3.0836489 -69.776665 -200 45 -200 45 -200 45
3746737106.1844 -3.091718 -69.790375 -200 45 -200 45 -200 45
3747737222.8705 -3.1000051 -69.851898 -200 45 -200 45 -200 45
3748737339.5566 -3.105763 -69.889923 -200 45 -200 45 -200 45
3749737456.2427 -3.1167092 -69.938583 -200 45 -200 45 -200 45
3750737572.9288 -3.1245899 -70.015945 -200 45 -200 45 -200 45
3751737689.6149 -3.133003 -70.068596 -200 45 -200 45 -200 45
3752737806.3011 -3.1377764 -70.151276 -200 45 -200 45 -200 45
3753737922.9872 -3.1474645 -70.254219 -200 45 -200 45 -200 45
3754738039.6733 -3.1543589 -70.348259 -200 45 -200 45 -200 45
3755738156.3594 -3.160512 -70.458496 -200 45 -200 45 -200 45
3756738273.0455 -3.1682498 -70.540588 -200 45 -200 45 -200 45
3757738389.7316 -3.174278 -70.651184 -200 45 -200 45 -200 45
3758738506.4177 -3.1769049 -70.768951 -200 45 -200 45 -200 45
3759738623.1039 -3.1780875 -70.867546 -200 45 -200 45 -200 45
3760738739.79 -3.1809537 -70.986084 -200 45 -200 45 -200 45
3761738856.4761 -3.1853857 -71.136711 -200 45 -200 45 -200 45
3762738973.1622 -3.1865051 -71.240173 -200 45 -200 45 -200 45
3763739089.8483 -3.1878572 -71.371445 -200 45 -200 45 -200 45
3764739206.5344 -3.1879208 -71.490326 -200 45 -200 45 -200 45
3765739323.2205 -3.1899111 -71.619133 -200 45 -200 45 -200 45
3766739439.9067 -3.190989 -71.749886 -200 45 -200 45 -200 45
3767739556.5928 -3.1880596 -71.881271 -200 45 -200 45 -200 45
3768739673.2789 -3.188838 -71.999557 -200 45 -200 45 -200 45
3769739789.965 -3.1879642 -72.134392 -200 45 -200 45 -200 45
3770739906.6511 -3.1852942 -72.254242 -200 45 -200 45 -200 45
3771740023.3372 -3.1818686 -72.365524 -200 45 -200 45 -200 45
3772740140.0233 -3.1771216 -72.483765 -200 45 -200 45 -200 45
3773740256.7095 -3.1746414 -72.586273 -200 45 -200 45 -200 45
3774740373.3956 -3.1644645 -72.69838 -200 45 -200 45 -200 45
3775740490.0817 -3.1544218 -72.804268 -200 45 -200 45 -200 45
3776740606.7678 -3.1495492 -72.901222 -200 45 -200 45 -200 45
3777740723.4539 -3.1430514 -72.991989 -200 45 -200 45 -200 45
3778740840.14 -3.1380181 -73.08107 -200 45 -200 45 -200 45
3779740956.8261 -3.1282804 -73.150787 -200 45 -200 45 -200 45
3780741073.5123 -3.1206183 -73.249481 -200 45 -200 45 -200 45
3781741190.1984 -3.1172719 -73.290146 -200 45 -200 45 -200 45
3782741306.8845 -3.109529 -73.345886 -200 45 -200 45 -200 45
3783741423.5706 -3.1046021 -73.388046 -200 45 -200 45 -200 45
3784741540.2567 -3.0977571 -73.444267 -200 45 -200 45 -200 45
3785741656.9428 -3.0882337 -73.453033 -200 45 -200 45 -200 45
3786741773.6289 -3.078079 -73.479576 -200 45 -200 45 -200 45
3787741890.3151 -3.0687666 -73.516151 -200 45 -200 45 -200 45
3788742007.0012 -3.0625358 -73.50515 -200 45 -200 45 -200 45
3789742123.6873 -3.0534286 -73.51725 -200 45 -200 45 -200 45
3790742240.3734 -3.046016 -73.506462 -200 45 -200 45 -200 45
3791742357.0595 -3.0382855 -73.518044 -200 45 -200 45 -200 45
3792742473.7456 -3.0304644 -73.48082 -200 45 -200 45 -200 45
3793742590.4317 -3.0245416 -73.466156 -200 45 -200 45 -200 45
3794742707.1179 -3.0183578 -73.426323 -200 45 -200 45 -200 45
3795742823.804 -3.0114567 -73.370041 -200 45 -200 45 -200 45
3796742940.4901 -3.007139 -73.32383 -200 45 -200 45 -200 45
3797743057.1762 -3.0018916 -73.266556 -200 45 -200 45 -200 45
3798743173.8623 -2.9978507 -73.202881 -200 45 -200 45 -200 45
3799743290.5484 -2.9934747 -73.138206 -200 45 -200 45 -200 45
3800743407.2345 -2.9936242 -73.077614 -200 45 -200 45 -200 45
3801743523.9207 -2.9909463 -73.003448 -200 45 -200 45 -200 45
3802743640.6068 -2.9824939 -72.926643 -200 45 -200 45 -200 45
3803743757.2929 -2.9820609 -72.84861 -200 45 -200 45 -200 45
3804743873.979 -2.9833753 -72.765388 -200 45 -200 45 -200 45
3805743990.6651 -2.9828973 -72.665123 -200 45 -200 45 -200 45
3806744107.3512 -2.9802902 -72.587891 -200 45 -200 45 -200 45
3807744224.0373 -2.978689 -72.522171 -200 45 -200 45 -200 45
3808744340.7235 -2.979485 -72.438309 -200 45 -200 45 -200 45
3809744457.4096 -2.984076 -72.339943 -200 45 -200 45 -200 45
3810744574.0957 -2.9846678 -72.271309 -200 45 -200 45 -200 45
3811744690.7818 -2.9891179 -72.182785 -200 45 -200 45 -200 45
3812744807.4679 -2.9902022 -72.111191 -200 45 -200 45 -200 45
3813744924.154 -2.9950943 -72.026978 -200 45 -200 45 -200 45
3814745040.8401 -3.0011816 -71.962036 -200 45 -200 45 -200 45
3815745157.5263 -3.0120358 -71.889206 -200 45 -200 45 -200 45
3816745274.2124 -3.0142155 -71.808922 -200 45 -200 45 -200 45
3817745390.8985 -3.0195689 -71.759987 -200 45 -200 45 -200 45
3818745507.5846 -3.0250821 -71.705284 -200 45 -200 45 -200 45
3819745624.2707 -3.0306976 -71.647438 -200 45 -200 45 -200 45
3820745740.9568 -3.0399594 -71.60817 -200 45 -200 45 -200 45
3821745857.6429 -3.0464113 -71.561371 -200 45 -200 45 -200 45
3822745974.3291 -3.05281 -71.53933 -200 45 -200 45 -200 45
3823746091.0152 -3.0585089 -71.537331 -200 45 -200 45 -200 45
3824746207.7013 -3.0669611 -71.524727 -200 45 -200 45 -200 45
3825746324.3874 -3.0769296 -71.507431 -200 45 -200 45 -200 45
3826746441.0735 -3.0859675 -71.510773 -200 45 -200 45 -200 45
3827746557.7596 -3.0955145 -71.504623 -200 45 -200 45 -200 45
3828746674.4457 -3.1033895 -71.503639 -200 45 -200 45 -200 45
3829746791.1319 -3.1146238 -71.535698 -200 45 -200 45 -200 45
3830746907.818 -3.1242969 -71.573982 -200 45 -200 45 -200 45
3831747024.5041 -3.1360674 -71.607758 -200 45 -200 45 -200 45
3832747141.1902 -3.1437185 -71.655838 -200 45 -200 45 -200 45
3833747257.8763 -3.1496823 -71.718971 -200 45 -200 45 -200 45
3834747374.5624 -3.1593611 -71.777061 -200 45 -200 45 -200 45
3835747491.2485 -3.1653819 -71.846191 -200 45 -200 45 -200 45
3836747607.9347 -3.176646 -71.928261 -200 45 -200 45 -200 45
3837747724.6208 -3.1860502 -72.008812 -200 45 -200 45 -200 45
3838747841.3069 -3.1909423 -72.105927 -200 45 -200 45 -200 45
3839747957.993 -3.1947746 -72.210236 -200 45 -200 45 -200 45
3840748074.6791 -3.202606 -72.316887 -200 45 -200 45 -200 45
3841748191.3652 -3.208528 -72.437126 -200 45 -200 45 -200 45
3842748308.0513 -3.2124441 -72.541191 -200 45 -200 45 -200 45
3843748424.7375 -3.2176526 -72.655891 -200 45 -200 45 -200 45
3844748541.4236 -3.2218642 -72.784309 -200 45 -200 45 -200 45
3845748658.1097 -3.228631 -72.911942 -200 45 -200 45 -200 45
3846748774.7958 -3.2294898 -73.046082 -200 45 -200 45 -200 45
3847748891.4819 -3.2341621 -73.169846 -200 45 -200 45 -200 45
3848749008.168 -3.2356052 -73.307106 -200 45 -200 45 -200 45
3849749124.8541 -3.2358735 -73.456779 -200 45 -200 45 -200 45
3850749241.5403 -3.2356992 -73.585487 -200 45 -200 45 -200 45
3851749358.2264 -3.2362568 -73.715408 -200 45 -200 45 -200 45
3852749474.9125 -3.2347269 -73.855461 -200 45 -200 45 -200 45
3853749591.5986 -3.2344949 -73.992889 -200 45 -200 45 -200 45
3854749708.2847 -3.2305477 -74.124626 -200 45 -200 45 -200 45
3855749824.9708 -3.2280567 -74.261673 -200 45 -200 45 -200 45
3856749941.6569 -3.2211964 -74.367508 -200 45 -200 45 -200 45
3857750058.3431 -3.2166841 -74.498703 -200 45 -200 45 -200 45
3858750175.0292 -3.2144001 -74.624329 -200 45 -200 45 -200 45
3859750291.7153 -3.2067144 -74.725525 -200 45 -200 45 -200 45
3860750408.4014 -3.2037716 -74.831802 -200 45 -200 45 -200 45
3861750525.0875 -3.1970778 -74.945518 -200 45 -200 45 -200 45
3862750641.7736 -3.1952801 -75.038086 -200 45 -200 45 -200 45
3863750758.4597 -3.1887691 -75.113419 -200 45 -200 45 -200 45
3864750875.1459 -3.1811397 -75.191513 -200 45 -200 45 -200 45
3865750991.832 -3.174026 -75.259583 -200 45 -200 45 -200 45
3866751108.5181 -3.1673133 -75.323509 -200 45 -200 45 -200 45
3867751225.2042 -3.1588418 -75.369972 -200 45 -200 45 -200 45
3868751341.8903 -3.1521938 -75.42218 -200 45 -200 45 -200 45
3869751458.5764 -3.1454442 -75.466278 -200 45 -200 45 -200 45
3870751575.2625 -3.1351726 -75.495934 -200 45 -200 45 -200 45
3871751691.9487 -3.1247323 -75.509163 -200 45 -200 45 -200 45
3872751808.6348 -3.1159229 -75.524788 -200 45 -200 45 -200 45
3873751925.3209 -3.1097457 -75.536049 -200 45 -200 45 -200 45
3874752042.007 -3.1017184 -75.552361 -200 45 -200 45 -200 45
3875752158.6931 -3.0985372 -75.523575 -200 45 -200 45 -200 45
3876752275.3792 -3.0885801 -75.526337 -200 45 -200 45 -200 45
3877752392.0653 -3.0810299 -75.499809 -200 45 -200 45 -200 45
3878752508.7515 -3.079634 -75.444191 -200 45 -200 45 -200 45
3879752625.4376 -3.0756779 -75.421776 -200 45 -200 45 -200 45
3880752742.1237 -3.0699017 -75.353241 -200 45 -200 45 -200 45
3881752858.8098 -3.0674329 -75.317177 -200 45 -200 45 -200 45
3882752975.4959 -3.0593536 -75.261253 -200 45 -200 45 -200 45
3883753092.182 -3.056695 -75.190567 -200 45 -200 45 -200 45
3884753208.8681 -3.0517266 -75.118889 -200 45 -200 45 -200 45
3885753325.5543 -3.0507326 -75.069199 -200 45 -200 45 -200 45
3886753442.2404 -3.048939 -74.987717 -200 45 -200 45 -200 45
3887753558.9265 -3.0440359 -74.903358 -200 45 -200 45 -200 45
3888753675.6126 -3.044925 -74.83654 -200 45 -200 45 -200 45
3889753792.2987 -3.0441062 -74.756897 -200 45 -200 45 -200 45
3890753908.9848 -3.0411792 -74.679771 -200 45 -200 45 -200 45
3891754025.6709 -3.0463796 -74.592163 -200 45 -200 45 -200 45
3892754142.3571 -3.0476985 -74.520271 -200 45 -200 45 -200 45
3893754259.0432 -3.0506907 -74.412315 -200 45 -200 45 -200 45
3894754375.7293 -3.0557604 -74.345673 -200 45 -200 45 -200 45
3895754492.4154 -3.0624831 -74.238144 -200 45 -200 45 -200 45
3896754609.1015 -3.0672915 -74.151459 -200 45 -200 45 -200 45
3897754725.7876 -3.0725291 -74.08094 -200 45 -200 45 -200 45
3898754842.4737 -3.0777245 -74.030533 -200 45 -200 45 -200 45
3899754959.1599 -3.0853131 -73.93222 -200 45 -200 45 -200 45
3900755075.846 -3.0914292 -73.862976 -200 45 -200 45 -200 45
3901755192.5321 -3.1032448 -73.81044 -200 45 -200 45 -200 45
3902755309.2182 -3.1076317 -73.754631 -200 45 -200 45 -200 45
3903755425.9043 -3.1174533 -73.701393 -200 45 -200 45 -200 45
3904755542.5904 -3.1260343 -73.653427 -200 45 -200 45 -200 45
3905755659.2765 -3.1359081 -73.618851 -200 45 -200 45 -200 45
3906755775.9627 -3.1496468 -73.569695 -200 45 -200 45 -200 45
3907755892.6488 -3.1637373 -73.552795 -200 45 -200 45 -200 45
3908756009.3349 -3.1764092 -73.523277 -200 45 -200 45 -200 45
3909756126.021 -3.1886516 -73.500961 -200 45 -200 45 -200 45
3910756242.7071 -3.2048321 -73.477356 -200 45 -200 45 -200 45
3911756359.3932 -3.2181237 -73.457535 -200 45 -200 45 -200 45
3912756476.0793 -3.2337124 -73.451164 -200 45 -200 45 -200 45
3913756592.7655 -3.2464917 -73.438332 -200 45 -200 45 -200 45
3914756709.4516 -3.2612116 -73.439507 -200 45 -200 45 -200 45
3915756826.1377 -3.2759962 -73.455612 -200 45 -200 45 -200 45
3916756942.8238 -3.2903838 -73.440178 -200 45 -200 45 -200 45
3917757059.5099 -3.3031569 -73.457199 -200 45 -200 45 -200 45
3918757176.196 -3.3146133 -73.460472 -200 45 -200 45 -200 45
3919757292.8821 -3.3175406 -73.472267 -200 45 -200 45 -200 45
3920757409.5683 -3.325912 -73.482246 -200 45 -200 45 -200 45
3921757526.2544 -3.329634 -73.527718 -200 45 -200 45 -200 45
3922757642.9405 -3.3332014 -73.583069 -200 45 -200 45 -200 45
3923757759.6266 -3.3347857 -73.654526 -200 45 -200 45 -200 45
3924757876.3127 -3.3335748 -73.754974 -200 45 -200 45 -200 45
3925757992.9988 -3.3398755 -73.857826 -200 45 -200 45 -200 45
3926758109.6849 -3.3429675 -73.976967 -200 45 -200 45 -200 45
3927758226.3711 -3.3462765 -74.095856 -200 45 -200 45 -200 45
3928758343.0572 -3.3494694 -74.224403 -200 45 -200 45 -200 45
3929758459.7433 -3.3506367 -74.348351 -200 45 -200 45 -200 45
3930758576.4294 -3.3523123 -74.490257 -200 45 -200 45 -200 45
3931758693.1155 -3.3531864 -74.626068 -200 45 -200 45 -200 45
3932758809.8016 -3.3546519 -74.77906 -200 45 -200 45 -200 45
3933758926.4877 -3.3526568 -74.934341 -200 45 -200 45 -200 45
3934759043.1739 -3.3483033 -75.08268 -200 45 -200 45 -200 45
3935759159.86 -3.3471184 -75.256027 -200 45 -200 45 -200 45
3936759276.5461 -3.3474524 -75.398712 -200 45 -200 45 -200 45
3937759393.2322 -3.3452575 -75.540604 -200 45 -200 45 -200 45
3938759509.9183 -3.3435845 -75.710129 -200 45 -200 45 -200 45
3939759626.6044 -3.3385932 -75.84024 -200 45 -200 45 -200 45
3940759743.2905 -3.3390255 -75.978409 -200 45 -200 45 -200 45
3941759859.9767 -3.3361044 -76.140114 -200 45 -200 45 -200 45
3942759976.6628 -3.3335032 -76.238731 -200 45 -200 45 -200 45
3943760093.3489 -3.3290987 -76.375885 -200 45 -200 45 -200 45
3944760210.035 -3.3259528 -76.488205 -200 45 -200 45 -200 45
3945760326.7211 -3.3189507 -76.624031 -200 45 -200 45 -200 45
3946760443.4072 -3.312398 -76.727791 -200 45 -200 45 -200 45
3947760560.0933 -3.3106539 -76.81778 -200 45 -200 45 -200 45
3948760676.7795 -3.3030691 -76.922211 -200 45 -200 45 -200 45
3949760793.4656 -3.2998583 -77.015205 -200 45 -200 45 -200 45
3950760910.1517 -3.2906196 -77.07872 -200 45 -200 45 -200 45
3951761026.8378 -3.2836087 -77.132988 -200 45 -200 45 -200 45
3952761143.5239 -3.2751513 -77.211105 -200 45 -200 45 -200 45
3953761260.21 -3.2693973 -77.253021 -200 45 -200 45 -200 45
3954761376.8961 -3.2649007 -77.289253 -200 45 -200 45 -200 45
3955761493.5823 -3.2547491 -77.335793 -200 45 -200 45 -200 45
3956761610.2684 -3.2455943 -77.345901 -200 45 -200 45 -200 45
3957761726.9545 -3.2403727 -77.38559 -200 45 -200 45 -200 45
3958761843.6406 -3.2306349 -77.399246 -200 45 -200 45 -200 45
3959761960.3267 -3.2259889 -77.411804 -200 45 -200 45 -200 45
3960762077.0128 -3.2229614 -77.409386 -200 45 -200 45 -200 45
3961762193.6989 -3.2156413 -77.411255 -200 45 -200 45 -200 45
3962762310.3851 -3.2128885 -77.404808 -200 45 -200 45 -200 45
3963762427.0712 -3.2105267 -77.394852 -200 45 -200 45 -200 45
3964762543.7573 -3.2093332 -77.365189 -200 45 -200 45 -200 45
3965762660.4434 -3.2042186 -77.334122 -200 45 -200 45 -200 45
3966762777.1295 -3.2010984 -77.311676 -200 45 -200 45 -200 45
3967762893.8156 -3.1979604 -77.251144 -200 45 -200 45 -200 45
3968763010.5018 -3.1967642 -77.213287 -200 45 -200 45 -200 45
3969763127.1879 -3.1973693 -77.135696 -200 45 -200 45 -200 45
3970763243.874 -3.2004702 -77.094025 -200 45 -200 45 -200 45
3971763360.5601 -3.2051702 -77.035095 -200 45 -200 45 -200 45
3972763477.2462 -3.2083192 -76.960434 -200 45 -200 45 -200 45
3973763593.9323 -3.2120993 -76.895859 -200 45 -200 45 -200 45
3974763710.6184 -3.2192903 -76.83535 -200 45 -200 45 -200 45
3975763827.3046 -3.2259338 -76.736458 -200 45 -200 45 -200 45
3976763943.9907 -3.235322 -76.677788 -200 45 -200 45 -200 45
3977764060.6768 -3.2405887 -76.611427 -200 45 -200 45 -200 45
3978764177.3629 -3.2540667 -76.526634 -200 45 -200 45 -200 45
3979764294.049 -3.2667806 -76.452156 -200 45 -200 45 -200 45
3980764410.7351 -3.2804048 -76.392227 -200 45 -200 45 -200 45
3981764527.4212 -3.2947292 -76.347946 -200 45 -200 45 -200 45
3982764644.1074 -3.3121676 -76.247841 -200 45 -200 45 -200 45
3983764760.7935 -3.3274312 -76.198128 -200 45 -200 45 -200 45
3984764877.4796 -3.3503504 -76.116539 -200 45 -200 45 -200 45
3985764994.1657 -3.3734734 -76.056236 -200 45 -200 45 -200 45
3986765110.8518 -3.3989944 -75.959679 -200 45 -200 45 -200 45
3987765227.5379 -3.4280536 -75.893539 -200 45 -200 45 -200 45
3988765344.224 -3.4579811 -75.787231 -200 45 -200 45 -200 45
3989765460.9102 -3.4930329 -75.666061 -200 45 -200 45 -200 45
3990765577.5963 -3.5293841 -75.529259 -200 45 -200 45 -200 45
3991765694.2824 -3.567075 -75.386978 -200 45 -200 45 -200 45
3992765810.9685 -3.6020432 -75.200188 -200 45 -200 45 -200 45
3993765927.6546 -3.63569 -74.970222 -200 45 -200 45 -200 45
3994766044.3407 -3.6636634 -74.700409 -200 45 -200 45 -200 45
3995766161.0268 -3.6852822 -74.397362 -200 45 -200 45 -200 45
3996766277.713 -3.6980023 -74.111351 -200 45 -200 45 -200 45
3997766394.3991 -3.7035501 -73.854271 -200 45 -200 45 -200 45
3998766511.0852 -3.698046 -73.625427 -200 45 -200 45 -200 45
3999766627.7713 -3.6871917 -73.433487 -200 45 -200 45 -200 45
4000766744.4574 -3.6762786 -73.299026 -200 45 -200 45 -200 45
4001766861.1435 -3.6662521 -73.170464 -200 45 -200 45 -200 45
4002766977.8296 -3.655437 -73.100731 -200 45 -200 45 -200 45
4003767094.5158 -3.6425765 -73.052216 -200 45 -200 45 -200 45
4004767211.2019 -3.6262558 -73.035858 -200 45 -200 45 -200 45
4005767327.888 -3.6142387 -73.044922 -200 45 -200 45 -200 45
4006767444.5741 -3.6010094 -73.105011 -200 45 -200 45 -200 45
4007767561.2602 -3.5938849 -73.18029 -200 45 -200 45 -200 45
4008767677.9463 -3.5829558 -73.288643 -200 45 -200 45 -200 45
4009767794.6324 -3.5759101 -73.421135 -200 45 -200 45 -200 45
4010767911.3186 -3.5727065 -73.535027 -200 45 -200 45 -200 45
4011768028.0047 -3.568639 -73.662605 -200 45 -200 45 -200 45
4012768144.6908 -3.5686643 -73.79248 -200 45 -200 45 -200 45
4013768261.3769 -3.5679443 -73.914436 -200 45 -200 45 -200 45
4014768378.063 -3.5649567 -74.033981 -200 45 -200 45 -200 45
4015768494.7491 -3.5623412 -74.145226 -200 45 -200 45 -200 45
4016768611.4352 -3.5635269 -74.277458 -200 45 -200 45 -200 45
4017768728.1214 -3.5590553 -74.38343 -200 45 -200 45 -200 45
4018768844.8075 -3.5648596 -74.48378 -200 45 -200 45 -200 45
4019768961.4936 -3.5633566 -74.553391 -200 45 -200 45 -200 45
4020769078.1797 -3.5565715 -74.606323 -200 45 -200 45 -200 45
4021769194.8658 -3.5485532 -74.642197 -200 45 -200 45 -200 45
4022769311.5519 -3.5339949 -74.664993 -200 45 -200 45 -200 45
4023769428.238 -3.5144708 -74.730904 -200 45 -200 45 -200 45
4024769544.9242 -3.4890263 -74.809631 -200 45 -200 45 -200 45
4025769661.6103 -3.4596977 -74.923088 -200 45 -200 45 -200 45
4026769778.2964 -3.4343221 -75.053627 -200 45 -200 45 -200 45
4027769894.9825 -3.4086092 -75.220001 -200 45 -200 45 -200 45
4028770011.6686 -3.387455 -75.366531 -200 45 -200 45 -200 45
4029770128.3547 -3.3648791 -75.546257 -200 45 -200 45 -200 45
4030770245.0408 -3.3444495 -75.716934 -200 45 -200 45 -200 45
4031770361.727 -3.3291287 -75.892906 -200 45 -200 45 -200 45
4032770478.4131 -3.3087528 -76.050705 -200 45 -200 45 -200 45
4033770595.0992 -3.29497 -76.209404 -200 45 -200 45 -200 45
4034770711.7853 -3.2829506 -76.352936 -200 45 -200 45 -200 45
4035770828.4714 -3.2695231 -76.468597 -200 45 -200 45 -200 45
4036770945.1575 -3.2599123 -76.589348 -200 45 -200 45 -200 45
4037771061.8436 -3.2479732 -76.686729 -200 45 -200 45 -200 45
4038771178.5298 -3.2402387 -76.779411 -200 45 -200 45 -200 45
4039771295.2159 -3.2291288 -76.859787 -200 45 -200 45 -200 45
4040771411.902 -3.2212081 -76.91526 -200 45 -200 45 -200 45
4041771528.5881 -3.2095001 -76.981781 -200 45 -200 45 -200 45
4042771645.2742 -3.202795 -77.017639 -200 45 -200 45 -200 45
4043771761.9603 -3.1936283 -77.054794 -200 45 -200 45 -200 45
4044771878.6464 -3.1863155 -77.086403 -200 45 -200 45 -200 45
4045771995.3326 -3.1784732 -77.070877 -200 45 -200 45 -200 45
4046772112.0187 -3.1651204 -77.065071 -200 45 -200 45 -200 45
4047772228.7048 -3.1590149 -77.056335 -200 45 -200 45 -200 45
4048772345.3909 -3.1512487 -77.070686 -200 45 -200 45 -200 45
4049772462.077 -3.1440282 -77.029335 -200 45 -200 45 -200 45
4050772578.7631 -3.1402857 -76.985397 -200 45 -200 45 -200 45
4051772695.4492 -3.1334164 -76.937225 -200 45 -200 45 -200 45
4052772812.1354 -3.1299233 -76.907936 -200 45 -200 45 -200 45
4053772928.8215 -3.1266618 -76.819954 -200 45 -200 45 -200 45
4054773045.5076 -3.1253347 -76.780273 -200 45 -200 45 -200 45
4055773162.1937 -3.1237214 -76.721046 -200 45 -200 45 -200 45
4056773278.8798 -3.118618 -76.651863 -200 45 -200 45 -200 45
4057773395.5659 -3.1174188 -76.589783 -200 45 -200 45 -200 45
4058773512.252 -3.11796 -76.486412 -200 45 -200 45 -200 45
4059773628.9382 -3.1172771 -76.414154 -200 45 -200 45 -200 45
4060773745.6243 -3.1188788 -76.341148 -200 45 -200 45 -200 45
4061773862.3104 -3.120486 -76.259949 -200 45 -200 45 -200 45
4062773978.9965 -3.1186726 -76.179291 -200 45 -200 45 -200 45
4063774095.6826 -3.1195028 -76.103333 -200 45 -200 45 -200 45
4064774212.3687 -3.1250761 -76.03508 -200 45 -200 45 -200 45
4065774329.0548 -3.1262424 -75.950012 -200 45 -200 45 -200 45
4066774445.741 -3.1340773 -75.865105 -200 45 -200 45 -200 45
4067774562.4271 -3.1378334 -75.805153 -200 45 -200 45 -200 45
4068774679.1132 -3.1445804 -75.722626 -200 45 -200 45 -200 45
4069774795.7993 -3.1526606 -75.641624 -200 45 -200 45 -200 45
4070774912.4854 -3.1585412 -75.584633 -200 45 -200 45 -200 45
4071775029.1715 -3.166918 -75.512917 -200 45 -200 45 -200 45
4072775145.8576 -3.1769648 -75.448738 -200 45 -200 45 -200 45
4073775262.5438 -3.1824405 -75.410072 -200 45 -200 45 -200 45
4074775379.2299 -3.1905606 -75.371323 -200 45 -200 45 -200 45
4075775495.916 -3.2026188 -75.332695 -200 45 -200 45 -200 45
4076775612.6021 -3.2111423 -75.288788 -200 45 -200 45 -200 45
4077775729.2882 -3.223309 -75.270882 -200 45 -200 45 -200 45
4078775845.9743 -3.2309916 -75.277313 -200 45 -200 45 -200 45
4079775962.6604 -3.2412722 -75.266785 -200 45 -200 45 -200 45
4080776079.3466 -3.2509089 -75.274773 -200 45 -200 45 -200 45
4081776196.0327 -3.2631786 -75.279335 -200 45 -200 45 -200 45
4082776312.7188 -3.2718401 -75.29982 -200 45 -200 45 -200 45
4083776429.4049 -3.2823894 -75.33757 -200 45 -200 45 -200 45
4084776546.091 -3.2953897 -75.373978 -200 45 -200 45 -200 45
4085776662.7771 -3.3078437 -75.411331 -200 45 -200 45 -200 45
4086776779.4632 -3.3222203 -75.466545 -200 45 -200 45 -200 45
4087776896.1494 -3.3327072 -75.522011 -200 45 -200 45 -200 45
4088777012.8355 -3.3406882 -75.592873 -200 45 -200 45 -200 45
4089777129.5216 -3.3535566 -75.660919 -200 45 -200 45 -200 45
4090777246.2077 -3.3606596 -75.753471 -200 45 -200 45 -200 45
4091777362.8938 -3.3733313 -75.853325 -200 45 -200 45 -200 45
4092777479.5799 -3.3811722 -75.942596 -200 45 -200 45 -200 45
4093777596.266 -3.3910196 -76.052101 -200 45 -200 45 -200 45
4094777712.9522 -3.3936265 -76.159904 -200 45 -200 45 -200 45
4095777829.6383 -3.402005 -76.289024 -200 45 -200 45 -200 45
4096777946.3244 -3.4078743 -76.419716 -200 45 -200 45 -200 45
4097778063.0105 -3.4187188 -76.538719 -200 45 -200 45 -200 45
4098778179.6966 -3.4206014 -76.692444 -200 45 -200 45 -200 45
4099778296.3827 -3.4268284 -76.818703 -200 45 -200 45 -200 45
4100778413.0688 -3.4314325 -76.949387 -200 45 -200 45 -200 45
4101778529.755 -3.4358289 -77.093643 -200 45 -200 45 -200 45
4102778646.4411 -3.4411557 -77.238449 -200 45 -200 45 -200 45
4103778763.1272 -3.4444728 -77.392609 -200 45 -200 45 -200 45
4104778879.8133 -3.4465477 -77.54528 -200 45 -200 45 -200 45
4105778996.4994 -3.4435351 -77.670296 -200 45 -200 45 -200 45
4106779113.1855 -3.4439032 -77.821518 -200 45 -200 45 -200 45
4107779229.8716 -3.4441416 -77.947769 -200 45 -200 45 -200 45
4108779346.5578 -3.4413114 -78.099388 -200 45 -200 45 -200 45
4109779463.2439 -3.4382386 -78.235207 -200 45 -200 45 -200 45
4110779579.93 -3.4326434 -78.369156 -200 45 -200 45 -200 45
4111779696.6161 -3.429702 -78.508186 -200 45 -200 45 -200 45
4112779813.3022 -3.4263792 -78.636139 -200 45 -200 45 -200 45
4113779929.9883 -3.4227724 -78.750282 -200 45 -200 45 -200 45
4114780046.6744 -3.4162374 -78.854652 -200 45 -200 45 -200 45
4115780163.3606 -3.4111614 -78.961777 -200 45 -200 45 -200 45
4116780280.0467 -3.4087999 -79.047638 -200 45 -200 45 -200 45
4117780396.7328 -3.4003587 -79.158348 -200 45 -200 45 -200 45
4118780513.4189 -3.3967292 -79.214462 -200 45 -200 45 -200 45
4119780630.105 -3.3925693 -79.29216 -200 45 -200 45 -200 45
4120780746.7911 -3.3841898 -79.356407 -200 45 -200 45 -200 45
4121780863.4772 -3.3810554 -79.405991 -200 45 -200 45 -200 45
4122780980.1634 -3.3740222 -79.437515 -200 45 -200 45 -200 45
4123781096.8495 -3.3668606 -79.505501 -200 45 -200 45 -200 45
4124781213.5356 -3.3598773 -79.529861 -200 45 -200 45 -200 45
4125781330.2217 -3.3551395 -79.529419 -200 45 -200 45 -200 45
4126781446.9078 -3.3452265 -79.563965 -200 45 -200 45 -200 45
4127781563.5939 -3.3424413 -79.554764 -200 45 -200 45 -200 45
4128781680.28 -3.3386052 -79.549843 -200 45 -200 45 -200 45
4129781796.9662 -3.3335569 -79.539536 -200 45 -200 45 -200 45
4130781913.6523 -3.3305635 -79.514717 -200 45 -200 45 -200 45
4131782030.3384 -3.3297369 -79.476349 -200 45 -200 45 -200 45
4132782147.0245 -3.3285897 -79.421852 -200 45 -200 45 -200 45
4133782263.7106 -3.3275125 -79.380356 -200 45 -200 45 -200 45
4134782380.3967 -3.3304117 -79.316643 -200 45 -200 45 -200 45
4135782497.0828 -3.3327253 -79.254974 -200 45 -200 45 -200 45
4136782613.769 -3.3352008 -79.160271 -200 45 -200 45 -200 45
4137782730.4551 -3.3389676 -79.091927 -200 45 -200 45 -200 45
4138782847.1412 -3.3429408 -78.972397 -200 45 -200 45 -200 45
4139782963.8273 -3.3524623 -78.880592 -200 45 -200 45 -200 45
4140783080.5134 -3.3582292 -78.722382 -200 45 -200 45 -200 45
4141783197.1995 -3.3664904 -78.625572 -200 45 -200 45 -200 45
4142783313.8856 -3.3740361 -78.491302 -200 45 -200 45 -200 45
4143783430.5718 -3.3851993 -78.334457 -200 45 -200 45 -200 45
4144783547.2579 -3.393801 -78.16835 -200 45 -200 45 -200 45
4145783663.944 -3.4098575 -77.982948 -200 45 -200 45 -200 45
4146783780.6301 -3.4217751 -77.781937 -200 45 -200 45 -200 45
4147783897.3162 -3.4330852 -77.56868 -200 45 -200 45 -200 45
4148784014.0023 -3.4434791 -77.30233 -200 45 -200 45 -200 45
4149784130.6884 -3.4539912 -77.074318 -200 45 -200 45 -200 45
4150784247.3746 -3.4614394 -76.80983 -200 45 -200 45 -200 45
4151784364.0607 -3.4648459 -76.553612 -200 45 -200 45 -200 45
4152784480.7468 -3.4652779 -76.297348 -200 45 -200 45 -200 45
4153784597.4329 -3.4566994 -76.052086 -200 45 -200 45 -200 45
4154784714.119 -3.4510708 -75.836632 -200 45 -200 45 -200 45
4155784830.8051 -3.4430876 -75.630226 -200 45 -200 45 -200 45
4156784947.4912 -3.4325817 -75.477547 -200 45 -200 45 -200 45
4157785064.1774 -3.4206879 -75.346497 -200 45 -200 45 -200 45
4158785180.8635 -3.4083595 -75.245659 -200 45 -200 45 -200 45
4159785297.5496 -3.4000995 -75.161598 -200 45 -200 45 -200 45
4160785414.2357 -3.3943522 -75.115799 -200 45 -200 45 -200 45
4161785530.9218 -3.3890703 -75.066795 -200 45 -200 45 -200 45
4162785647.6079 -3.3896005 -75.02552 -200 45 -200 45 -200 45
4163785764.294 -3.3870652 -75.021957 -200 45 -200 45 -200 45
4164785880.9802 -3.3914442 -75.020065 -200 45 -200 45 -200 45
4165785997.6663 -3.3927016 -75.022087 -200 45 -200 45 -200 45
4166786114.3524 -3.3960993 -75.016273 -200 45 -200 45 -200 45
4167786231.0385 -3.4015875 -75.045341 -200 45 -200 45 -200 45
4168786347.7246 -3.4047194 -75.053299 -200 45 -200 45 -200 45
4169786464.4107 -3.4059806 -75.078659 -200 45 -200 45 -200 45
4170786581.0968 -3.4089968 -75.139084 -200 45 -200 45 -200 45
4171786697.783 -3.4116623 -75.203003 -200 45 -200 45 -200 45
4172786814.4691 -3.4118514 -75.260384 -200 45 -200 45 -200 45
4173786931.1552 -3.4144411 -75.351791 -200 45 -200 45 -200 45
4174787047.8413 -3.4166327 -75.440407 -200 45 -200 45 -200 45
4175787164.5274 -3.4217031 -75.538361 -200 45 -200 45 -200 45
4176787281.2135 -3.4233165 -75.660629 -200 45 -200 45 -200 45
4177787397.8997 -3.4301686 -75.769363 -200 45 -200 45 -200 45
4178787514.5858 -3.433135 -75.876495 -200 45 -200 45 -200 45
4179787631.2719 -3.4363186 -76.014587 -200 45 -200 45 -200 45
4180787747.958 -3.4410753 -76.124054 -200 45 -200 45 -200 45
4181787864.6441 -3.4421718 -76.247223 -200 45 -200 45 -200 45
4182787981.3302 -3.4443328 -76.392159 -200 45 -200 45 -200 45
4183788098.0163 -3.4433327 -76.527367 -200 45 -200 45 -200 45
4184788214.7025 -3.4424729 -76.685799 -200 45 -200 45 -200 45
4185788331.3886 -3.4391758 -76.805016 -200 45 -200 45 -200 45
4186788448.0747 -3.4351304 -76.945045 -200 45 -200 45 -200 45
4187788564.7608 -3.4315116 -77.092621 -200 45 -200 45 -200 45
4188788681.4469 -3.4201837 -77.234108 -200 45 -200 45 -200 45
4189788798.133 -3.4125366 -77.403931 -200 45 -200 45 -200 45
4190788914.8191 -3.4026072 -77.582199 -200 45 -200 45 -200 45
4191789031.5053 -3.3945231 -77.76445 -200 45 -200 45 -200 45
4192789148.1914 -3.3839214 -77.944832 -200 45 -200 45 -200 45
4193789264.8775 -3.3793566 -78.108902 -200 45 -200 45 -200 45
4194789381.5636 -3.3702192 -78.275543 -200 45 -200 45 -200 45
4195789498.2497 -3.3622837 -78.437187 -200 45 -200 45 -200 45
4196789614.9358 -3.3542068 -78.577705 -200 45 -200 45 -200 45
4197789731.6219 -3.3438399 -78.717751 -200 45 -200 45 -200 45
4198789848.3081 -3.337575 -78.88842 -200 45 -200 45 -200 45
4199789964.9942 -3.3302953 -79.013382 -200 45 -200 45 -200 45
4200790081.6803 -3.3180211 -79.150291 -200 45 -200 45 -200 45
4201790198.3664 -3.3054569 -79.281654 -200 45 -200 45 -200 45
4202790315.0525 -3.296742 -79.388512 -200 45 -200 45 -200 45
4203790431.7386 -3.2906015 -79.477196 -200 45 -200 45 -200 45
4204790548.4247 -3.2830319 -79.571587 -200 45 -200 45 -200 45
4205790665.1109 -3.2709785 -79.673828 -200 45 -200 45 -200 45
4206790781.797 -3.2583995 -79.734161 -200 45 -200 45 -200 45
4207790898.4831 -3.2493184 -79.797523 -200 45 -200 45 -200 45
4208791015.1692 -3.2410653 -79.855003 -200 45 -200 45 -200 45
4209791131.8553 -3.2309334 -79.865158 -200 45 -200 45 -200 45
4210791248.5414 -3.2199447 -79.910271 -200 45 -200 45 -200 45
4211791365.2275 -3.2093122 -79.911964 -200 45 -200 45 -200 45
4212791481.9137 -3.2030725 -79.901634 -200 45 -200 45 -200 45
4213791598.5998 -3.1930857 -79.913231 -200 45 -200 45 -200 45
4214791715.2859 -3.1866 -79.881554 -200 45 -200 45 -200 45
4215791831.972 -3.1777773 -79.866806 -200 45 -200 45 -200 45
4216791948.6581 -3.1701248 -79.831856 -200 45 -200 45 -200 45
4217792065.3442 -3.1620078 -79.796249 -200 45 -200 45 -200 45
4218792182.0303 -3.1539326 -79.769135 -200 45 -200 45 -200 45
4219792298.7165 -3.1505616 -79.692734 -200 45 -200 45 -200 45
4220792415.4026 -3.1416178 -79.619713 -200 45 -200 45 -200 45
4221792532.0887 -3.1357946 -79.562569 -200 45 -200 45 -200 45
4222792648.7748 -3.133745 -79.483467 -200 45 -200 45 -200 45
4223792765.4609 -3.1255586 -79.413841 -200 45 -200 45 -200 45
4224792882.147 -3.1221604 -79.314217 -200 45 -200 45 -200 45
4225792998.8331 -3.1207566 -79.226364 -200 45 -200 45 -200 45
4226793115.5193 -3.1192441 -79.133148 -200 45 -200 45 -200 45
4227793232.2054 -3.1154172 -79.028961 -200 45 -200 45 -200 45
4228793348.8915 -3.1183145 -78.932907 -200 45 -200 45 -200 45
4229793465.5776 -3.1148481 -78.816093 -200 45 -200 45 -200 45
4230793582.2637 -3.1183369 -78.723877 -200 45 -200 45 -200 45
4231793698.9498 -3.118644 -78.636169 -200 45 -200 45 -200 45
4232793815.6359 -3.1221368 -78.534248 -200 45 -200 45 -200 45
4233793932.3221 -3.1255162 -78.421616 -200 45 -200 45 -200 45
4234794049.0082 -3.1252584 -78.329735 -200 45 -200 45 -200 45
4235794165.6943 -3.1326962 -78.225845 -200 45 -200 45 -200 45
4236794282.3804 -3.1365981 -78.115738 -200 45 -200 45 -200 45
4237794399.0665 -3.140671 -78.02536 -200 45 -200 45 -200 45
4238794515.7526 -3.1451967 -77.962082 -200 45 -200 45 -200 45
4239794632.4387 -3.1513324 -77.859879 -200 45 -200 45 -200 45
4240794749.1249 -3.1601689 -77.791847 -200 45 -200 45 -200 45
4241794865.811 -3.1675227 -77.721336 -200 45 -200 45 -200 45
4242794982.4971 -3.175153 -77.660606 -200 45 -200 45 -200 45
4243795099.1832 -3.1825855 -77.59668 -200 45 -200 45 -200 45
4244795215.8693 -3.1950312 -77.548759 -200 45 -200 45 -200 45
4245795332.5554 -3.2033279 -77.499397 -200 45 -200 45 -200 45
4246795449.2415 -3.2186866 -77.497108 -200 45 -200 45 -200 45
4247795565.9277 -3.226619 -77.441696 -200 45 -200 45 -200 45
4248795682.6138 -3.2371511 -77.434036 -200 45 -200 45 -200 45
4249795799.2999 -3.2479639 -77.427902 -200 45 -200 45 -200 45
4250795915.986 -3.2592878 -77.439674 -200 45 -200 45 -200 45
4251796032.6721 -3.2696426 -77.442955 -200 45 -200 45 -200 45
4252796149.3582 -3.2794824 -77.455559 -200 45 -200 45 -200 45
4253796266.0443 -3.2904143 -77.515747 -200 45 -200 45 -200 45
4254796382.7305 -3.2999651 -77.555832 -200 45 -200 45 -200 45
4255796499.4166 -3.3090177 -77.595169 -200 45 -200 45 -200 45
4256796616.1027 -3.3224678 -77.67421 -200 45 -200 45 -200 45
4257796732.7888 -3.3294981 -77.72477 -200 45 -200 45 -200 45
4258796849.4749 -3.3427212 -77.821342 -200 45 -200 45 -200 45
4259796966.161 -3.3517482 -77.90892 -200 45 -200 45 -200 45
4260797082.8471 -3.3599415 -78.004448 -200 45 -200 45 -200 45
4261797199.5333 -3.3727157 -78.105186 -200 45 -200 45 -200 45
4262797316.2194 -3.3811564 -78.232063 -200 45 -200 45 -200 45
4263797432.9055 -3.3897655 -78.338608 -200 45 -200 45 -200 45
4264797549.5916 -3.3979986 -78.477615 -200 45 -200 45 -200 45
4265797666.2777 -3.4046443 -78.610756 -200 45 -200 45 -200 45
4266797782.9638 -3.4062588 -78.759354 -200 45 -200 45 -200 45
4267797899.6499 -3.4140644 -78.895676 -200 45 -200 45 -200 45
4268798016.3361 -3.4161103 -79.04612 -200 45 -200 45 -200 45
4269798133.0222 -3.4200916 -79.206398 -200 45 -200 45 -200 45
4270798249.7083 -3.418216 -79.341492 -200 45 -200 45 -200 45
4271798366.3944 -3.4211071 -79.5028 -200 45 -200 45 -200 45
4272798483.0805 -3.421818 -79.661041 -200 45 -200 45 -200 45
4273798599.7666 -3.4212894 -79.820656 -200 45 -200 45 -200 45
4274798716.4527 -3.4242356 -79.978752 -200 45 -200 45 -200 45
4275798833.1389 -3.4214745 -80.126122 -200 45 -200 45 -200 45
4276798949.825 -3.4183342 -80.280807 -200 45 -200 45 -200 45
4277799066.5111 -3.4175129 -80.438248 -200 45 -200 45 -200 45
4278799183.1972 -3.4145205 -80.564323 -200 45 -200 45 -200 45
4279799299.8833 -3.4111118 -80.728981 -200 45 -200 45 -200 45
4280799416.5694 -3.4015899 -80.846405 -200 45 -200 45 -200 45
4281799533.2555 -3.3959873 -80.97802 -200 45 -200 45 -200 45
4282799649.9417 -3.3901291 -81.086609 -200 45 -200 45 -200 45
4283799766.6278 -3.3821709 -81.195976 -200 45 -200 45 -200 45
4284799883.3139 -3.3734171 -81.313499 -200 45 -200 45 -200 45
4285800000 -3.3660958 -81.417549 -200 45 -200 45 -200 45
4286800116.6861 -3.3539231 -81.511299 -200 45 -200 45 -200 45
4287800233.3722 -3.3442271 -81.595871 -200 45 -200 45 -200 45
4288800350.0583 -3.3356214 -81.652405 -200 45 -200 45 -200 45
4289800466.7445 -3.3262184 -81.738159 -200 45 -200 45 -200 45
4290800583.4306 -3.3155596 -81.784645 -200 45 -200 45 -200 45
4291800700.1167 -3.3057754 -81.796158 -200 45 -200 45 -200 45
4292800816.8028 -3.2977424 -81.851234 -200 45 -200 45 -200 45
4293800933.4889 -3.2889099 -81.870682 -200 45 -200 45 -200 45
4294801050.175 -3.2782326 -81.87603 -200 45 -200 45 -200 45
4295801166.8611 -3.269063 -81.881233 -200 45 -200 45 -200 45
4296801283.5473 -3.2581887 -81.87365 -200 45 -200 45 -200 45
4297801400.2334 -3.246067 -81.868355 -200 45 -200 45 -200 45
4298801516.9195 -3.2385087 -81.839096 -200 45 -200 45 -200 45
4299801633.6056 -3.2298899 -81.819618 -200 45 -200 45 -200 45
4300801750.2917 -3.220866 -81.762436 -200 45 -200 45 -200 45
4301801866.9778 -3.2122016 -81.725403 -200 45 -200 45 -200 45
4302801983.6639 -3.2009516 -81.655037 -200 45 -200 45 -200 45
4303802100.3501 -3.1945012 -81.597557 -200 45 -200 45 -200 45
4304802217.0362 -3.1911883 -81.52063 -200 45 -200 45 -200 45
4305802333.7223 -3.1828024 -81.431885 -200 45 -200 45 -200 45
4306802450.4084 -3.1779335 -81.351059 -200 45 -200 45 -200 45
4307802567.0945 -3.1731234 -81.249359 -200 45 -200 45 -200 45
4308802683.7806 -3.1674795 -81.141182 -200 45 -200 45 -200 45
4309802800.4667 -3.1669123 -81.051247 -200 45 -200 45 -200 45
4310802917.1529 -3.16696 -80.942444 -200 45 -200 45 -200 45
4311803033.839 -3.1638577 -80.847839 -200 45 -200 45 -200 45
4312803150.5251 -3.1593783 -80.73336 -200 45 -200 45 -200 45
4313803267.2112 -3.1594207 -80.622772 -200 45 -200 45 -200 45
4314803383.8973 -3.1631422 -80.499825 -200 45 -200 45 -200 45
4315803500.5834 -3.1606116 -80.393959 -200 45 -200 45 -200 45
4316803617.2695 -3.1630561 -80.281342 -200 45 -200 45 -200 45
4317803733.9557 -3.1625555 -80.166702 -200 45 -200 45 -200 45
4318803850.6418 -3.1683424 -80.082855 -200 45 -200 45 -200 45
4319803967.3279 -3.172245 -79.973953 -200 45 -200 45 -200 45
4320804084.014 -3.1767452 -79.856316 -200 45 -200 45 -200 45
4321804200.7001 -3.1831996 -79.745232 -200 45 -200 45 -200 45
4322804317.3862 -3.1859992 -79.658791 -200 45 -200 45 -200 45
4323804434.0723 -3.1957207 -79.565376 -200 45 -200 45 -200 45
4324804550.7585 -3.2034757 -79.490265 -200 45 -200 45 -200 45
4325804667.4446 -3.2126656 -79.410263 -200 45 -200 45 -200 45
4326804784.1307 -3.2235689 -79.342247 -200 45 -200 45 -200 45
4327804900.8168 -3.2338409 -79.274162 -200 45 -200 45 -200 45
4328805017.5029 -3.2414725 -79.22599 -200 45 -200 45 -200 45
4329805134.189 -3.2528267 -79.165382 -200 45 -200 45 -200 45
4330805250.8751 -3.2627964 -79.141823 -200 45 -200 45 -200 45
4331805367.5613 -3.2735517 -79.111504 -200 45 -200 45 -200 45
4332805484.2474 -3.2850795 -79.073334 -200 45 -200 45 -200 45
4333805600.9335 -3.2950077 -79.102295 -200 45 -200 45 -200 45
4334805717.6196 -3.303617 -79.084282 -200 45 -200 45 -200 45
4335805834.3057 -3.3178332 -79.095413 -200 45 -200 45 -200 45
4336805950.9918 -3.3311179 -79.120476 -200 45 -200 45 -200 45
4337806067.6779 -3.3436272 -79.13681 -200 45 -200 45 -200 45
4338806184.3641 -3.3526137 -79.199593 -200 45 -200 45 -200 45
4339806301.0502 -3.3648548 -79.2379 -200 45 -200 45 -200 45
4340806417.7363 -3.3776543 -79.303551 -200 45 -200 45 -200 45
4341806534.4224 -3.3907588 -79.375343 -200 45 -200 45 -200 45
4342806651.1085 -3.4047284 -79.443199 -200 45 -200 45 -200 45
4343806767.7946 -3.4137008 -79.537796 -200 45 -200 45 -200 45
4344806884.4807 -3.4232481 -79.639473 -200 45 -200 45 -200 45
4345807001.1669 -3.4331577 -79.755806 -200 45 -200 45 -200 45
4346807117.853 -3.4428744 -79.868202 -200 45 -200 45 -200 45
4347807234.5391 -3.4512 -79.988342 -200 45 -200 45 -200 45
4348807351.2252 -3.458791 -80.119003 -200 45 -200 45 -200 45
4349807467.9113 -3.4630218 -80.254013 -200 45 -200 45 -200 45
4350807584.5974 -3.4737558 -80.401955 -200 45 -200 45 -200 45
4351807701.2835 -3.4749324 -80.538338 -200 45 -200 45 -200 45
4352807817.9697 -3.4809246 -80.695045 -200 45 -200 45 -200 45
4353807934.6558 -3.4838622 -80.857605 -200 45 -200 45 -200 45
4354808051.3419 -3.4860606 -81.007767 -200 45 -200 45 -200 45
4355808168.028 -3.4886508 -81.155754 -200 45 -200 45 -200 45
4356808284.7141 -3.4924188 -81.319054 -200 45 -200 45 -200 45
4357808401.4002 -3.4934556 -81.467842 -200 45 -200 45 -200 45
4358808518.0863 -3.4947474 -81.629951 -200 45 -200 45 -200 45
4359808634.7725 -3.4927816 -81.796547 -200 45 -200 45 -200 45
4360808751.4586 -3.4867904 -81.948174 -200 45 -200 45 -200 45
4361808868.1447 -3.4844885 -82.099136 -200 45 -200 45 -200 45
4362808984.8308 -3.4828358 -82.228836 -200 45 -200 45 -200 45
4363809101.5169 -3.4761462 -82.379257 -200 45 -200 45 -200 45
4364809218.203 -3.4715223 -82.519104 -200 45 -200 45 -200 45
4365809334.8891 -3.4640257 -82.647545 -200 45 -200 45 -200 45
4366809451.5753 -3.4544036 -82.790939 -200 45 -200 45 -200 45
4367809568.2614 -3.4479749 -82.898903 -200 45 -200 45 -200 45
4368809684.9475 -3.4415689 -83.009308 -200 45 -200 45 -200 45
4369809801.6336 -3.4322934 -83.103645 -200 45 -200 45 -200 45
4370809918.3197 -3.4232516 -83.208412 -200 45 -200 45 -200 45
4371810035.0058 -3.4141898 -83.287468 -200 45 -200 45 -200 45
4372810151.6919 -3.4041636 -83.351624 -200 45 -200 45 -200 45
4373810268.3781 -3.3959048 -83.396996 -200 45 -200 45 -200 45
4374810385.0642 -3.3869035 -83.455818 -200 45 -200 45 -200 45
4375810501.7503 -3.3769655 -83.50367 -200 45 -200 45 -200 45
4376810618.4364 -3.3669043 -83.52636 -200 45 -200 45 -200 45
4377810735.1225 -3.3573866 -83.54216 -200 45 -200 45 -200 45
4378810851.8086 -3.3443274 -83.540787 -200 45 -200 45 -200 45
4379810968.4947 -3.3329842 -83.543938 -200 45 -200 45 -200 45
4380811085.1809 -3.3230231 -83.53447 -200 45 -200 45 -200 45
4381811201.867 -3.3119979 -83.515724 -200 45 -200 45 -200 45
4382811318.5531 -3.3034394 -83.495872 -200 45 -200 45 -200 45
4383811435.2392 -3.294359 -83.439468 -200 45 -200 45 -200 45
4384811551.9253 -3.2832303 -83.395531 -200 45 -200 45 -200 45
4385811668.6114 -3.2752063 -83.347748 -200 45 -200 45 -200 45
4386811785.2976 -3.2692654 -83.265533 -200 45 -200 45 -200 45
4387811901.9837 -3.2618625 -83.179436 -200 45 -200 45 -200 45
4388812018.6698 -3.2552662 -83.101227 -200 45 -200 45 -200 45
4389812135.3559 -3.2498598 -82.997971 -200 45 -200 45 -200 45
4390812252.042 -3.2457306 -82.911758 -200 45 -200 45 -200 45
4391812368.7281 -3.2406723 -82.807091 -200 45 -200 45 -200 45
4392812485.4142 -3.2344346 -82.67202 -200 45 -200 45 -200 45
4393812602.1004 -3.2309933 -82.564072 -200 45 -200 45 -200 45
4394812718.7865 -3.2285178 -82.450691 -200 45 -200 45 -200 45
4395812835.4726 -3.2244596 -82.323257 -200 45 -200 45 -200 45
4396812952.1587 -3.2252078 -82.208992 -200 45 -200 45 -200 45
4397813068.8448 -3.217241 -82.075745 -200 45 -200 45 -200 45
4398813185.5309 -3.2175794 -81.949226 -200 45 -200 45 -200 45
4399813302.217 -3.2196953 -81.837715 -200 45 -200 45 -200 45
4400813418.9032 -3.2186227 -81.707161 -200 45 -200 45 -200 45
4401813535.5893 -3.2197182 -81.577942 -200 45 -200 45 -200 45
4402813652.2754 -3.2253556 -81.46624 -200 45 -200 45 -200 45
4403813768.9615 -3.2316892 -81.350449 -200 45 -200 45 -200 45
4404813885.6476 -3.2358589 -81.236664 -200 45 -200 45 -200 45
4405814002.3337 -3.2415371 -81.137306 -200 45 -200 45 -200 45
4406814119.0198 -3.251461 -81.014122 -200 45 -200 45 -200 45
4407814235.706 -3.255878 -80.915657 -200 45 -200 45 -200 45
4408814352.3921 -3.2653184 -80.835686 -200 45 -200 45 -200 45
4409814469.0782 -3.2716811 -80.736923 -200 45 -200 45 -200 45
4410814585.7643 -3.2843349 -80.648926 -200 45 -200 45 -200 45
4411814702.4504 -3.2924259 -80.571632 -200 45 -200 45 -200 45
4412814819.1365 -3.299638 -80.52253 -200 45 -200 45 -200 45
4413814935.8226 -3.3097005 -80.485512 -200 45 -200 45 -200 45
4414815052.5088 -3.3189943 -80.4505 -200 45 -200 45 -200 45
4415815169.1949 -3.3301492 -80.399139 -200 45 -200 45 -200 45
4416815285.881 -3.3437204 -80.376564 -200 45 -200 45 -200 45
4417815402.5671 -3.3560941 -80.370522 -200 45 -200 45 -200 45
4418815519.2532 -3.3648305 -80.369064 -200 45 -200 45 -200 45
4419815635.9393 -3.3785026 -80.363068 -200 45 -200 45 -200 45
4420815752.6254 -3.3919511 -80.394196 -200 45 -200 45 -200 45
4421815869.3116 -3.4041145 -80.432976 -200 45 -200 45 -200 45
4422815985.9977 -3.4206214 -80.4674 -200 45 -200 45 -200 45
4423816102.6838 -3.4318976 -80.510216 -200 45 -200 45 -200 45
4424816219.3699 -3.4454312 -80.572105 -200 45 -200 45 -200 45
4425816336.056 -3.4602458 -80.650902 -200 45 -200 45 -200 45
4426816452.7421 -3.4714377 -80.728386 -200 45 -200 45 -200 45
4427816569.4282 -3.4816146 -80.817116 -200 45 -200 45 -200 45
4428816686.1144 -3.4925992 -80.931801 -200 45 -200 45 -200 45
4429816802.8005 -3.5018201 -81.049774 -200 45 -200 45 -200 45
4430816919.4866 -3.5083063 -81.158974 -200 45 -200 45 -200 45
4431817036.1727 -3.5181382 -81.302025 -200 45 -200 45 -200 45
4432817152.8588 -3.5271442 -81.428207 -200 45 -200 45 -200 45
4433817269.5449 -3.5349874 -81.557976 -200 45 -200 45 -200 45
4434817386.231 -3.5401888 -81.718224 -200 45 -200 45 -200 45
4435817502.9172 -3.5500715 -81.870262 -200 45 -200 45 -200 45
4436817619.6033 -3.5542192 -82.041603 -200 45 -200 45 -200 45
4437817736.2894 -3.5628419 -82.19265 -200 45 -200 45 -200 45
4438817852.9755 -3.56517 -82.352684 -200 45 -200 45 -200 45
4439817969.6616 -3.5684471 -82.540627 -200 45 -200 45 -200 45
4440818086.3477 -3.5690718 -82.6959 -200 45 -200 45 -200 45
4441818203.0338 -3.5711966 -82.860367 -200 45 -200 45 -200 45
4442818319.72 -3.5686607 -83.018127 -200 45 -200 45 -200 45
4443818436.4061 -3.5662696 -83.19487 -200 45 -200 45 -200 45
4444818553.0922 -3.56234 -83.351654 -200 45 -200 45 -200 45
4445818669.7783 -3.558419 -83.526192 -200 45 -200 45 -200 45
4446818786.4644 -3.5520744 -83.690186 -200 45 -200 45 -200 45
4447818903.1505 -3.5479248 -83.830872 -200 45 -200 45 -200 45
4448819019.8366 -3.541472 -83.980713 -200 45 -200 45 -200 45
4449819136.5228 -3.534569 -84.126152 -200 45 -200 45 -200 45
4450819253.2089 -3.5278983 -84.266853 -200 45 -200 45 -200 45
4451819369.895 -3.5185659 -84.385017 -200 45 -200 45 -200 45
4452819486.5811 -3.5100074 -84.487633 -200 45 -200 45 -200 45
4453819603.2672 -3.5039608 -84.60144 -200 45 -200 45 -200 45
4454819719.9533 -3.4928892 -84.70092 -200 45 -200 45 -200 45
4455819836.6394 -3.4838843 -84.801926 -200 45 -200 45 -200 45
4456819953.3256 -3.4713516 -84.883789 -200 45 -200 45 -200 45
4457820070.0117 -3.4598219 -84.953323 -200 45 -200 45 -200 45
4458820186.6978 -3.4479322 -85.001213 -200 45 -200 45 -200 45
4459820303.3839 -3.4383419 -85.065025 -200 45 -200 45 -200 45
4460820420.07 -3.4225552 -85.091087 -200 45 -200 45 -200 45
4461820536.7561 -3.4104657 -85.114487 -200 45 -200 45 -200 45
4462820653.4422 -3.397562 -85.150513 -200 45 -200 45 -200 45
4463820770.1284 -3.3910792 -85.139412 -200 45 -200 45 -200 45
4464820886.8145 -3.3784449 -85.156456 -200 45 -200 45 -200 45
4465821003.5006 -3.3678975 -85.137039 -200 45 -200 45 -200 45
4466821120.1867 -3.3569243 -85.104027 -200 45 -200 45 -200 45
4467821236.8728 -3.3483152 -85.069069 -200 45 -200 45 -200 45
4468821353.5589 -3.3367813 -85.011757 -200 45 -200 45 -200 45
4469821470.245 -3.3294008 -84.962456 -200 45 -200 45 -200 45
4470821586.9312 -3.3217764 -84.887794 -200 45 -200 45 -200 45
4471821703.6173 -3.3150306 -84.82457 -200 45 -200 45 -200 45
4472821820.3034 -3.3063574 -84.746193 -200 45 -200 45 -200 45
4473821936.9895 -3.2983186 -84.671127 -200 45 -200 45 -200 45
4474822053.6756 -3.2948453 -84.562599 -200 45 -200 45 -200 45
4475822170.3617 -3.2854326 -84.446068 -200 45 -200 45 -200 45
4476822287.0478 -3.282829 -84.359856 -200 45 -200 45 -200 45
4477822403.734 -3.2773376 -84.23336 -200 45 -200 45 -200 45
4478822520.4201 -3.2731352 -84.133408 -200 45 -200 45 -200 45
4479822637.1062 -3.2712166 -84.011467 -200 45 -200 45 -200 45
4480822753.7923 -3.2703562 -83.900238 -200 45 -200 45 -200 45
4481822870.4784 -3.2689083 -83.773041 -200 45 -200 45 -200 45
4482822987.1645 -3.2733262 -83.648247 -200 45 -200 45 -200 45
4483823103.8506 -3.2704213 -83.522507 -200 45 -200 45 -200 45
4484823220.5368 -3.2739909 -83.388206 -200 45 -200 45 -200 45
4485823337.2229 -3.2798176 -83.254875 -200 45 -200 45 -200 45
4486823453.909 -3.2897241 -83.15303 -200 45 -200 45 -200 45
4487823570.5951 -3.2904112 -83.039635 -200 45 -200 45 -200 45
4488823687.2812 -3.3003323 -82.915154 -200 45 -200 45 -200 45
4489823803.9673 -3.3057556 -82.799141 -200 45 -200 45 -200 45
4490823920.6534 -3.3127725 -82.704575 -200 45 -200 45 -200 45
4491824037.3396 -3.3245096 -82.604675 -200 45 -200 45 -200 45
4492824154.0257 -3.3347449 -82.491722 -200 45 -200 45 -200 45
4493824270.7118 -3.3427277 -82.42733 -200 45 -200 45 -200 45
4494824387.3979 -3.3535635 -82.360268 -200 45 -200 45 -200 45
4495824504.084 -3.3671093 -82.275047 -200 45 -200 45 -200 45
4496824620.7701 -3.3795879 -82.212509 -200 45 -200 45 -200 45
4497824737.4562 -3.3938971 -82.165985 -200 45 -200 45 -200 45
4498824854.1424 -3.4118772 -82.10054 -200 45 -200 45 -200 45
4499824970.8285 -3.4275093 -82.066628 -200 45 -200 45 -200 45
4500825087.5146 -3.444401 -82.046913 -200 45 -200 45 -200 45
4501825204.2007 -3.4633224 -82.014977 -200 45 -200 45 -200 45
4502825320.8868 -3.4810021 -82.011452 -200 45 -200 45 -200 45
4503825437.5729 -3.50125 -82.017731 -200 45 -200 45 -200 45
4504825554.259 -3.5196958 -82.012566 -200 45 -200 45 -200 45
4505825670.9452 -3.5394721 -82.004082 -200 45 -200 45 -200 45
4506825787.6313 -3.5570605 -82.041176 -200 45 -200 45 -200 45
4507825904.3174 -3.5791311 -82.072029 -200 45 -200 45 -200 45
4508826021.0035 -3.596175 -82.104469 -200 45 -200 45 -200 45
4509826137.6896 -3.6089165 -82.133385 -200 45 -200 45 -200 45
4510826254.3757 -3.6271417 -82.173492 -200 45 -200 45 -200 45
4511826371.0618 -3.6449332 -82.202583 -200 45 -200 45 -200 45
4512826487.748 -3.6585879 -82.24939 -200 45 -200 45 -200 45
4513826604.4341 -3.6659377 -82.30558 -200 45 -200 45 -200 45
4514826721.1202 -3.6767018 -82.409889 -200 45 -200 45 -200 45
4515826837.8063 -3.686089 -82.464775 -200 45 -200 45 -200 45
4516826954.4924 -3.6898096 -82.570282 -200 45 -200 45 -200 45
4517827071.1785 -3.696228 -82.669983 -200 45 -200 45 -200 45
4518827187.8646 -3.7010074 -82.800545 -200 45 -200 45 -200 45
4519827304.5508 -3.7006905 -82.950363 -200 45 -200 45 -200 45
4520827421.2369 -3.7026901 -83.099434 -200 45 -200 45 -200 45
4521827537.923 -3.7045662 -83.255295 -200 45 -200 45 -200 45
4522827654.6091 -3.7089612 -83.412285 -200 45 -200 45 -200 45
4523827771.2952 -3.705132 -83.591423 -200 45 -200 45 -200 45
4524827887.9813 -3.7025161 -83.760979 -200 45 -200 45 -200 45
4525828004.6674 -3.6986544 -83.912651 -200 45 -200 45 -200 45
4526828121.3536 -3.693748 -84.091537 -200 45 -200 45 -200 45
4527828238.0397 -3.691709 -84.263443 -200 45 -200 45 -200 45
4528828354.7258 -3.6875 -84.434357 -200 45 -200 45 -200 45
4529828471.4119 -3.682827 -84.601799 -200 45 -200 45 -200 45
4530828588.098 -3.6775155 -84.768272 -200 45 -200 45 -200 45
4531828704.7841 -3.6714361 -84.90712 -200 45 -200 45 -200 45
4532828821.4702 -3.6661303 -85.047562 -200 45 -200 45 -200 45
4533828938.1564 -3.6573777 -85.194183 -200 45 -200 45 -200 45
4534829054.8425 -3.6469662 -85.312592 -200 45 -200 45 -200 45
4535829171.5286 -3.6368349 -85.453819 -200 45 -200 45 -200 45
4536829288.2147 -3.6215847 -85.575378 -200 45 -200 45 -200 45
4537829404.9008 -3.6094778 -85.692528 -200 45 -200 45 -200 45
4538829521.5869 -3.5974259 -85.783562 -200 45 -200 45 -200 45
4539829638.273 -3.5870113 -85.870346 -200 45 -200 45 -200 45
4540829754.9592 -3.5732024 -85.947693 -200 45 -200 45 -200 45
4541829871.6453 -3.5583155 -86.017204 -200 45 -200 45 -200 45
4542829988.3314 -3.5414221 -86.069427 -200 45 -200 45 -200 45
4543830105.0175 -3.525209 -86.101868 -200 45 -200 45 -200 45
4544830221.7036 -3.5140493 -86.12764 -200 45 -200 45 -200 45
4545830338.3897 -3.4936523 -86.125015 -200 45 -200 45 -200 45
4546830455.0758 -3.4746938 -86.13855 -200 45 -200 45 -200 45
4547830571.762 -3.4614632 -86.149536 -200 45 -200 45 -200 45
4548830688.4481 -3.4436729 -86.1362 -200 45 -200 45 -200 45
4549830805.1342 -3.4288268 -86.138992 -200 45 -200 45 -200 45
4550830921.8203 -3.4115884 -86.109268 -200 45 -200 45 -200 45
4551831038.5064 -3.3997593 -86.091812 -200 45 -200 45 -200 45
4552831155.1925 -3.3813899 -86.062698 -200 45 -200 45 -200 45
4553831271.8786 -3.3685169 -86.032341 -200 45 -200 45 -200 45
4554831388.5648 -3.3562376 -85.972557 -200 45 -200 45 -200 45
4555831505.2509 -3.3469009 -85.893608 -200 45 -200 45 -200 45
4556831621.937 -3.3344858 -85.840469 -200 45 -200 45 -200 45
4557831738.6231 -3.3234029 -85.754616 -200 45 -200 45 -200 45
4558831855.3092 -3.3156922 -85.664932 -200 45 -200 45 -200 45
4559831971.9953 -3.3108883 -85.569603 -200 45 -200 45 -200 45
4560832088.6814 -3.3030317 -85.450653 -200 45 -200 45 -200 45
4561832205.3676 -3.2946403 -85.351875 -200 45 -200 45 -200 45
4562832322.0537 -3.2941353 -85.229683 -200 45 -200 45 -200 45
4563832438.7398 -3.2885954 -85.116295 -200 45 -200 45 -200 45
4564832555.4259 -3.2857823 -84.978004 -200 45 -200 45 -200 45
4565832672.112 -3.288974 -84.853043 -200 45 -200 45 -200 45
4566832788.7981 -3.2868419 -84.730423 -200 45 -200 45 -200 45
4567832905.4842 -3.286881 -84.597191 -200 45 -200 45 -200 45
4568833022.1704 -3.2885866 -84.459549 -200 45 -200 45 -200 45
4569833138.8565 -3.2902095 -84.327797 -200 45 -200 45 -200 45
4570833255.5426 -3.2949352 -84.209885 -200 45 -200 45 -200 45
4571833372.2287 -3.2979116 -84.080498 -200 45 -200 45 -200 45
4572833488.9148 -3.3024106 -83.969482 -200 45 -200 45 -200 45
4573833605.6009 -3.3087156 -83.847733 -200 45 -200 45 -200 45
4574833722.287 -3.3129823 -83.717018 -200 45 -200 45 -200 45
4575833838.9732 -3.3217247 -83.612053 -200 45 -200 45 -200 45
4576833955.6593 -3.3303359 -83.510315 -200 45 -200 45 -200 45
4577834072.3454 -3.340616 -83.406654 -200 45 -200 45 -200 45
4578834189.0315 -3.3519883 -83.319771 -200 45 -200 45 -200 45
4579834305.7176 -3.361659 -83.245354 -200 45 -200 45 -200 45
4580834422.4037 -3.3746936 -83.165291 -200 45 -200 45 -200 45
4581834539.0898 -3.386678 -83.09877 -200 45 -200 45 -200 45
4582834655.776 -3.4029949 -83.048241 -200 45 -200 45 -200 45
4583834772.4621 -3.4139194 -83.005188 -200 45 -200 45 -200 45
4584834889.1482 -3.4264851 -82.957672 -200 45 -200 45 -200 45
4585835005.8343 -3.442662 -82.933609 -200 45 -200 45 -200 45
4586835122.5204 -3.4582107 -82.914864 -200 45 -200 45 -200 45
4587835239.2065 -3.4716423 -82.936134 -200 45 -200 45 -200 45
4588835355.8926 -3.4846971 -82.93959 -200 45 -200 45 -200 45
4589835472.5788 -3.5012276 -82.961708 -200 45 -200 45 -200 45
4590835589.2649 -3.514215 -83.003845 -200 45 -200 45 -200 45
4591835705.951 -3.5272186 -83.044151 -200 45 -200 45 -200 45
4592835822.6371 -3.5441158 -83.112549 -200 45 -200 45 -200 45
4593835939.3232 -3.5612586 -83.173439 -200 45 -200 45 -200 45
4594836056.0093 -3.573375 -83.263466 -200 45 -200 45 -200 45
4595836172.6954 -3.5886085 -83.368591 -200 45 -200 45 -200 45
4596836289.3816 -3.6022706 -83.462082 -200 45 -200 45 -200 45
4597836406.0677 -3.614692 -83.56897 -200 45 -200 45 -200 45
4598836522.7538 -3.6316166 -83.702972 -200 45 -200 45 -200 45
4599836639.4399 -3.6400182 -83.825966 -200 45 -200 45 -200 45
4600836756.126 -3.6545277 -83.970665 -200 45 -200 45 -200 45
4601836872.8121 -3.6606867 -84.116409 -200 45 -200 45 -200 45
4602836989.4983 -3.6715529 -84.259514 -200 45 -200 45 -200 45
4603837106.1844 -3.6791208 -84.444389 -200 45 -200 45 -200 45
4604837222.8705 -3.6836026 -84.579262 -200 45 -200 45 -200 45
4605837339.5566 -3.6884778 -84.77549 -200 45 -200 45 -200 45
4606837456.2427 -3.6922057 -84.960503 -200 45 -200 45 -200 45
4607837572.9288 -3.6966963 -85.16011 -200 45 -200 45 -200 45
4608837689.6149 -3.700593 -85.314308 -200 45 -200 45 -200 45
4609837806.3011 -3.7041273 -85.523491 -200 45 -200 45 -200 45
4610837922.9872 -3.7075953 -85.712097 -200 45 -200 45 -200 45
4611838039.6733 -3.7047174 -85.885101 -200 45 -200 45 -200 45
4612838156.3594 -3.7025695 -86.063507 -200 45 -200 45 -200 45
4613838273.0455 -3.7048681 -86.218651 -200 45 -200 45 -200 45
4614838389.7316 -3.698683 -86.416512 -200 45 -200 45 -200 45
4615838506.4177 -3.6944733 -86.572563 -200 45 -200 45 -200 45
4616838623.1039 -3.6875067 -86.735504 -200 45 -200 45 -200 45
4617838739.79 -3.6839945 -86.879745 -200 45 -200 45 -200 45
4618838856.4761 -3.6726444 -87.049911 -200 45 -200 45 -200 45
4619838973.1622 -3.6653419 -87.196129 -200 45 -200 45 -200 45
4620839089.8483 -3.6550632 -87.342056 -200 45 -200 45 -200 45
4621839206.5344 -3.6436114 -87.445587 -200 45 -200 45 -200 45
4622839323.2205 -3.6313026 -87.56736 -200 45 -200 45 -200 45
4623839439.9067 -3.6253014 -87.680161 -200 45 -200 45 -200 45
4624839556.5928 -3.6114414 -87.750488 -200 45 -200 45 -200 45
4625839673.2789 -3.600955 -87.818443 -200 45 -200 45 -200 45
4626839789.965 -3.5897052 -87.882896 -200 45 -200 45 -200 45
4627839906.6511 -3.5768256 -87.956291 -200 45 -200 45 -200 45
4628840023.3372 -3.5669479 -88.001938 -200 45 -200 45 -200 45
4629840140.0233 -3.5558465 -88.008965 -200 45 -200 45 -200 45
4630840256.7095 -3.5450997 -88.040741 -200 45 -200 45 -200 45
4631840373.3956 -3.5321987 -88.059639 -200 45 -200 45 -200 45
4632840490.0817 -3.5170462 -88.055923 -200 45 -200 45 -200 45
4633840606.7678 -3.5072467 -88.025368 -200 45 -200 45 -200 45
4634840723.4539 -3.4989851 -88.000435 -200 45 -200 45 -200 45
4635840840.14 -3.4891319 -87.947189 -200 45 -200 45 -200 45
4636840956.8261 -3.4734344 -87.889725 -200 45 -200 45 -200 45
4637841073.5123 -3.4627173 -87.837448 -200 45 -200 45 -200 45
4638841190.1984 -3.4532299 -87.77787 -200 45 -200 45 -200 45
4639841306.8845 -3.4436483 -87.693199 -200 45 -200 45 -200 45
4640841423.5706 -3.4336982 -87.610306 -200 45 -200 45 -200 45
4641841540.2567 -3.4280505 -87.49971 -200 45 -200 45 -200 45
4642841656.9428 -3.4228971 -87.386589 -200 45 -200 45 -200 45
4643841773.6289 -3.4162784 -87.267654 -200 45 -200 45 -200 45
4644841890.3151 -3.4124522 -87.144287 -200 45 -200 45 -200 45
4645842007.0012 -3.4133263 -87.014481 -200 45 -200 45 -200 45
4646842123.6873 -3.4073725 -86.895691 -200 45 -200 45 -200 45
4647842240.3734 -3.4074538 -86.760689 -200 45 -200 45 -200 45
4648842357.0595 -3.4048119 -86.617683 -200 45 -200 45 -200 45
4649842473.7456 -3.4063666 -86.454605 -200 45 -200 45 -200 45
4650842590.4317 -3.4100413 -86.331055 -200 45 -200 45 -200 45
4651842707.1179 -3.4127955 -86.185524 -200 45 -200 45 -200 45
4652842823.804 -3.4114323 -86.029137 -200 45 -200 45 -200 45
4653842940.4901 -3.4136939 -85.88533 -200 45 -200 45 -200 45
4654843057.1762 -3.4213965 -85.72892 -200 45 -200 45 -200 45
4655843173.8623 -3.4297941 -85.590935 -200 45 -200 45 -200 45
4656843290.5484 -3.4372993 -85.425262 -200 45 -200 45 -200 45
4657843407.2345 -3.4442663 -85.285774 -200 45 -200 45 -200 45
4658843523.9207 -3.4554644 -85.13871 -200 45 -200 45 -200 45
4659843640.6068 -3.4645538 -85.017807 -200 45 -200 45 -200 45
4660843757.2929 -3.4799855 -84.884613 -200 45 -200 45 -200 45
4661843873.979 -3.4904492 -84.752426 -200 45 -200 45 -200 45
4662843990.6651 -3.5045199 -84.606293 -200 45 -200 45 -200 45
4663844107.3512 -3.5156415 -84.502892 -200 45 -200 45 -200 45
4664844224.0373 -3.5287433 -84.359825 -200 45 -200 45 -200 45
4665844340.7235 -3.5441275 -84.279854 -200 45 -200 45 -200 45
4666844457.4096 -3.5543776 -84.175209 -200 45 -200 45 -200 45
4667844574.0957 -3.5689013 -84.088577 -200 45 -200 45 -200 45
4668844690.7818 -3.5778565 -84.019089 -200 45 -200 45 -200 45
4669844807.4679 -3.5914876 -83.957687 -200 45 -200 45 -200 45
4670844924.154 -3.6045594 -83.903641 -200 45 -200 45 -200 45
4671845040.8401 -3.6145687 -83.87529 -200 45 -200 45 -200 45
4672845157.5263 -3.6299071 -83.863052 -200 45 -200 45 -200 45
4673845274.2124 -3.6379781 -83.854134 -200 45 -200 45 -200 45
4674845390.8985 -3.6517792 -83.86573 -200 45 -200 45 -200 45
4675845507.5846 -3.6625395 -83.922806 -200 45 -200 45 -200 45
4676845624.2707 -3.6714566 -83.942039 -200 45 -200 45 -200 45
4677845740.9568 -3.685554 -84.021301 -200 45 -200 45 -200 45
4678845857.6429 -3.6996658 -84.084473 -200 45 -200 45 -200 45
4679845974.3291 -3.7079861 -84.181007 -200 45 -200 45 -200 45
4680846091.0152 -3.7150848 -84.278511 -200 45 -200 45 -200 45
4681846207.7013 -3.7237628 -84.388008 -200 45 -200 45 -200 45
4682846324.3874 -3.7354131 -84.524811 -200 45 -200 45 -200 45
4683846441.0735 -3.7448764 -84.67466 -200 45 -200 45 -200 45
4684846557.7596 -3.748193 -84.812401 -200 45 -200 45 -200 45
4685846674.4457 -3.7579656 -84.977936 -200 45 -200 45 -200 45
4686846791.1319 -3.7633734 -85.131096 -200 45 -200 45 -200 45
4687846907.818 -3.7691886 -85.298019 -200 45 -200 45 -200 45
4688847024.5041 -3.7754905 -85.487312 -200 45 -200 45 -200 45
4689847141.1902 -3.7781062 -85.665421 -200 45 -200 45 -200 45
4690847257.8763 -3.781719 -85.851334 -200 45 -200 45 -200 45
4691847374.5624 -3.7834976 -86.031128 -200 45 -200 45 -200 45
4692847491.2485 -3.7843029 -86.236649 -200 45 -200 45 -200 45
4693847607.9347 -3.7892499 -86.406502 -200 45 -200 45 -200 45
4694847724.6208 -3.7840781 -86.611832 -200 45 -200 45 -200 45
4695847841.3069 -3.7846174 -86.806313 -200 45 -200 45 -200 45
4696847957.993 -3.7785332 -86.999313 -200 45 -200 45 -200 45
4697848074.6791 -3.7751682 -87.17878 -200 45 -200 45 -200 45
4698848191.3652 -3.7655396 -87.3592 -200 45 -200 45 -200 45
4699848308.0513 -3.7595665 -87.52581 -200 45 -200 45 -200 45
4700848424.7375 -3.7490776 -87.705933 -200 45 -200 45 -200 45
4701848541.4236 -3.7382402 -87.881828 -200 45 -200 45 -200 45
4702848658.1097 -3.7300313 -88.011528 -200 45 -200 45 -200 45
4703848774.7958 -3.718976 -88.164291 -200 45 -200 45 -200 45
4704848891.4819 -3.7073085 -88.312904 -200 45 -200 45 -200 45
4705849008.168 -3.696151 -88.445335 -200 45 -200 45 -200 45
4706849124.8541 -3.683502 -88.560768 -200 45 -200 45 -200 45
4707849241.5403 -3.6739023 -88.66275 -200 45 -200 45 -200 45
4708849358.2264 -3.660984 -88.763824 -200 45 -200 45 -200 45
4709849474.9125 -3.6505108 -88.859543 -200 45 -200 45 -200 45
4710849591.5986 -3.6349478 -88.927963 -200 45 -200 45 -200 45
4711849708.2847 -3.6205499 -88.994568 -200 45 -200 45 -200 45
4712849824.9708 -3.6054537 -89.027733 -200 45 -200 45 -200 45
4713849941.6569 -3.5924828 -89.076927 -200 45 -200 45 -200 45
4714850058.3431 -3.5798655 -89.104454 -200 45 -200 45 -200 45
4715850175.0292 -3.5630183 -89.122299 -200 45 -200 45 -200 45
4716850291.7153 -3.5503168 -89.100655 -200 45 -200 45 -200 45
4717850408.4014 -3.5375006 -89.098526 -200 45 -200 45 -200 45
4718850525.0875 -3.5226882 -89.062325 -200 45 -200 45 -200 45
4719850641.7736 -3.5125341 -89.046326 -200 45 -200 45 -200 45
4720850758.4597 -3.5009239 -88.977173 -200 45 -200 45 -200 45
4721850875.1459 -3.4913366 -88.913544 -200 45 -200 45 -200 45
4722850991.832 -3.4813812 -88.84758 -200 45 -200 45 -200 45
4723851108.5181 -3.4724932 -88.766571 -200 45 -200 45 -200 45
4724851225.2042 -3.4686999 -88.672646 -200 45 -200 45 -200 45
4725851341.8903 -3.4584825 -88.559586 -200 45 -200 45 -200 45
4726851458.5764 -3.4533837 -88.450218 -200 45 -200 45 -200 45
4727851575.2625 -3.4460325 -88.335083 -200 45 -200 45 -200 45
4728851691.9487 -3.4422722 -88.2202 -200 45 -200 45 -200 45
4729851808.6348 -3.4388471 -88.074699 -200 45 -200 45 -200 45
4730851925.3209 -3.437144 -87.948982 -200 45 -200 45 -200 45
4731852042.007 -3.4349706 -87.819473 -200 45 -200 45 -200 45
4732852158.6931 -3.4362373 -87.657387 -200 45 -200 45 -200 45
4733852275.3792 -3.4356959 -87.51339 -200 45 -200 45 -200 45
4734852392.0653 -3.4373505 -87.371208 -200 45 -200 45 -200 45
4735852508.7515 -3.4391875 -87.204597 -200 45 -200 45 -200 45
4736852625.4376 -3.4457793 -87.039497 -200 45 -200 45 -200 45
4737852742.1237 -3.4538326 -86.885422 -200 45 -200 45 -200 45
4738852858.8098 -3.4611754 -86.717705 -200 45 -200 45 -200 45
4739852975.4959 -3.4697397 -86.576736 -200 45 -200 45 -200 45
4740853092.182 -3.4817257 -86.400955 -200 45 -200 45 -200 45
4741853208.8681 -3.4919827 -86.241951 -200 45 -200 45 -200 45
4742853325.5543 -3.5017674 -86.06913 -200 45 -200 45 -200 45
4743853442.2404 -3.5141101 -85.933273 -200 45 -200 45 -200 45
4744853558.9265 -3.5267506 -85.779892 -200 45 -200 45 -200 45
4745853675.6126 -3.5399995 -85.632874 -200 45 -200 45 -200 45
4746853792.2987 -3.5546629 -85.473564 -200 45 -200 45 -200 45
4747853908.9848 -3.5671899 -85.322899 -200 45 -200 45 -200 45
4748854025.6709 -3.5767329 -85.202324 -200 45 -200 45 -200 45
4749854142.3571 -3.5913312 -85.077789 -200 45 -200 45 -200 45
4750854259.0432 -3.6057298 -84.963478 -200 45 -200 45 -200 45
4751854375.7293 -3.6143737 -84.848541 -200 45 -200 45 -200 45
4752854492.4154 -3.6272163 -84.767456 -200 45 -200 45 -200 45
4753854609.1015 -3.639509 -84.696152 -200 45 -200 45 -200 45
4754854725.7876 -3.6495707 -84.617157 -200 45 -200 45 -200 45
4755854842.4737 -3.6608121 -84.610466 -200 45 -200 45 -200 45
4756854959.1599 -3.6747532 -84.603287 -200 45 -200 45 -200 45
4757855075.846 -3.6828904 -84.595367 -200 45 -200 45 -200 45
4758855192.5321 -3.6934783 -84.613708 -200 45 -200 45 -200 45
4759855309.2182 -3.7031372 -84.651199 -200 45 -200 45 -200 45
4760855425.9043 -3.7131133 -84.711266 -200 45 -200 45 -200 45
4761855542.5904 -3.7246387 -84.765427 -200 45 -200 45 -200 45
4762855659.2765 -3.7342505 -84.873245 -200 45 -200 45 -200 45
4763855775.9627 -3.7475703 -84.94323 -200 45 -200 45 -200 45
4764855892.6488 -3.7555346 -85.051552 -200 45 -200 45 -200 45
4765856009.3349 -3.7635267 -85.158562 -200 45 -200 45 -200 45
4766856126.021 -3.7693396 -85.298447 -200 45 -200 45 -200 45
4767856242.7071 -3.7814655 -85.463158 -200 45 -200 45 -200 45
4768856359.3932 -3.785197 -85.595863 -200 45 -200 45 -200 45
4769856476.0793 -3.7915983 -85.769974 -200 45 -200 45 -200 45
4770856592.7655 -3.7982881 -85.937462 -200 45 -200 45 -200 45
4771856709.4516 -3.7982776 -86.123764 -200 45 -200 45 -200 45
4772856826.1377 -3.8070073 -86.324226 -200 45 -200 45 -200 45
4773856942.8238 -3.8101938 -86.515594 -200 45 -200 45 -200 45
4774857059.5099 -3.811209 -86.722923 -200 45 -200 45 -200 45
4775857176.196 -3.8110011 -86.943726 -200 45 -200 45 -200 45
4776857292.8821 -3.8114524 -87.14222 -200 45 -200 45 -200 45
4777857409.5683 -3.8097546 -87.352158 -200 45 -200 45 -200 45
4778857526.2544 -3.8060932 -87.56723 -200 45 -200 45 -200 45
4779857642.9405 -3.8032258 -87.785789 -200 45 -200 45 -200 45
4780857759.6266 -3.7964685 -87.995773 -200 45 -200 45 -200 45
4781857876.3127 -3.7920158 -88.219231 -200 45 -200 45 -200 45
4782857992.9988 -3.7903678 -88.399391 -200 45 -200 45 -200 45
4783858109.6849 -3.7821634 -88.602654 -200 45 -200 45 -200 45
4784858226.3711 -3.7756405 -88.807907 -200 45 -200 45 -200 45
4785858343.0572 -3.7694094 -88.979645 -200 45 -200 45 -200 45
4786858459.7433 -3.7566936 -89.157288 -200 45 -200 45 -200 45
4787858576.4294 -3.7508416 -89.299957 -200 45 -200 45 -200 45
4788858693.1155 -3.7451251 -89.450844 -200 45 -200 45 -200 45
4789858809.8016 -3.7329361 -89.571365 -200 45 -200 45 -200 45
4790858926.4877 -3.7212522 -89.691307 -200 45 -200 45 -200 45
4791859043.1739 -3.7109461 -89.799858 -200 45 -200 45 -200 45
4792859159.86 -3.6962731 -89.890625 -200 45 -200 45 -200 45
4793859276.5461 -3.6858232 -89.940636 -200 45 -200 45 -200 45
4794859393.2322 -3.6705525 -90.021797 -200 45 -200 45 -200 45
4795859509.9183 -3.6575019 -90.037613 -200 45 -200 45 -200 45
4796859626.6044 -3.6375034 -90.077942 -200 45 -200 45 -200 45
4797859743.2905 -3.6201339 -90.107193 -200 45 -200 45 -200 45
4798859859.9767 -3.6068752 -90.098457 -200 45 -200 45 -200 45
4799859976.6628 -3.588299 -90.077431 -200 45 -200 45 -200 45
4800860093.3489 -3.5711181 -90.059456 -200 45 -200 45 -200 45
4801860210.035 -3.5563922 -90.030304 -200 45 -200 45 -200 45
4802860326.7211 -3.5398142 -89.976028 -200 45 -200 45 -200 45
4803860443.4072 -3.5234044 -89.944778 -200 45 -200 45 -200 45
4804860560.0933 -3.5084355 -89.857185 -200 45 -200 45 -200 45
4805860676.7795 -3.4989641 -89.803444 -200 45 -200 45 -200 45
4806860793.4656 -3.4819434 -89.711609 -200 45 -200 45 -200 45
4807860910.1517 -3.4665504 -89.619926 -200 45 -200 45 -200 45
4808861026.8378 -3.450176 -89.509102 -200 45 -200 45 -200 45
4809861143.5239 -3.444423 -89.382774 -200 45 -200 45 -200 45
4810861260.21 -3.4307482 -89.294624 -200 45 -200 45 -200 45
4811861376.8961 -3.421865 -89.190575 -200 45 -200 45 -200 45
4812861493.5823 -3.4100313 -89.063667 -200 45 -200 45 -200 45
4813861610.2684 -3.4011638 -88.917938 -200 45 -200 45 -200 45
4814861726.9545 -3.3928728 -88.788071 -200 45 -200 45 -200 45
4815861843.6406 -3.3884859 -88.658722 -200 45 -200 45 -200 45
4816861960.3267 -3.3840237 -88.487991 -200 45 -200 45 -200 45
4817862077.0128 -3.380487 -88.360687 -200 45 -200 45 -200 45
4818862193.6989 -3.375798 -88.223099 -200 45 -200 45 -200 45
4819862310.3851 -3.3781307 -88.065834 -200 45 -200 45 -200 45
4820862427.0712 -3.3778422 -87.914581 -200 45 -200 45 -200 45
4821862543.7573 -3.3784223 -87.778999 -200 45 -200 45 -200 45
4822862660.4434 -3.3812761 -87.630783 -200 45 -200 45 -200 45
4823862777.1295 -3.3820167 -87.491402 -200 45 -200 45 -200 45
4824862893.8156 -3.3872416 -87.348412 -200 45 -200 45 -200 45
4825863010.5018 -3.3942142 -87.220871 -200 45 -200 45 -200 45
4826863127.1879 -3.4004445 -87.102547 -200 45 -200 45 -200 45
4827863243.874 -3.4068511 -86.979248 -200 45 -200 45 -200 45
4828863360.5601 -3.4141998 -86.884148 -200 45 -200 45 -200 45
4829863477.2462 -3.4262958 -86.788017 -200 45 -200 45 -200 45
4830863593.9323 -3.437808 -86.686935 -200 45 -200 45 -200 45
4831863710.6184 -3.4493308 -86.601013 -200 45 -200 45 -200 45
4832863827.3046 -3.4617956 -86.515289 -200 45 -200 45 -200 45
4833863943.9907 -3.4767714 -86.469261 -200 45 -200 45 -200 45
4834864060.6768 -3.4924212 -86.400421 -200 45 -200 45 -200 45
4835864177.3629 -3.5085392 -86.368378 -200 45 -200 45 -200 45
4836864294.049 -3.5231349 -86.330269 -200 45 -200 45 -200 45
4837864410.7351 -3.5405829 -86.331314 -200 45 -200 45 -200 45
4838864527.4212 -3.5574026 -86.30835 -200 45 -200 45 -200 45
4839864644.1074 -3.5730922 -86.31958 -200 45 -200 45 -200 45
4840864760.7935 -3.588208 -86.354156 -200 45 -200 45 -200 45
4841864877.4796 -3.6056349 -86.376755 -200 45 -200 45 -200 45
4842864994.1657 -3.6222098 -86.436615 -200 45 -200 45 -200 45
4843865110.8518 -3.6391263 -86.491646 -200 45 -200 45 -200 45
4844865227.5379 -3.653311 -86.59343 -200 45 -200 45 -200 45
4845865344.224 -3.6741133 -86.666344 -200 45 -200 45 -200 45
4846865460.9102 -3.6898432 -86.781372 -200 45 -200 45 -200 45
4847865577.5963 -3.7059336 -86.888519 -200 45 -200 45 -200 45
4848865694.2824 -3.720928 -87.025002 -200 45 -200 45 -200 45
4849865810.9685 -3.734961 -87.149574 -200 45 -200 45 -200 45
4850865927.6546 -3.7504723 -87.29538 -200 45 -200 45 -200 45
4851866044.3407 -3.7639465 -87.443054 -200 45 -200 45 -200 45
4852866161.0268 -3.7781966 -87.616272 -200 45 -200 45 -200 45
4853866277.713 -3.7905273 -87.7808 -200 45 -200 45 -200 45
4854866394.3991 -3.7995455 -87.965736 -200 45 -200 45 -200 45
4855866511.0852 -3.8075871 -88.153854 -200 45 -200 45 -200 45
4856866627.7713 -3.8169634 -88.349091 -200 45 -200 45 -200 45
4857866744.4574 -3.8230972 -88.554497 -200 45 -200 45 -200 45
4858866861.1435 -3.8301015 -88.774872 -200 45 -200 45 -200 45
4859866977.8296 -3.8332944 -88.986259 -200 45 -200 45 -200 45
4860867094.5158 -3.8314843 -89.19593 -200 45 -200 45 -200 45
4861867211.2019 -3.8332586 -89.410736 -200 45 -200 45 -200 45
4862867327.888 -3.835007 -89.621147 -200 45 -200 45 -200 45
4863867444.5741 -3.8332717 -89.835968 -200 45 -200 45 -200 45
4864867561.2602 -3.8331985 -90.02639 -200 45 -200 45 -200 45
4865867677.9463 -3.828944 -90.24411 -200 45 -200 45 -200 45
4866867794.6324 -3.8256679 -90.438271 -200 45 -200 45 -200 45
4867867911.3186 -3.819885 -90.653076 -200 45 -200 45 -200 45
4868868028.0047 -3.8156464 -90.839417 -200 45 -200 45 -200 45
4869868144.6908 -3.8061395 -91.011093 -200 45 -200 45 -200 45
4870868261.3769 -3.7986581 -91.171387 -200 45 -200 45 -200 45
4871868378.063 -3.7877891 -91.322304 -200 45 -200 45 -200 45
4872868494.7491 -3.7788234 -91.48082 -200 45 -200 45 -200 45
4873868611.4352 -3.7658401 -91.645355 -200 45 -200 45 -200 45
4874868728.1214 -3.7531545 -91.747818 -200 45 -200 45 -200 45
4875868844.8075 -3.735898 -91.884933 -200 45 -200 45 -200 45
4876868961.4936 -3.721741 -91.981728 -200 45 -200 45 -200 45
4877869078.1797 -3.7109036 -92.052223 -200 45 -200 45 -200 45
4878869194.8658 -3.6956959 -92.1511 -200 45 -200 45 -200 45
4879869311.5519 -3.6842468 -92.19709 -200 45 -200 45 -200 45
4880869428.238 -3.6657691 -92.25296 -200 45 -200 45 -200 45
4881869544.9242 -3.6529214 -92.282967 -200 45 -200 45 -200 45
4882869661.6103 -3.6400466 -92.304047 -200 45 -200 45 -200 45
4883869778.2964 -3.624867 -92.290878 -200 45 -200 45 -200 45
4884869894.9825 -3.6114023 -92.280441 -200 45 -200 45 -200 45
4885870011.6686 -3.5972514 -92.277016 -200 45 -200 45 -200 45
4886870128.3547 -3.5831552 -92.250633 -200 45 -200 45 -200 45
4887870245.0408 -3.5730014 -92.212578 -200 45 -200 45 -200 45
4888870361.727 -3.5575781 -92.14296 -200 45 -200 45 -200 45
4889870478.4131 -3.5493093 -92.072227 -200 45 -200 45 -200 45
4890870595.0992 -3.5366988 -92.003258 -200 45 -200 45 -200 45
4891870711.7853 -3.5266654 -91.903175 -200 45 -200 45 -200 45
4892870828.4714 -3.5166728 -91.800484 -200 45 -200 45 -200 45
4893870945.1575 -3.5068085 -91.691017 -200 45 -200 45 -200 45
4894871061.8436 -3.5008268 -91.565903 -200 45 -200 45 -200 45
4895871178.5298 -3.4947975 -91.448944 -200 45 -200 45 -200 45
4896871295.2159 -3.4892328 -91.310959 -200 45 -200 45 -200 45
4897871411.902 -3.4886475 -91.154579 -200 45 -200 45 -200 45
4898871528.5881 -3.4871299 -91.019966 -200 45 -200 45 -200 45
4899871645.2742 -3.4836156 -90.88871 -200 45 -200 45 -200 45
4900871761.9603 -3.4858341 -90.701843 -200 45 -200 45 -200 45
4901871878.6464 -3.4888067 -90.56424 -200 45 -200 45 -200 45
4902871995.3326 -3.4896157 -90.403664 -200 45 -200 45 -200 45
4903872112.0187 -3.4950342 -90.249031 -200 45 -200 45 -200 45
4904872228.7048 -3.4958324 -90.088516 -200 45 -200 45 -200 45
4905872345.3909 -3.5063767 -89.925629 -200 45 -200 45 -200 45
4906872462.077 -3.5130882 -89.763046 -200 45 -200 45 -200 45
4907872578.7631 -3.5212486 -89.602356 -200 45 -200 45 -200 45
4908872695.4492 -3.5298936 -89.441933 -200 45 -200 45 -200 45
4909872812.1354 -3.5427871 -89.308487 -200 45 -200 45 -200 45
4910872928.8215 -3.5560253 -89.168579 -200 45 -200 45 -200 45
4911873045.5076 -3.5728815 -89.010124 -200 45 -200 45 -200 45
4912873162.1937 -3.5872705 -88.886009 -200 45 -200 45 -200 45
4913873278.8798 -3.6047556 -88.752617 -200 45 -200 45 -200 45
4914873395.5659 -3.6220109 -88.632614 -200 45 -200 45 -200 45
4915873512.252 -3.643733 -88.531403 -200 45 -200 45 -200 45
4916873628.9382 -3.6640096 -88.413414 -200 45 -200 45 -200 45
4917873745.6243 -3.6849337 -88.313667 -200 45 -200 45 -200 45
4918873862.3104 -3.7068224 -88.217331 -200 45 -200 45 -200 45
4919873978.9965 -3.7288382 -88.134621 -200 45 -200 45 -200 45
4920874095.6826 -3.7548094 -88.065575 -200 45 -200 45 -200 45
4921874212.3687 -3.7789841 -87.99173 -200 45 -200 45 -200 45
4922874329.0548 -3.8035192 -87.949486 -200 45 -200 45 -200 45
4923874445.741 -3.8240895 -87.900215 -200 45 -200 45 -200 45
4924874562.4271 -3.8510771 -87.88324 -200 45 -200 45 -200 45
4925874679.1132 -3.8732822 -87.821602 -200 45 -200 45 -200 45
4926874795.7993 -3.8973615 -87.813538 -200 45 -200 45 -200 45
4927874912.4854 -3.91978 -87.779045 -200 45 -200 45 -200 45
4928875029.1715 -3.9438069 -87.784172 -200 45 -200 45 -200 45
4929875145.8576 -3.9654262 -87.781326 -200 45 -200 45 -200 45
4930875262.5438 -3.9889183 -87.791939 -200 45 -200 45 -200 45
4931875379.2299 -4.005877 -87.818169 -200 45 -200 45 -200 45
4932875495.916 -4.0279417 -87.857124 -200 45 -200 45 -200 45
4933875612.6021 -4.0407515 -87.881966 -200 45 -200 45 -200 45
4934875729.2882 -4.0506377 -87.930458 -200 45 -200 45 -200 45
4935875845.9743 -4.0610495 -87.990395 -200 45 -200 45 -200 45
4936875962.6604 -4.0678358 -88.059624 -200 45 -200 45 -200 45
4937876079.3466 -4.0718288 -88.141617 -200 45 -200 45 -200 45
4938876196.0327 -4.0729079 -88.26944 -200 45 -200 45 -200 45
4939876312.7188 -4.0691023 -88.38205 -200 45 -200 45 -200 45
4940876429.4049 -4.0676537 -88.570351 -200 45 -200 45 -200 45
4941876546.091 -4.0606174 -88.704727 -200 45 -200 45 -200 45
4942876662.7771 -4.0563655 -88.889084 -200 45 -200 45 -200 45
4943876779.4632 -4.049046 -89.07885 -200 45 -200 45 -200 45
4944876896.1494 -4.0413923 -89.278358 -200 45 -200 45 -200 45
4945877012.8355 -4.0335016 -89.472313 -200 45 -200 45 -200 45
4946877129.5216 -4.0233707 -89.696121 -200 45 -200 45 -200 45
4947877246.2077 -4.0185356 -89.892937 -200 45 -200 45 -200 45
4948877362.8938 -4.0062304 -90.112534 -200 45 -200 45 -200 45
4949877479.5799 -3.9963784 -90.323196 -200 45 -200 45 -200 45
4950877596.266 -3.9797103 -90.563828 -200 45 -200 45 -200 45
4951877712.9522 -3.9681404 -90.773064 -200 45 -200 45 -200 45
4952877829.6383 -3.9545176 -90.980705 -200 45 -200 45 -200 45
4953877946.3244 -3.9372199 -91.179291 -200 45 -200 45 -200 45
4954878063.0105 -3.9258597 -91.376495 -200 45 -200 45 -200 45
4955878179.6966 -3.9075191 -91.559792 -200 45 -200 45 -200 45
4956878296.3827 -3.8915706 -91.720032 -200 45 -200 45 -200 45
4957878413.0688 -3.8762059 -91.867599 -200 45 -200 45 -200 45
4958878529.755 -3.859158 -92.029854 -200 45 -200 45 -200 45
4959878646.4411 -3.8446183 -92.143913 -200 45 -200 45 -200 45
4960878763.1272 -3.8261368 -92.268112 -200 45 -200 45 -200 45
4961878879.8133 -3.8098946 -92.355209 -200 45 -200 45 -200 45
4962878996.4994 -3.7959139 -92.41185 -200 45 -200 45 -200 45
4963879113.1855 -3.777827 -92.496452 -200 45 -200 45 -200 45
4964879229.8716 -3.7655382 -92.541153 -200 45 -200 45 -200 45
4965879346.5578 -3.7431016 -92.564026 -200 45 -200 45 -200 45
4966879463.2439 -3.7253675 -92.573868 -200 45 -200 45 -200 45
4967879579.93 -3.7067876 -92.547844 -200 45 -200 45 -200 45
4968879696.6161 -3.6874189 -92.537842 -200 45 -200 45 -200 45
4969879813.3022 -3.6696761 -92.533447 -200 45 -200 45 -200 45
4970879929.9883 -3.6491952 -92.457779 -200 45 -200 45 -200 45
4971880046.6744 -3.6284561 -92.415047 -200 45 -200 45 -200 45
4972880163.3606 -3.609355 -92.338661 -200 45 -200 45 -200 45
4973880280.0467 -3.5910358 -92.25692 -200 45 -200 45 -200 45
4974880396.7328 -3.5732839 -92.191216 -200 45 -200 45 -200 45
4975880513.4189 -3.5580859 -92.072151 -200 45 -200 45 -200 45
4976880630.105 -3.5426352 -91.970726 -200 45 -200 45 -200 45
4977880746.7911 -3.5273395 -91.86013 -200 45 -200 45 -200 45
4978880863.4772 -3.5166509 -91.732391 -200 45 -200 45 -200 45
4979880980.1634 -3.5007081 -91.622902 -200 45 -200 45 -200 45
4980881096.8495 -3.4882686 -91.474571 -200 45 -200 45 -200 45
4981881213.5356 -3.4803123 -91.357765 -200 45 -200 45 -200 45
4982881330.2217 -3.4695904 -91.234573 -200 45 -200 45 -200 45
4983881446.9078 -3.4598663 -91.088051 -200 45 -200 45 -200 45
4984881563.5939 -3.4542956 -90.942566 -200 45 -200 45 -200 45
4985881680.28 -3.445374 -90.797989 -200 45 -200 45 -200 45
4986881796.9662 -3.4457242 -90.665672 -200 45 -200 45 -200 45
4987881913.6523 -3.4387639 -90.506065 -200 45 -200 45 -200 45
4988882030.3384 -3.4399908 -90.376335 -200 45 -200 45 -200 45
4989882147.0245 -3.4418397 -90.225922 -200 45 -200 45 -200 45
4990882263.7106 -3.442035 -90.078873 -200 45 -200 45 -200 45
4991882380.3967 -3.4491816 -89.958023 -200 45 -200 45 -200 45
4992882497.0828 -3.4513571 -89.800888 -200 45 -200 45 -200 45
4993882613.769 -3.4603801 -89.685944 -200 45 -200 45 -200 45
4994882730.4551 -3.4675195 -89.55201 -200 45 -200 45 -200 45
4995882847.1412 -3.4781325 -89.45771 -200 45 -200 45 -200 45
4996882963.8273 -3.490737 -89.330315 -200 45 -200 45 -200 45
4997883080.5134 -3.5002823 -89.242546 -200 45 -200 45 -200 45
4998883197.1995 -3.512243 -89.124855 -200 45 -200 45 -200 45
4999883313.8856 -3.5278571 -89.048119 -200 45 -200 45 -200 45
5000883430.5718 -3.5416088 -88.965759 -200 45 -200 45 -200 45
5001883547.2579 -3.5588303 -88.912888 -200 45 -200 45 -200 45
5002883663.944 -3.5717564 -88.850281 -200 45 -200 45 -200 45
5003883780.6301 -3.5852382 -88.810493 -200 45 -200 45 -200 45
5004883897.3162 -3.6062601 -88.782028 -200 45 -200 45 -200 45
5005884014.0023 -3.6221647 -88.75386 -200 45 -200 45 -200 45
5006884130.6884 -3.6421707 -88.72818 -200 45 -200 45 -200 45
5007884247.3746 -3.6590414 -88.73793 -200 45 -200 45 -200 45
5008884364.0607 -3.6810024 -88.783775 -200 45 -200 45 -200 45
5009884480.7468 -3.6992497 -88.804153 -200 45 -200 45 -200 45
5010884597.4329 -3.7215371 -88.85997 -200 45 -200 45 -200 45
5011884714.119 -3.7415619 -88.925331 -200 45 -200 45 -200 45
5012884830.8051 -3.7588496 -88.978577 -200 45 -200 45 -200 45
5013884947.4912 -3.7782891 -89.086494 -200 45 -200 45 -200 45
5014885064.1774 -3.7959292 -89.167793 -200 45 -200 45 -200 45
5015885180.8635 -3.8163478 -89.296951 -200 45 -200 45 -200 45
5016885297.5496 -3.8341 -89.421898 -200 45 -200 45 -200 45
5017885414.2357 -3.8507416 -89.560959 -200 45 -200 45 -200 45
5018885530.9218 -3.8634686 -89.701027 -200 45 -200 45 -200 45
5019885647.6079 -3.8786676 -89.855453 -200 45 -200 45 -200 45
5020885764.294 -3.8918211 -90.038223 -200 45 -200 45 -200 45
5021885880.9802 -3.9055903 -90.222641 -200 45 -200 45 -200 45
5022885997.6663 -3.9168627 -90.411972 -200 45 -200 45 -200 45
5023886114.3524 -3.9252021 -90.604996 -200 45 -200 45 -200 45
5024886231.0385 -3.9329069 -90.784645 -200 45 -200 45 -200 45
5025886347.7246 -3.9406352 -90.998589 -200 45 -200 45 -200 45
5026886464.4107 -3.949564 -91.192474 -200 45 -200 45 -200 45
5027886581.0968 -3.9572892 -91.406746 -200 45 -200 45 -200 45
5028886697.783 -3.9596429 -91.623138 -200 45 -200 45 -200 45
5029886814.4691 -3.9598427 -91.838348 -200 45 -200 45 -200 45
5030886931.1552 -3.9592419 -92.062706 -200 45 -200 45 -200 45
5031887047.8413 -3.9578643 -92.267593 -200 45 -200 45 -200 45
5032887164.5274 -3.9538684 -92.489975 -200 45 -200 45 -200 45
5033887281.2135 -3.9498124 -92.692436 -200 45 -200 45 -200 45
5034887397.8997 -3.9420125 -92.904327 -200 45 -200 45 -200 45
5035887514.5858 -3.93454 -93.084862 -200 45 -200 45 -200 45
5036887631.2719 -3.9274681 -93.308113 -200 45 -200 45 -200 45
5037887747.958 -3.9172947 -93.482979 -200 45 -200 45 -200 45
5038887864.6441 -3.9076772 -93.634979 -200 45 -200 45 -200 45
5039887981.3302 -3.8938303 -93.805481 -200 45 -200 45 -200 45
5040888098.0163 -3.8846223 -93.95916 -200 45 -200 45 -200 45
5041888214.7025 -3.8709779 -94.102058 -200 45 -200 45 -200 45
5042888331.3886 -3.8582256 -94.219994 -200 45 -200 45 -200 45
5043888448.0747 -3.8467324 -94.320496 -200 45 -200 45 -200 45
5044888564.7608 -3.8306143 -94.440575 -200 45 -200 45 -200 45
5045888681.4469 -3.8104937 -94.523819 -200 45 -200 45 -200 45
5046888798.133 -3.7920761 -94.594864 -200 45 -200 45 -200 45
5047888914.8191 -3.7796502 -94.660187 -200 45 -200 45 -200 45
5048889031.5053 -3.7676463 -94.699799 -200 45 -200 45 -200 45
5049889148.1914 -3.7481885 -94.72168 -200 45 -200 45 -200 45
5050889264.8775 -3.7283294 -94.755478 -200 45 -200 45 -200 45
5051889381.5636 -3.7132168 -94.756073 -200 45 -200 45 -200 45
5052889498.2497 -3.6977739 -94.743393 -200 45 -200 45 -200 45
5053889614.9358 -3.6858861 -94.711044 -200 45 -200 45 -200 45
5054889731.6219 -3.6699827 -94.66674 -200 45 -200 45 -200 45
5055889848.3081 -3.6543803 -94.606972 -200 45 -200 45 -200 45
5056889964.9942 -3.6445587 -94.56279 -200 45 -200 45 -200 45
5057890081.6803 -3.6317446 -94.460724 -200 45 -200 45 -200 45
5058890198.3664 -3.6235406 -94.372696 -200 45 -200 45 -200 45
5059890315.0525 -3.6111062 -94.274155 -200 45 -200 45 -200 45
5060890431.7386 -3.6035702 -94.162407 -200 45 -200 45 -200 45
5061890548.4247 -3.5943196 -94.06974 -200 45 -200 45 -200 45
5062890665.1109 -3.5865762 -93.921532 -200 45 -200 45 -200 45
5063890781.797 -3.5806451 -93.768982 -200 45 -200 45 -200 45
5064890898.4831 -3.5786607 -93.635757 -200 45 -200 45 -200 45
5065891015.1692 -3.5712745 -93.514275 -200 45 -200 45 -200 45
5066891131.8553 -3.5712552 -93.336044 -200 45 -200 45 -200 45
5067891248.5414 -3.567894 -93.177376 -200 45 -200 45 -200 45
5068891365.2275 -3.5732136 -93.00518 -200 45 -200 45 -200 45
5069891481.9137 -3.5739172 -92.830704 -200 45 -200 45 -200 45
5070891598.5998 -3.5806808 -92.655411 -200 45 -200 45 -200 45
5071891715.2859 -3.583873 -92.477264 -200 45 -200 45 -200 45
5072891831.972 -3.5933239 -92.294106 -200 45 -200 45 -200 45
5073891948.6581 -3.6037152 -92.118034 -200 45 -200 45 -200 45
5074892065.3442 -3.6135447 -91.925964 -200 45 -200 45 -200 45
5075892182.0303 -3.6302936 -91.744629 -200 45 -200 45 -200 45
5076892298.7165 -3.6397259 -91.533684 -200 45 -200 45 -200 45
5077892415.4026 -3.6565242 -91.3834 -200 45 -200 45 -200 45
5078892532.0887 -3.6708977 -91.179077 -200 45 -200 45 -200 45
5079892648.7748 -3.6871953 -91.009094 -200 45 -200 45 -200 45
5080892765.4609 -3.7027147 -90.830627 -200 45 -200 45 -200 45
5081892882.147 -3.7152925 -90.657379 -200 45 -200 45 -200 45
5082892998.8331 -3.7327003 -90.46711 -200 45 -200 45 -200 45
5083893115.5193 -3.7501574 -90.314796 -200 45 -200 45 -200 45
5084893232.2054 -3.7691376 -90.14444 -200 45 -200 45 -200 45
5085893348.8915 -3.7854311 -89.99115 -200 45 -200 45 -200 45
5086893465.5776 -3.7980726 -89.839371 -200 45 -200 45 -200 45
5087893582.2637 -3.8173387 -89.714714 -200 45 -200 45 -200 45
5088893698.9498 -3.8329091 -89.591003 -200 45 -200 45 -200 45
5089893815.6359 -3.8446422 -89.51609 -200 45 -200 45 -200 45
5090893932.3221 -3.8593369 -89.446556 -200 45 -200 45 -200 45
5091894049.0082 -3.8701131 -89.402855 -200 45 -200 45 -200 45
5092894165.6943 -3.8834946 -89.360222 -200 45 -200 45 -200 45
5093894282.3804 -3.8978765 -89.380905 -200 45 -200 45 -200 45
5094894399.0665 -3.9109628 -89.395241 -200 45 -200 45 -200 45
5095894515.7526 -3.923281 -89.410576 -200 45 -200 45 -200 45
5096894632.4387 -3.9347279 -89.479416 -200 45 -200 45 -200 45
5097894749.1249 -3.9447589 -89.575256 -200 45 -200 45 -200 45
5098894865.811 -3.9580269 -89.680054 -200 45 -200 45 -200 45
5099894982.4971 -3.968895 -89.771988 -200 45 -200 45 -200 45
5100895099.1832 -3.9828236 -89.913734 -200 45 -200 45 -200 45
5101895215.8693 -3.9944851 -90.056984 -200 45 -200 45 -200 45
5102895332.5554 -4.0120535 -90.214027 -200 45 -200 45 -200 45
5103895449.2415 -4.0196805 -90.360565 -200 45 -200 45 -200 45
5104895565.9277 -4.0295024 -90.542534 -200 45 -200 45 -200 45
5105895682.6138 -4.0413346 -90.720749 -200 45 -200 45 -200 45
5106895799.2999 -4.0489407 -90.925476 -200 45 -200 45 -200 45
5107895915.986 -4.0544834 -91.132965 -200 45 -200 45 -200 45
5108896032.6721 -4.0566397 -91.323883 -200 45 -200 45 -200 45
5109896149.3582 -4.0645795 -91.548874 -200 45 -200 45 -200 45
5110896266.0443 -4.0685153 -91.783127 -200 45 -200 45 -200 45
5111896382.7305 -4.069622 -91.996025 -200 45 -200 45 -200 45
5112896499.4166 -4.0655689 -92.21006 -200 45 -200 45 -200 45
5113896616.1027 -4.0632963 -92.451073 -200 45 -200 45 -200 45
5114896732.7888 -4.0597439 -92.681114 -200 45 -200 45 -200 45
5115896849.4749 -4.0563707 -92.929703 -200 45 -200 45 -200 45
5116896966.161 -4.0503078 -93.114899 -200 45 -200 45 -200 45
5117897082.8471 -4.0424638 -93.35508 -200 45 -200 45 -200 45
5118897199.5333 -4.0365591 -93.560448 -200 45 -200 45 -200 45
5119897316.2194 -4.0262671 -93.768173 -200 45 -200 45 -200 45
5120897432.9055 -4.0170569 -93.952965 -200 45 -200 45 -200 45
5121897549.5916 -4.0082369 -94.13829 -200 45 -200 45 -200 45
5122897666.2777 -3.996335 -94.31852 -200 45 -200 45 -200 45
5123897782.9638 -3.9819188 -94.458389 -200 45 -200 45 -200 45
5124897899.6499 -3.967098 -94.615227 -200 45 -200 45 -200 45
5125898016.3361 -3.9538679 -94.746849 -200 45 -200 45 -200 45
5126898133.0222 -3.9370484 -94.861336 -200 45 -200 45 -200 45
5127898249.7083 -3.9207828 -94.959618 -200 45 -200 45 -200 45
5128898366.3944 -3.900867 -95.051147 -200 45 -200 45 -200 45
5129898483.0805 -3.8786697 -95.102638 -200 45 -200 45 -200 45
5130898599.7666 -3.8588057 -95.158501 -200 45 -200 45 -200 45
5131898716.4527 -3.83779 -95.203552 -200 45 -200 45 -200 45
5132898833.1389 -3.8168812 -95.228653 -200 45 -200 45 -200 45
5133898949.825 -3.7971075 -95.27301 -200 45 -200 45 -200 45
5134899066.5111 -3.771858 -95.244171 -200 45 -200 45 -200 45
5135899183.1972 -3.7527001 -95.242355 -200 45 -200 45 -200 45
5136899299.8833 -3.7343955 -95.232056 -200 45 -200 45 -200 45
5137899416.5694 -3.7142339 -95.179771 -200 45 -200 45 -200 45
5138899533.2555 -3.6910436 -95.151085 -200 45 -200 45 -200 45
5139899649.9417 -3.672092 -95.090271 -200 45 -200 45 -200 45
5140899766.6278 -3.6544213 -95.021126 -200 45 -200 45 -200 45
5141899883.3139 -3.6364236 -94.961601 -200 45 -200 45 -200 45
5142900000 -3.6212199 -94.86834 -200 45 -200 45 -200 45
5143900116.6861 -3.6027601 -94.758728 -200 45 -200 45 -200 45
5144900233.3722 -3.586525 -94.65271 -200 45 -200 45 -200 45
5145900350.0583 -3.5737131 -94.536201 -200 45 -200 45 -200 45
5146900466.7445 -3.5637696 -94.42173 -200 45 -200 45 -200 45
5147900583.4306 -3.5534115 -94.270638 -200 45 -200 45 -200 45
5148900700.1167 -3.5440078 -94.13028 -200 45 -200 45 -200 45
5149900816.8028 -3.5360496 -93.97506 -200 45 -200 45 -200 45
5150900933.4889 -3.529098 -93.819679 -200 45 -200 45 -200 45
5151901050.175 -3.5245357 -93.661911 -200 45 -200 45 -200 45
5152901166.8611 -3.5211806 -93.494476 -200 45 -200 45 -200 45
5153901283.5473 -3.5201075 -93.33667 -200 45 -200 45 -200 45
5154901400.2334 -3.5199327 -93.167603 -200 45 -200 45 -200 45
5155901516.9195 -3.5206685 -92.977173 -200 45 -200 45 -200 45
5156901633.6056 -3.5198224 -92.818886 -200 45 -200 45 -200 45
5157901750.2917 -3.523957 -92.631279 -200 45 -200 45 -200 45
5158901866.9778 -3.5290933 -92.477776 -200 45 -200 45 -200 45
5159901983.6639 -3.5342438 -92.299782 -200 45 -200 45 -200 45
5160902100.3501 -3.5358133 -92.154305 -200 45 -200 45 -200 45
5161902217.0362 -3.5433118 -91.979424 -200 45 -200 45 -200 45
5162902333.7223 -3.5542769 -91.819344 -200 45 -200 45 -200 45
5163902450.4084 -3.561393 -91.694679 -200 45 -200 45 -200 45
5164902567.0945 -3.5728917 -91.549599 -200 45 -200 45 -200 45
5165902683.7806 -3.5879908 -91.432663 -200 45 -200 45 -200 45
5166902800.4667 -3.5994861 -91.304375 -200 45 -200 45 -200 45
5167902917.1529 -3.6157856 -91.210457 -200 45 -200 45 -200 45
5168903033.839 -3.6318481 -91.086601 -200 45 -200 45 -200 45
5169903150.5251 -3.646965 -91.021606 -200 45 -200 45 -200 45
5170903267.2112 -3.6653268 -90.942604 -200 45 -200 45 -200 45
5171903383.8973 -3.6802301 -90.895447 -200 45 -200 45 -200 45
5172903500.5834 -3.6974328 -90.845551 -200 45 -200 45 -200 45
5173903617.2695 -3.7158732 -90.819031 -200 45 -200 45 -200 45
5174903733.9557 -3.7332559 -90.825363 -200 45 -200 45 -200 45
5175903850.6418 -3.74876 -90.835373 -200 45 -200 45 -200 45
5176903967.3279 -3.7656441 -90.828568 -200 45 -200 45 -200 45
5177904084.014 -3.7873981 -90.888786 -200 45 -200 45 -200 45
5178904200.7001 -3.8074231 -90.952301 -200 45 -200 45 -200 45
5179904317.3862 -3.8283877 -91.020805 -200 45 -200 45 -200 45
5180904434.0723 -3.8456783 -91.10363 -200 45 -200 45 -200 45
5181904550.7585 -3.8615167 -91.189232 -200 45 -200 45 -200 45
5182904667.4446 -3.881259 -91.320824 -200 45 -200 45 -200 45
5183904784.1307 -3.8998871 -91.430962 -200 45 -200 45 -200 45
5184904900.8168 -3.9204955 -91.555908 -200 45 -200 45 -200 45
5185905017.5029 -3.9355032 -91.735893 -200 45 -200 45 -200 45
5186905134.189 -3.9556098 -91.908417 -200 45 -200 45 -200 45
5187905250.8751 -3.9653521 -92.067093 -200 45 -200 45 -200 45
5188905367.5613 -3.9809875 -92.272301 -200 45 -200 45 -200 45
5189905484.2474 -3.9931989 -92.474174 -200 45 -200 45 -200 45
5190905600.9335 -4.0059867 -92.685669 -200 45 -200 45 -200 45
5191905717.6196 -4.0114341 -92.899277 -200 45 -200 45 -200 45
5192905834.3057 -4.0218954 -93.145706 -200 45 -200 45 -200 45
5193905950.9918 -4.0283546 -93.367203 -200 45 -200 45 -200 45
5194906067.6779 -4.035646 -93.601631 -200 45 -200 45 -200 45
5195906184.3641 -4.0406604 -93.829437 -200 45 -200 45 -200 45
5196906301.0502 -4.0438519 -94.07309 -200 45 -200 45 -200 45
5197906417.7363 -4.0452294 -94.326645 -200 45 -200 45 -200 45
5198906534.4224 -4.0444884 -94.527367 -200 45 -200 45 -200 45
5199906651.1085 -4.0446649 -94.786324 -200 45 -200 45 -200 45
5200906767.7946 -4.0432563 -95.011116 -200 45 -200 45 -200 45
5201906884.4807 -4.0377827 -95.224037 -200 45 -200 45 -200 45
5202907001.1669 -4.0315866 -95.453026 -200 45 -200 45 -200 45
5203907117.853 -4.0232415 -95.679428 -200 45 -200 45 -200 45
5204907234.5391 -4.0160251 -95.8573 -200 45 -200 45 -200 45
5205907351.2252 -4.004375 -96.078323 -200 45 -200 45 -200 45
5206907467.9113 -3.9925761 -96.239738 -200 45 -200 45 -200 45
5207907584.5974 -3.9767005 -96.433868 -200 45 -200 45 -200 45
5208907701.2835 -3.9604228 -96.582741 -200 45 -200 45 -200 45
5209907817.9697 -3.9462616 -96.723694 -200 45 -200 45 -200 45
5210907934.6558 -3.9330425 -96.855591 -200 45 -200 45 -200 45
5211908051.3419 -3.9161344 -96.971519 -200 45 -200 45 -200 45
5212908168.028 -3.8986177 -97.075798 -200 45 -200 45 -200 45
5213908284.7141 -3.8834124 -97.161858 -200 45 -200 45 -200 45
5214908401.4002 -3.8668346 -97.25296 -200 45 -200 45 -200 45
5215908518.0863 -3.8478131 -97.286903 -200 45 -200 45 -200 45
5216908634.7725 -3.830389 -97.348846 -200 45 -200 45 -200 45
5217908751.4586 -3.8169706 -97.362862 -200 45 -200 45 -200 45
5218908868.1447 -3.7992854 -97.388489 -200 45 -200 45 -200 45
5219908984.8308 -3.7824371 -97.369194 -200 45 -200 45 -200 45
5220909101.5169 -3.7649934 -97.357056 -200 45 -200 45 -200 45
5221909218.203 -3.7474391 -97.320671 -200 45 -200 45 -200 45
5222909334.8891 -3.7298045 -97.287254 -200 45 -200 45 -200 45
5223909451.5753 -3.7143855 -97.217758 -200 45 -200 45 -200 45
5224909568.2614 -3.7019856 -97.120987 -200 45 -200 45 -200 45
5225909684.9475 -3.6906073 -97.042809 -200 45 -200 45 -200 45
5226909801.6336 -3.675159 -96.922577 -200 45 -200 45 -200 45
5227909918.3197 -3.6637456 -96.808884 -200 45 -200 45 -200 45
5228910035.0058 -3.653245 -96.683289 -200 45 -200 45 -200 45
5229910151.6919 -3.6444933 -96.548775 -200 45 -200 45 -200 45
5230910268.3781 -3.6361432 -96.392624 -200 45 -200 45 -200 45
5231910385.0642 -3.6308427 -96.24263 -200 45 -200 45 -200 45
5232910501.7503 -3.6275287 -96.062469 -200 45 -200 45 -200 45
5233910618.4364 -3.6216264 -95.882683 -200 45 -200 45 -200 45
5234910735.1225 -3.6179717 -95.708504 -200 45 -200 45 -200 45
5235910851.8086 -3.6167929 -95.504761 -200 45 -200 45 -200 45
5236910968.4947 -3.6162975 -95.319366 -200 45 -200 45 -200 45
5237911085.1809 -3.613837 -95.115288 -200 45 -200 45 -200 45
5238911201.867 -3.6145477 -94.912819 -200 45 -200 45 -200 45
5239911318.5531 -3.6107764 -94.683075 -200 45 -200 45 -200 45
5240911435.2392 -3.6170402 -94.46244 -200 45 -200 45 -200 45
5241911551.9253 -3.6171153 -94.271225 -200 45 -200 45 -200 45
5242911668.6114 -3.6247826 -94.064171 -200 45 -200 45 -200 45
5243911785.2976 -3.6270549 -93.877907 -200 45 -200 45 -200 45
5244911901.9837 -3.6340334 -93.673477 -200 45 -200 45 -200 45
5245912018.6698 -3.6392803 -93.494545 -200 45 -200 45 -200 45
5246912135.3559 -3.6477239 -93.305832 -200 45 -200 45 -200 45
5247912252.042 -3.6518106 -93.166092 -200 45 -200 45 -200 45
5248912368.7281 -3.6628094 -93.015099 -200 45 -200 45 -200 45
5249912485.4142 -3.6730602 -92.85659 -200 45 -200 45 -200 45
5250912602.1004 -3.6850524 -92.740425 -200 45 -200 45 -200 45
5251912718.7865 -3.6984451 -92.602135 -200 45 -200 45 -200 45
5252912835.4726 -3.7138071 -92.51355 -200 45 -200 45 -200 45
5253912952.1587 -3.7282412 -92.4207 -200 45 -200 45 -200 45
5254913068.8448 -3.741029 -92.337051 -200 45 -200 45 -200 45
5255913185.5309 -3.7600596 -92.29747 -200 45 -200 45 -200 45
5256913302.217 -3.7758348 -92.239189 -200 45 -200 45 -200 45
5257913418.9032 -3.797009 -92.205658 -200 45 -200 45 -200 45
5258913535.5893 -3.8130839 -92.20945 -200 45 -200 45 -200 45
5259913652.2754 -3.8291941 -92.202888 -200 45 -200 45 -200 45
5260913768.9615 -3.8511331 -92.212975 -200 45 -200 45 -200 45
5261913885.6476 -3.8735654 -92.238884 -200 45 -200 45 -200 45
5262914002.3337 -3.8929343 -92.295769 -200 45 -200 45 -200 45
5263914119.0198 -3.912797 -92.350807 -200 45 -200 45 -200 45
5264914235.706 -3.9351337 -92.415688 -200 45 -200 45 -200 45
5265914352.3921 -3.9518797 -92.51606 -200 45 -200 45 -200 45
5266914469.0782 -3.9700253 -92.609146 -200 45 -200 45 -200 45
5267914585.7643 -3.9864593 -92.725136 -200 45 -200 45 -200 45
5268914702.4504 -4.0028272 -92.869858 -200 45 -200 45 -200 45
5269914819.1365 -4.0181704 -93.02478 -200 45 -200 45 -200 45
5270914935.8226 -4.0325642 -93.17347 -200 45 -200 45 -200 45
5271915052.5088 -4.044805 -93.376633 -200 45 -200 45 -200 45
5272915169.1949 -4.0583572 -93.569466 -200 45 -200 45 -200 45
5273915285.881 -4.0732956 -93.767143 -200 45 -200 45 -200 45
5274915402.5671 -4.0822325 -93.967842 -200 45 -200 45 -200 45
5275915519.2532 -4.0897293 -94.191292 -200 45 -200 45 -200 45
5276915635.9393 -4.0989995 -94.395027 -200 45 -200 45 -200 45
5277915752.6254 -4.1061382 -94.631447 -200 45 -200 45 -200 45
5278915869.3116 -4.1128621 -94.891006 -200 45 -200 45 -200 45
5279915985.9977 -4.1171937 -95.130516 -200 45 -200 45 -200 45
5280916102.6838 -4.1183271 -95.36676 -200 45 -200 45 -200 45
5281916219.3699 -4.1147313 -95.610054 -200 45 -200 45 -200 45
5282916336.056 -4.1135764 -95.844818 -200 45 -200 45 -200 45
5283916452.7421 -4.114562 -96.082558 -200 45 -200 45 -200 45
5284916569.4282 -4.1079655 -96.330894 -200 45 -200 45 -200 45
5285916686.1144 -4.0966358 -96.555817 -200 45 -200 45 -200 45
5286916802.8005 -4.0901389 -96.787781 -200 45 -200 45 -200 45
5287916919.4866 -4.0827279 -96.989685 -200 45 -200 45 -200 45
5288917036.1727 -4.073525 -97.212646 -200 45 -200 45 -200 45
5289917152.8588 -4.0580993 -97.390739 -200 45 -200 45 -200 45
5290917269.5449 -4.0461559 -97.569893 -200 45 -200 45 -200 45
5291917386.231 -4.0323291 -97.738564 -200 45 -200 45 -200 45
5292917502.9172 -4.014348 -97.902451 -200 45 -200 45 -200 45
5293917619.6033 -4.0008111 -98.062401 -200 45 -200 45 -200 45
5294917736.2894 -3.9828753 -98.174126 -200 45 -200 45 -200 45
5295917852.9755 -3.9643843 -98.300514 -200 45 -200 45 -200 45
5296917969.6616 -3.9443414 -98.411179 -200 45 -200 45 -200 45
5297918086.3477 -3.9255466 -98.49511 -200 45 -200 45 -200 45
5298918203.0338 -3.9031775 -98.575829 -200 45 -200 45 -200 45
5299918319.72 -3.8869488 -98.639015 -200 45 -200 45 -200 45
5300918436.4061 -3.8654332 -98.677017 -200 45 -200 45 -200 45
5301918553.0922 -3.8415484 -98.713058 -200 45 -200 45 -200 45
5302918669.7783 -3.8216012 -98.723633 -200 45 -200 45 -200 45
5303918786.4644 -3.8046217 -98.732513 -200 45 -200 45 -200 45
5304918903.1505 -3.7833717 -98.708145 -200 45 -200 45 -200 45
5305919019.8366 -3.7659943 -98.681999 -200 45 -200 45 -200 45
5306919136.5228 -3.7459714 -98.618927 -200 45 -200 45 -200 45
5307919253.2089 -3.7293289 -98.569038 -200 45 -200 45 -200 45
5308919369.895 -3.7145374 -98.499878 -200 45 -200 45 -200 45
5309919486.5811 -3.6996958 -98.408127 -200 45 -200 45 -200 45
5310919603.2672 -3.6854448 -98.327103 -200 45 -200 45 -200 45
5311919719.9533 -3.6710999 -98.194397 -200 45 -200 45 -200 45
5312919836.6394 -3.6552947 -98.082565 -200 45 -200 45 -200 45
5313919953.3256 -3.6455965 -97.93721 -200 45 -200 45 -200 45
5314920070.0117 -3.6347504 -97.778595 -200 45 -200 45 -200 45
5315920186.6978 -3.6238935 -97.636284 -200 45 -200 45 -200 45
5316920303.3839 -3.6149051 -97.474403 -200 45 -200 45 -200 45
5317920420.07 -3.6089528 -97.330276 -200 45 -200 45 -200 45
5318920536.7561 -3.6023595 -97.164848 -200 45 -200 45 -200 45
5319920653.4422 -3.5974689 -96.979378 -200 45 -200 45 -200 45
5320920770.1284 -3.5964336 -96.800293 -200 45 -200 45 -200 45
5321920886.8145 -3.5929024 -96.598106 -200 45 -200 45 -200 45
5322921003.5006 -3.5956852 -96.451607 -200 45 -200 45 -200 45
5323921120.1867 -3.593668 -96.255569 -200 45 -200 45 -200 45
5324921236.8728 -3.5980613 -96.062958 -200 45 -200 45 -200 45
5325921353.5589 -3.6055033 -95.862289 -200 45 -200 45 -200 45
5326921470.245 -3.6092536 -95.704323 -200 45 -200 45 -200 45
5327921586.9312 -3.6160648 -95.528259 -200 45 -200 45 -200 45
5328921703.6173 -3.6243269 -95.349838 -200 45 -200 45 -200 45
5329921820.3034 -3.6335325 -95.178207 -200 45 -200 45 -200 45
5330921936.9895 -3.6430027 -95.027878 -200 45 -200 45 -200 45
5331922053.6756 -3.657908 -94.865685 -200 45 -200 45 -200 45
5332922170.3617 -3.6680746 -94.729904 -200 45 -200 45 -200 45
5333922287.0478 -3.6794538 -94.585983 -200 45 -200 45 -200 45
5334922403.734 -3.6967611 -94.452431 -200 45 -200 45 -200 45
5335922520.4201 -3.7144775 -94.331406 -200 45 -200 45 -200 45
5336922637.1062 -3.7298665 -94.246094 -200 45 -200 45 -200 45
5337922753.7923 -3.7496181 -94.146248 -200 45 -200 45 -200 45
5338922870.4784 -3.7686625 -94.061508 -200 45 -200 45 -200 45
5339922987.1645 -3.79 -94.01873 -200 45 -200 45 -200 45
5340923103.8506 -3.8112397 -93.944168 -200 45 -200 45 -200 45
5341923220.5368 -3.8316069 -93.896568 -200 45 -200 45 -200 45
5342923337.2229 -3.8543649 -93.870796 -200 45 -200 45 -200 45
5343923453.909 -3.8761575 -93.876572 -200 45 -200 45 -200 45
5344923570.5951 -3.8978198 -93.871498 -200 45 -200 45 -200 45
5345923687.2812 -3.9190857 -93.906113 -200 45 -200 45 -200 45
5346923803.9673 -3.9412982 -93.962234 -200 45 -200 45 -200 45
5347923920.6534 -3.9636199 -94.009544 -200 45 -200 45 -200 45
5348924037.3396 -3.9824162 -94.070206 -200 45 -200 45 -200 45
5349924154.0257 -4.0033975 -94.170235 -200 45 -200 45 -200 45
5350924270.7118 -4.0217652 -94.27623 -200 45 -200 45 -200 45
5351924387.3979 -4.0452294 -94.377533 -200 45 -200 45 -200 45
5352924504.084 -4.0622058 -94.521233 -200 45 -200 45 -200 45
5353924620.7701 -4.0817518 -94.679291 -200 45 -200 45 -200 45
5354924737.4562 -4.0995159 -94.837334 -200 45 -200 45 -200 45
5355924854.1424 -4.1176386 -94.996277 -200 45 -200 45 -200 45
5356924970.8285 -4.1306763 -95.194122 -200 45 -200 45 -200 45
5357925087.5146 -4.1497426 -95.395332 -200 45 -200 45 -200 45
5358925204.2007 -4.1608195 -95.578865 -200 45 -200 45 -200 45
5359925320.8868 -4.1687241 -95.806282 -200 45 -200 45 -200 45
5360925437.5729 -4.1758862 -96.028694 -200 45 -200 45 -200 45
5361925554.259 -4.1868291 -96.252258 -200 45 -200 45 -200 45
5362925670.9452 -4.1929102 -96.497459 -200 45 -200 45 -200 45
5363925787.6313 -4.1979351 -96.733612 -200 45 -200 45 -200 45
5364925904.3174 -4.1956267 -96.959251 -200 45 -200 45 -200 45
5365926021.0035 -4.1979151 -97.212448 -200 45 -200 45 -200 45
5366926137.6896 -4.19871 -97.436516 -200 45 -200 45 -200 45
5367926254.3757 -4.1954508 -97.674911 -200 45 -200 45 -200 45
5368926371.0618 -4.1859369 -97.907196 -200 45 -200 45 -200 45
5369926487.748 -4.1826706 -98.119873 -200 45 -200 45 -200 45
5370926604.4341 -4.1779518 -98.341347 -200 45 -200 45 -200 45
5371926721.1202 -4.1675229 -98.55381 -200 45 -200 45 -200 45
5372926837.8063 -4.1586504 -98.747452 -200 45 -200 45 -200 45
5373926954.4924 -4.1492438 -98.941338 -200 45 -200 45 -200 45
5374927071.1785 -4.133831 -99.128998 -200 45 -200 45 -200 45
5375927187.8646 -4.1225305 -99.336983 -200 45 -200 45 -200 45
5376927304.5508 -4.1084347 -99.462814 -200 45 -200 45 -200 45
5377927421.2369 -4.0885305 -99.611305 -200 45 -200 45 -200 45
5378927537.923 -4.0725307 -99.728722 -200 45 -200 45 -200 45
5379927654.6091 -4.0530572 -99.868225 -200 45 -200 45 -200 45
5380927771.2952 -4.029953 -99.971283 -200 45 -200 45 -200 45
5381927887.9813 -4.0120354 -100.04178 -200 45 -200 45 -200 45
5382928004.6674 -3.9923756 -100.12821 -200 45 -200 45 -200 45
5383928121.3536 -3.9738259 -100.18885 -200 45 -200 45 -200 45
5384928238.0397 -3.9536285 -100.21339 -200 45 -200 45 -200 45
5385928354.7258 -3.9349394 -100.23654 -200 45 -200 45 -200 45
5386928471.4119 -3.9163105 -100.24088 -200 45 -200 45 -200 45
5387928588.098 -3.8951292 -100.24673 -200 45 -200 45 -200 45
5388928704.7841 -3.8760667 -100.20337 -200 45 -200 45 -200 45
5389928821.4702 -3.8593092 -100.18198 -200 45 -200 45 -200 45
5390928938.1564 -3.8383961 -100.1347 -200 45 -200 45 -200 45
5391929054.8425 -3.8223896 -100.05788 -200 45 -200 45 -200 45
5392929171.5286 -3.8081129 -99.988312 -200 45 -200 45 -200 45
5393929288.2147 -3.7908871 -99.87735 -200 45 -200 45 -200 45
5394929404.9008 -3.7758462 -99.796242 -200 45 -200 45 -200 45
5395929521.5869 -3.762711 -99.657143 -200 45 -200 45 -200 45
5396929638.273 -3.7461579 -99.546997 -200 45 -200 45 -200 45
5397929754.9592 -3.7339661 -99.403236 -200 45 -200 45 -200 45
5398929871.6453 -3.7240267 -99.242981 -200 45 -200 45 -200 45
5399929988.3314 -3.7154701 -99.083252 -200 45 -200 45 -200 45
5400930105.0175 -3.7076159 -98.946907 -200 45 -200 45 -200 45
5401930221.7036 -3.7002654 -98.748184 -200 45 -200 45 -200 45
5402930338.3897 -3.6931865 -98.596626 -200 45 -200 45 -200 45
5403930455.0758 -3.6898279 -98.418144 -200 45 -200 45 -200 45
5404930571.762 -3.6863689 -98.234444 -200 45 -200 45 -200 45
5405930688.4481 -3.6882794 -98.047653 -200 45 -200 45 -200 45
5406930805.1342 -3.6863322 -97.858604 -200 45 -200 45 -200 45
5407930921.8203 -3.6876476 -97.664124 -200 45 -200 45 -200 45
5408931038.5064 -3.6886809 -97.479256 -200 45 -200 45 -200 45
5409931155.1925 -3.694509 -97.285973 -200 45 -200 45 -200 45
5410931271.8786 -3.7029297 -97.125763 -200 45 -200 45 -200 45
5411931388.5648 -3.7052884 -96.914146 -200 45 -200 45 -200 45
5412931505.2509 -3.7161112 -96.767044 -200 45 -200 45 -200 45
5413931621.937 -3.7254508 -96.581039 -200 45 -200 45 -200 45
5414931738.6231 -3.7385721 -96.430962 -200 45 -200 45 -200 45
5415931855.3092 -3.7512274 -96.274559 -200 45 -200 45 -200 45
5416931971.9953 -3.7624242 -96.121742 -200 45 -200 45 -200 45
5417932088.6814 -3.7777317 -95.984116 -200 45 -200 45 -200 45
5418932205.3676 -3.7954679 -95.855415 -200 45 -200 45 -200 45
5419932322.0537 -3.8141825 -95.752197 -200 45 -200 45 -200 45
5420932438.7398 -3.8312995 -95.63604 -200 45 -200 45 -200 45
5421932555.4259 -3.8544962 -95.537849 -200 45 -200 45 -200 45
5422932672.112 -3.8732023 -95.469322 -200 45 -200 45 -200 45
5423932788.7981 -3.8944492 -95.382851 -200 45 -200 45 -200 45
5424932905.4842 -3.9117751 -95.340988 -200 45 -200 45 -200 45
5425933022.1704 -3.9357438 -95.308456 -200 45 -200 45 -200 45
5426933138.8565 -3.9579194 -95.293045 -200 45 -200 45 -200 45
5427933255.5426 -3.9760497 -95.291382 -200 45 -200 45 -200 45
5428933372.2287 -3.999737 -95.325584 -200 45 -200 45 -200 45
5429933488.9148 -4.0245047 -95.338501 -200 45 -200 45 -200 45
5430933605.6009 -4.0484738 -95.373657 -200 45 -200 45 -200 45
5431933722.287 -4.0676241 -95.440193 -200 45 -200 45 -200 45
5432933838.9732 -4.0903053 -95.513054 -200 45 -200 45 -200 45
5433933955.6593 -4.1135201 -95.594421 -200 45 -200 45 -200 45
5434934072.3454 -4.1363192 -95.71624 -200 45 -200 45 -200 45
5435934189.0315 -4.1597071 -95.848206 -200 45 -200 45 -200 45
5436934305.7176 -4.1784682 -95.976059 -200 45 -200 45 -200 45
5437934422.4037 -4.1963892 -96.125412 -200 45 -200 45 -200 45
5438934539.0898 -4.2160029 -96.285278 -200 45 -200 45 -200 45
5439934655.776 -4.2318707 -96.487198 -200 45 -200 45 -200 45
5440934772.4621 -4.2502337 -96.660736 -200 45 -200 45 -200 45
5441934889.1482 -4.2632418 -96.857109 -200 45 -200 45 -200 45
5442935005.8343 -4.2775011 -97.062798 -200 45 -200 45 -200 45
5443935122.5204 -4.2860093 -97.279457 -200 45 -200 45 -200 45
5444935239.2065 -4.2933373 -97.505852 -200 45 -200 45 -200 45
5445935355.8926 -4.3047452 -97.71666 -200 45 -200 45 -200 45
5446935472.5788 -4.305758 -97.976006 -200 45 -200 45 -200 45
5447935589.2649 -4.3133993 -98.179207 -200 45 -200 45 -200 45
5448935705.951 -4.3146253 -98.439842 -200 45 -200 45 -200 45
5449935822.6371 -4.3180609 -98.66568 -200 45 -200 45 -200 45
5450935939.3232 -4.3149905 -98.892578 -200 45 -200 45 -200 45
5451936056.0093 -4.3140545 -99.143311 -200 45 -200 45 -200 45
5452936172.6954 -4.3065109 -99.353416 -200 45 -200 45 -200 45
5453936289.3816 -4.3013992 -99.57679 -200 45 -200 45 -200 45
5454936406.0677 -4.2902284 -99.785904 -200 45 -200 45 -200 45
5455936522.7538 -4.2817483 -99.991142 -200 45 -200 45 -200 45
5456936639.4399 -4.2673531 -100.18726 -200 45 -200 45 -200 45
5457936756.126 -4.2562947 -100.37672 -200 45 -200 45 -200 45
5458936872.8121 -4.2391648 -100.55914 -200 45 -200 45 -200 45
5459936989.4983 -4.2197862 -100.73286 -200 45 -200 45 -200 45
5460937106.1844 -4.2051635 -100.8649 -200 45 -200 45 -200 45
5461937222.8705 -4.1843519 -101.02679 -200 45 -200 45 -200 45
5462937339.5566 -4.1632605 -101.15582 -200 45 -200 45 -200 45
5463937456.2427 -4.145299 -101.25395 -200 45 -200 45 -200 45
5464937572.9288 -4.1256614 -101.35919 -200 45 -200 45 -200 45
5465937689.6149 -4.1031208 -101.4451 -200 45 -200 45 -200 45
5466937806.3011 -4.0861249 -101.51615 -200 45 -200 45 -200 45
5467937922.9872 -4.0603867 -101.57047 -200 45 -200 45 -200 45
5468938039.6733 -4.0405455 -101.62116 -200 45 -200 45 -200 45
5469938156.3594 -4.0154953 -101.64429 -200 45 -200 45 -200 45
5470938273.0455 -3.9941444 -101.6413 -200 45 -200 45 -200 45
5471938389.7316 -3.9778297 -101.64837 -200 45 -200 45 -200 45
5472938506.4177 -3.9549971 -101.61596 -200 45 -200 45 -200 45
5473938623.1039 -3.9352784 -101.56737 -200 45 -200 45 -200 45
5474938739.79 -3.9093814 -101.5306 -200 45 -200 45 -200 45
5475938856.4761 -3.8925424 -101.43686 -200 45 -200 45 -200 45
5476938973.1622 -3.8751659 -101.36956 -200 45 -200 45 -200 45
5477939089.8483 -3.8585422 -101.28506 -200 45 -200 45 -200 45
5478939206.5344 -3.8389671 -101.15965 -200 45 -200 45 -200 45
5479939323.2205 -3.8255656 -101.0396 -200 45 -200 45 -200 45
5480939439.9067 -3.8156579 -100.89977 -200 45 -200 45 -200 45
5481939556.5928 -3.7982588 -100.75748 -200 45 -200 45 -200 45
5482939673.2789 -3.7900572 -100.5955 -200 45 -200 45 -200 45
5483939789.965 -3.7805316 -100.42918 -200 45 -200 45 -200 45
5484939906.6511 -3.7687519 -100.27769 -200 45 -200 45 -200 45
5485940023.3372 -3.7618372 -100.09524 -200 45 -200 45 -200 45
5486940140.0233 -3.7589946 -99.928551 -200 45 -200 45 -200 45
5487940256.7095 -3.750942 -99.740623 -200 45 -200 45 -200 45
5488940373.3956 -3.7447064 -99.553627 -200 45 -200 45 -200 45
5489940490.0817 -3.7436004 -99.355316 -200 45 -200 45 -200 45
5490940606.7678 -3.7437491 -99.179832 -200 45 -200 45 -200 45
5491940723.4539 -3.7451439 -99.014885 -200 45 -200 45 -200 45
5492940840.14 -3.7449508 -98.807175 -200 45 -200 45 -200 45
5493940956.8261 -3.7489135 -98.611366 -200 45 -200 45 -200 45
5494941073.5123 -3.756712 -98.431313 -200 45 -200 45 -200 45
5495941190.1984 -3.7608171 -98.237572 -200 45 -200 45 -200 45
5496941306.8845 -3.7705116 -98.039886 -200 45 -200 45 -200 45
5497941423.5706 -3.7796836 -97.895454 -200 45 -200 45 -200 45
5498941540.2567 -3.7919364 -97.70163 -200 45 -200 45 -200 45
5499941656.9428 -3.808244 -97.549377 -200 45 -200 45 -200 45
5500941773.6289 -3.8200378 -97.40213 -200 45 -200 45 -200 45
5501941890.3151 -3.8362563 -97.243309 -200 45 -200 45 -200 45
5502942007.0012 -3.8538334 -97.128555 -200 45 -200 45 -200 45
5503942123.6873 -3.8728907 -97.006218 -200 45 -200 45 -200 45
5504942240.3734 -3.8908312 -96.892593 -200 45 -200 45 -200 45
5505942357.0595 -3.9081357 -96.793228 -200 45 -200 45 -200 45
5506942473.7456 -3.9259539 -96.717041 -200 45 -200 45 -200 45
5507942590.4317 -3.9430072 -96.649208 -200 45 -200 45 -200 45
5508942707.1179 -3.9694302 -96.588593 -200 45 -200 45 -200 45
5509942823.804 -3.9935567 -96.558525 -200 45 -200 45 -200 45
5510942940.4901 -4.0139828 -96.523384 -200 45 -200 45 -200 45
5511943057.1762 -4.0398469 -96.535294 -200 45 -200 45 -200 45
5512943173.8623 -4.0657091 -96.535469 -200 45 -200 45 -200 45
5513943290.5484 -4.0857477 -96.524712 -200 45 -200 45 -200 45
5514943407.2345 -4.1111989 -96.584053 -200 45 -200 45 -200 45
5515943523.9207 -4.1339827 -96.617935 -200 45 -200 45 -200 45
5516943640.6068 -4.1596351 -96.714035 -200 45 -200 45 -200 45
5517943757.2929 -4.1815786 -96.779243 -200 45 -200 45 -200 45
5518943873.979 -4.2049179 -96.919121 -200 45 -200 45 -200 45
5519943990.6651 -4.2264757 -97.025848 -200 45 -200 45 -200 45
5520944107.3512 -4.2478666 -97.160553 -200 45 -200 45 -200 45
5521944224.0373 -4.269352 -97.313766 -200 45 -200 45 -200 45
5522944340.7235 -4.2869158 -97.474594 -200 45 -200 45 -200 45
5523944457.4096 -4.3021979 -97.654411 -200 45 -200 45 -200 45
5524944574.0957 -4.3261566 -97.86219 -200 45 -200 45 -200 45
5525944690.7818 -4.3342857 -98.057137 -200 45 -200 45 -200 45
5526944807.4679 -4.3476105 -98.248016 -200 45 -200 45 -200 45
5527944924.154 -4.3647733 -98.489891 -200 45 -200 45 -200 45
5528945040.8401 -4.374002 -98.728767 -200 45 -200 45 -200 45
5529945157.5263 -4.3841929 -98.948959 -200 45 -200 45 -200 45
5530945274.2124 -4.3915515 -99.175484 -200 45 -200 45 -200 45
5531945390.8985 -4.3994608 -99.436501 -200 45 -200 45 -200 45
5532945507.5846 -4.399014 -99.674103 -200 45 -200 45 -200 45
5533945624.2707 -4.4031401 -99.941154 -200 45 -200 45 -200 45
5534945740.9568 -4.401722 -100.16994 -200 45 -200 45 -200 45
5535945857.6429 -4.3996472 -100.42616 -200 45 -200 45 -200 45
5536945974.3291 -4.3934832 -100.643 -200 45 -200 45 -200 45
5537946091.0152 -4.3884454 -100.91745 -200 45 -200 45 -200 45
5538946207.7013 -4.3798051 -101.13403 -200 45 -200 45 -200 45
5539946324.3874 -4.3714805 -101.34968 -200 45 -200 45 -200 45
5540946441.0735 -4.3612089 -101.57536 -200 45 -200 45 -200 45
5541946557.7596 -4.353044 -101.79045 -200 45 -200 45 -200 45
5542946674.4457 -4.3376465 -101.9887 -200 45 -200 45 -200 45
5543946791.1319 -4.3212519 -102.16102 -200 45 -200 45 -200 45
5544946907.818 -4.3072405 -102.30961 -200 45 -200 45 -200 45
5545947024.5041 -4.2922788 -102.49287 -200 45 -200 45 -200 45
5546947141.1902 -4.2766705 -102.63742 -200 45 -200 45 -200 45
5547947257.8763 -4.2578073 -102.76209 -200 45 -200 45 -200 45
5548947374.5624 -4.2367449 -102.87907 -200 45 -200 45 -200 45
5549947491.2485 -4.2178712 -102.96101 -200 45 -200 45 -200 45
5550947607.9347 -4.19767 -103.06046 -200 45 -200 45 -200 45
5551947724.6208 -4.1781435 -103.12235 -200 45 -200 45 -200 45
5552947841.3069 -4.1555586 -103.16942 -200 45 -200 45 -200 45
5553947957.993 -4.1321983 -103.2274 -200 45 -200 45 -200 45
5554948074.6791 -4.1132193 -103.23092 -200 45 -200 45 -200 45
5555948191.3652 -4.0935917 -103.21403 -200 45 -200 45 -200 45
5556948308.0513 -4.0755076 -103.20928 -200 45 -200 45 -200 45
5557948424.7375 -4.0571933 -103.17479 -200 45 -200 45 -200 45
5558948541.4236 -4.0356507 -103.13512 -200 45 -200 45 -200 45
5559948658.1097 -4.0170555 -103.0621 -200 45 -200 45 -200 45
5560948774.7958 -4.0055556 -102.99792 -200 45 -200 45 -200 45
5561948891.4819 -3.9896588 -102.89352 -200 45 -200 45 -200 45
5562949008.168 -3.971792 -102.80645 -200 45 -200 45 -200 45
5563949124.8541 -3.958487 -102.68256 -200 45 -200 45 -200 45
5564949241.5403 -3.9481416 -102.55555 -200 45 -200 45 -200 45
5565949358.2264 -3.9329808 -102.42737 -200 45 -200 45 -200 45
5566949474.9125 -3.9244132 -102.27334 -200 45 -200 45 -200 45
5567949591.5986 -3.9143744 -102.11726 -200 45 -200 45 -200 45
5568949708.2847 -3.9072068 -101.97013 -200 45 -200 45 -200 45
5569949824.9708 -3.8981583 -101.78103 -200 45 -200 45 -200 45
5570949941.6569 -3.8939123 -101.60165 -200 45 -200 45 -200 45
5571950058.3431 -3.8871992 -101.43558 -200 45 -200 45 -200 45
5572950175.0292 -3.8880444 -101.24895 -200 45 -200 45 -200 45
5573950291.7153 -3.8891199 -101.06792 -200 45 -200 45 -200 45
5574950408.4014 -3.8888493 -100.87113 -200 45 -200 45 -200 45
5575950525.0875 -3.8930006 -100.67424 -200 45 -200 45 -200 45
5576950641.7736 -3.8975163 -100.4773 -200 45 -200 45 -200 45
5577950758.4597 -3.9052129 -100.27749 -200 45 -200 45 -200 45
5578950875.1459 -3.9118626 -100.08629 -200 45 -200 45 -200 45
5579950991.832 -3.9174855 -99.897865 -200 45 -200 45 -200 45
5580951108.5181 -3.9326415 -99.712585 -200 45 -200 45 -200 45
5581951225.2042 -3.9426718 -99.543533 -200 45 -200 45 -200 45
5582951341.8903 -3.9568202 -99.366844 -200 45 -200 45 -200 45
5583951458.5764 -3.9724081 -99.184364 -200 45 -200 45 -200 45
5584951575.2625 -3.9848888 -99.052132 -200 45 -200 45 -200 45
5585951691.9487 -4.0051055 -98.925316 -200 45 -200 45 -200 45
5586951808.6348 -4.0225673 -98.781281 -200 45 -200 45 -200 45
5587951925.3209 -4.0418057 -98.66053 -200 45 -200 45 -200 45
5588952042.007 -4.0615282 -98.55278 -200 45 -200 45 -200 45
5589952158.6931 -4.0865836 -98.430779 -200 45 -200 45 -200 45
5590952275.3792 -4.1104817 -98.356232 -200 45 -200 45 -200 45
5591952392.0653 -4.1356406 -98.282143 -200 45 -200 45 -200 45
5592952508.7515 -4.163703 -98.225044 -200 45 -200 45 -200 45
5593952625.4376 -4.1909237 -98.171638 -200 45 -200 45 -200 45
5594952742.1237 -4.2169833 -98.15863 -200 45 -200 45 -200 45
5595952858.8098 -4.2449503 -98.145195 -200 45 -200 45 -200 45
5596952975.4959 -4.2740126 -98.140083 -200 45 -200 45 -200 45
5597953092.182 -4.3027191 -98.158112 -200 45 -200 45 -200 45
5598953208.8681 -4.3327866 -98.194427 -200 45 -200 45 -200 45
5599953325.5543 -4.3649344 -98.234032 -200 45 -200 45 -200 45
5600953442.2404 -4.3911939 -98.297729 -200 45 -200 45 -200 45
5601953558.9265 -4.4213586 -98.372147 -200 45 -200 45 -200 45
5602953675.6126 -4.4527707 -98.458916 -200 45 -200 45 -200 45
5603953792.2987 -4.4821758 -98.572891 -200 45 -200 45 -200 45
5604953908.9848 -4.5105076 -98.666977 -200 45 -200 45 -200 45
5605954025.6709 -4.5422001 -98.80645 -200 45 -200 45 -200 45
5606954142.3571 -4.5700378 -98.938217 -200 45 -200 45 -200 45
5607954259.0432 -4.5983582 -99.094398 -200 45 -200 45 -200 45
5608954375.7293 -4.6297035 -99.220093 -200 45 -200 45 -200 45
5609954492.4154 -4.6546278 -99.400375 -200 45 -200 45 -200 45
5610954609.1015 -4.6832461 -99.532104 -200 45 -200 45 -200 45
5611954725.7876 -4.7055469 -99.678261 -200 45 -200 45 -200 45
5612954842.4737 -4.7306666 -99.852325 -200 45 -200 45 -200 45
5613954959.1599 -4.7502375 -99.989677 -200 45 -200 45 -200 45
5614955075.846 -4.7690554 -100.11063 -200 45 -200 45 -200 45
5615955192.5321 -4.7827768 -100.23263 -200 45 -200 45 -200 45
5616955309.2182 -4.7982421 -100.3578 -200 45 -200 45 -200 45
5617955425.9043 -4.8028541 -100.45971 -200 45 -200 45 -200 45
5618955542.5904 -4.8142319 -100.57765 -200 45 -200 45 -200 45
5619955659.2765 -4.8139768 -100.66834 -200 45 -200 45 -200 45
5620955775.9627 -4.8128295 -100.7056 -200 45 -200 45 -200 45
5621955892.6488 -4.8073087 -100.78227 -200 45 -200 45 -200 45
5622956009.3349 -4.7930841 -100.83558 -200 45 -200 45 -200 45
5623956126.021 -4.7759304 -100.89754 -200 45 -200 45 -200 45
5624956242.7071 -4.7575121 -100.9507 -200 45 -200 45 -200 45
5625956359.3932 -4.7291217 -100.99651 -200 45 -200 45 -200 45
5626956476.0793 -4.6971326 -101.08556 -200 45 -200 45 -200 45
5627956592.7655 -4.6661444 -101.1476 -200 45 -200 45 -200 45
5628956709.4516 -4.6341429 -101.23997 -200 45 -200 45 -200 45
5629956826.1377 -4.5977602 -101.32276 -200 45 -200 45 -200 45
5630956942.8238 -4.5662565 -101.3875 -200 45 -200 45 -200 45
5631957059.5099 -4.5242071 -101.46871 -200 45 -200 45 -200 45
5632957176.196 -4.4883976 -101.56921 -200 45 -200 45 -200 45
5633957292.8821 -4.4516578 -101.64575 -200 45 -200 45 -200 45
5634957409.5683 -4.417068 -101.68407 -200 45 -200 45 -200 45
5635957526.2544 -4.3803382 -101.72329 -200 45 -200 45 -200 45
5636957642.9405 -4.3487506 -101.75874 -200 45 -200 45 -200 45
5637957759.6266 -4.3167791 -101.79427 -200 45 -200 45 -200 45
5638957876.3127 -4.2860327 -101.78722 -200 45 -200 45 -200 45
5639957992.9988 -4.2532291 -101.78148 -200 45 -200 45 -200 45
5640958109.6849 -4.2227974 -101.74344 -200 45 -200 45 -200 45
5641958226.3711 -4.1920152 -101.70796 -200 45 -200 45 -200 45
5642958343.0572 -4.1621447 -101.64254 -200 45 -200 45 -200 45
5643958459.7433 -4.1319919 -101.56536 -200 45 -200 45 -200 45
5644958576.4294 -4.1015487 -101.47798 -200 45 -200 45 -200 45
5645958693.1155 -4.0760031 -101.39346 -200 45 -200 45 -200 45
5646958809.8016 -4.0497313 -101.26941 -200 45 -200 45 -200 45
5647958926.4877 -4.0192552 -101.16734 -200 45 -200 45 -200 45
5648959043.1739 -3.9939082 -101.05088 -200 45 -200 45 -200 45
5649959159.86 -3.9704792 -100.90689 -200 45 -200 45 -200 45
5650959276.5461 -3.946255 -100.76836 -200 45 -200 45 -200 45
5651959393.2322 -3.9251139 -100.62627 -200 45 -200 45 -200 45
5652959509.9183 -3.9071448 -100.49741 -200 45 -200 45 -200 45
5653959626.6044 -3.8884401 -100.32858 -200 45 -200 45 -200 45
5654959743.2905 -3.8722029 -100.17975 -200 45 -200 45 -200 45
5655959859.9767 -3.8572748 -100.04134 -200 45 -200 45 -200 45
5656959976.6628 -3.8449183 -99.872917 -200 45 -200 45 -200 45
5657960093.3489 -3.8340321 -99.703445 -200 45 -200 45 -200 45
5658960210.035 -3.8282218 -99.551773 -200 45 -200 45 -200 45
5659960326.7211 -3.8191142 -99.377136 -200 45 -200 45 -200 45
5660960443.4072 -3.812372 -99.244713 -200 45 -200 45 -200 45
5661960560.0933 -3.8085017 -99.102493 -200 45 -200 45 -200 45
5662960676.7795 -3.8073523 -98.923889 -200 45 -200 45 -200 45
5663960793.4656 -3.8126585 -98.768974 -200 45 -200 45 -200 45
5664960910.1517 -3.8109095 -98.641701 -200 45 -200 45 -200 45
5665961026.8378 -3.8189709 -98.512192 -200 45 -200 45 -200 45
5666961143.5239 -3.8239932 -98.366928 -200 45 -200 45 -200 45
5667961260.21 -3.8331034 -98.227058 -200 45 -200 45 -200 45
5668961376.8961 -3.8418505 -98.102203 -200 45 -200 45 -200 45
5669961493.5823 -3.8587117 -97.996964 -200 45 -200 45 -200 45
5670961610.2684 -3.866188 -97.85537 -200 45 -200 45 -200 45
5671961726.9545 -3.8807952 -97.754951 -200 45 -200 45 -200 45
5672961843.6406 -3.8963399 -97.679916 -200 45 -200 45 -200 45
5673961960.3267 -3.9114406 -97.59539 -200 45 -200 45 -200 45
5674962077.0128 -3.9257994 -97.532219 -200 45 -200 45 -200 45
5675962193.6989 -3.9427731 -97.480194 -200 45 -200 45 -200 45
5676962310.3851 -3.9630084 -97.453728 -200 45 -200 45 -200 45
5677962427.0712 -3.9792981 -97.416893 -200 45 -200 45 -200 45
5678962543.7573 -3.9966013 -97.431786 -200 45 -200 45 -200 45
5679962660.4434 -4.0160022 -97.442436 -200 45 -200 45 -200 45
5680962777.1295 -4.0350437 -97.471779 -200 45 -200 45 -200 45
5681962893.8156 -4.0540757 -97.527115 -200 45 -200 45 -200 45
5682963010.5018 -4.0743752 -97.581474 -200 45 -200 45 -200 45
5683963127.1879 -4.0952177 -97.654976 -200 45 -200 45 -200 45
5684963243.874 -4.116982 -97.749046 -200 45 -200 45 -200 45
5685963360.5601 -4.1382613 -97.858177 -200 45 -200 45 -200 45
5686963477.2462 -4.160717 -97.981918 -200 45 -200 45 -200 45
5687963593.9323 -4.1782594 -98.106117 -200 45 -200 45 -200 45
5688963710.6184 -4.1994176 -98.260643 -200 45 -200 45 -200 45
5689963827.3046 -4.212194 -98.44252 -200 45 -200 45 -200 45
5690963943.9907 -4.2308083 -98.633163 -200 45 -200 45 -200 45
5691964060.6768 -4.2469039 -98.832466 -200 45 -200 45 -200 45
5692964177.3629 -4.2590842 -99.035522 -200 45 -200 45 -200 45
5693964294.049 -4.2726359 -99.241341 -200 45 -200 45 -200 45
5694964410.7351 -4.2860909 -99.487442 -200 45 -200 45 -200 45
5695964527.4212 -4.2930946 -99.727615 -200 45 -200 45 -200 45
5696964644.1074 -4.3063202 -99.977142 -200 45 -200 45 -200 45
5697964760.7935 -4.3122892 -100.21634 -200 45 -200 45 -200 45
5698964877.4796 -4.3186789 -100.48175 -200 45 -200 45 -200 45
5699964994.1657 -4.3291578 -100.72828 -200 45 -200 45 -200 45
5700965110.8518 -4.3274431 -100.99543 -200 45 -200 45 -200 45
5701965227.5379 -4.3307238 -101.25529 -200 45 -200 45 -200 45
5702965344.224 -4.3346667 -101.51101 -200 45 -200 45 -200 45
5703965460.9102 -4.3317895 -101.75909 -200 45 -200 45 -200 45
5704965577.5963 -4.3274093 -102.01743 -200 45 -200 45 -200 45
5705965694.2824 -4.3224659 -102.2736 -200 45 -200 45 -200 45
5706965810.9685 -4.3175278 -102.51295 -200 45 -200 45 -200 45
5707965927.6546 -4.3107824 -102.74908 -200 45 -200 45 -200 45
5708966044.3407 -4.2982993 -102.96488 -200 45 -200 45 -200 45
5709966161.0268 -4.2877693 -103.18643 -200 45 -200 45 -200 45
5710966277.713 -4.2707424 -103.38801 -200 45 -200 45 -200 45
5711966394.3991 -4.2575459 -103.59767 -200 45 -200 45 -200 45
5712966511.0852 -4.2409835 -103.77973 -200 45 -200 45 -200 45
5713966627.7713 -4.2280064 -103.93855 -200 45 -200 45 -200 45
5714966744.4574 -4.2087927 -104.07902 -200 45 -200 45 -200 45
5715966861.1435 -4.1911168 -104.20651 -200 45 -200 45 -200 45
5716966977.8296 -4.1759706 -104.32615 -200 45 -200 45 -200 45
5717967094.5158 -4.1564956 -104.42293 -200 45 -200 45 -200 45
5718967211.2019 -4.1394429 -104.49867 -200 45 -200 45 -200 45
5719967327.888 -4.1174355 -104.57951 -200 45 -200 45 -200 45
5720967444.5741 -4.0982871 -104.60342 -200 45 -200 45 -200 45
5721967561.2602 -4.0781083 -104.66481 -200 45 -200 45 -200 45
5722967677.9463 -4.0557737 -104.66597 -200 45 -200 45 -200 45
5723967794.6324 -4.0348835 -104.66386 -200 45 -200 45 -200 45
5724967911.3186 -4.017077 -104.64256 -200 45 -200 45 -200 45
5725968028.0047 -3.9970047 -104.6356 -200 45 -200 45 -200 45
5726968144.6908 -3.9752948 -104.59389 -200 45 -200 45 -200 45
5727968261.3769 -3.9560742 -104.51431 -200 45 -200 45 -200 45
5728968378.063 -3.9378207 -104.45061 -200 45 -200 45 -200 45
5729968494.7491 -3.9193699 -104.35213 -200 45 -200 45 -200 45
5730968611.4352 -3.9031668 -104.27699 -200 45 -200 45 -200 45
5731968728.1214 -3.8897021 -104.16832 -200 45 -200 45 -200 45
5732968844.8075 -3.8757882 -104.05328 -200 45 -200 45 -200 45
5733968961.4936 -3.8659256 -103.91315 -200 45 -200 45 -200 45
5734969078.1797 -3.8539417 -103.75105 -200 45 -200 45 -200 45
5735969194.8658 -3.8438365 -103.60777 -200 45 -200 45 -200 45
5736969311.5519 -3.8346152 -103.45565 -200 45 -200 45 -200 45
5737969428.238 -3.8265812 -103.29709 -200 45 -200 45 -200 45
5738969544.9242 -3.8191617 -103.12329 -200 45 -200 45 -200 45
5739969661.6103 -3.816555 -102.96166 -200 45 -200 45 -200 45
5740969778.2964 -3.8132813 -102.77341 -200 45 -200 45 -200 45
5741969894.9825 -3.8082874 -102.57677 -200 45 -200 45 -200 45
5742970011.6686 -3.8037944 -102.40578 -200 45 -200 45 -200 45
5743970128.3547 -3.810183 -102.18959 -200 45 -200 45 -200 45
5744970245.0408 -3.8103418 -102.02586 -200 45 -200 45 -200 45
5745970361.727 -3.8152065 -101.8071 -200 45 -200 45 -200 45
5746970478.4131 -3.8185186 -101.64586 -200 45 -200 45 -200 45
5747970595.0992 -3.8280783 -101.46703 -200 45 -200 45 -200 45
5748970711.7853 -3.839088 -101.29219 -200 45 -200 45 -200 45
5749970828.4714 -3.8484874 -101.11526 -200 45 -200 45 -200 45
5750970945.1575 -3.8598771 -100.93555 -200 45 -200 45 -200 45
5751971061.8436 -3.8724916 -100.77734 -200 45 -200 45 -200 45
5752971178.5298 -3.8857596 -100.60931 -200 45 -200 45 -200 45
5753971295.2159 -3.898407 -100.48274 -200 45 -200 45 -200 45
5754971411.902 -3.9159517 -100.33002 -200 45 -200 45 -200 45
5755971528.5881 -3.9320025 -100.20335 -200 45 -200 45 -200 45
5756971645.2742 -3.9492474 -100.09116 -200 45 -200 45 -200 45
5757971761.9603 -3.9636602 -100.0022 -200 45 -200 45 -200 45
5758971878.6464 -3.9856803 -99.923515 -200 45 -200 45 -200 45
5759971995.3326 -4.0061355 -99.85463 -200 45 -200 45 -200 45
5760972112.0187 -4.0248728 -99.802391 -200 45 -200 45 -200 45
5761972228.7048 -4.045197 -99.755371 -200 45 -200 45 -200 45
5762972345.3909 -4.0695539 -99.730614 -200 45 -200 45 -200 45
5763972462.077 -4.089716 -99.720352 -200 45 -200 45 -200 45
5764972578.7631 -4.1124635 -99.734879 -200 45 -200 45 -200 45
5765972695.4492 -4.1364341 -99.75959 -200 45 -200 45 -200 45
5766972812.1354 -4.1631184 -99.792938 -200 45 -200 45 -200 45
5767972928.8215 -4.1811814 -99.868858 -200 45 -200 45 -200 45
5768973045.5076 -4.2037416 -99.94841 -200 45 -200 45 -200 45
5769973162.1937 -4.2246313 -100.04765 -200 45 -200 45 -200 45
5770973278.8798 -4.2480555 -100.14179 -200 45 -200 45 -200 45
5771973395.5659 -4.2698941 -100.26642 -200 45 -200 45 -200 45
5772973512.252 -4.2869821 -100.41513 -200 45 -200 45 -200 45
5773973628.9382 -4.30584 -100.5628 -200 45 -200 45 -200 45
5774973745.6243 -4.3227916 -100.74864 -200 45 -200 45 -200 45
5775973862.3104 -4.3399096 -100.90547 -200 45 -200 45 -200 45
5776973978.9965 -4.3539009 -101.10652 -200 45 -200 45 -200 45
5777974095.6826 -4.3712177 -101.31143 -200 45 -200 45 -200 45
5778974212.3687 -4.3799872 -101.52583 -200 45 -200 45 -200 45
5779974329.0548 -4.3965373 -101.73611 -200 45 -200 45 -200 45
5780974445.741 -4.4068637 -101.97404 -200 45 -200 45 -200 45
5781974562.4271 -4.4137411 -102.21177 -200 45 -200 45 -200 45
5782974679.1132 -4.4227834 -102.44866 -200 45 -200 45 -200 45
5783974795.7993 -4.4274855 -102.69899 -200 45 -200 45 -200 45
5784974912.4854 -4.4280024 -102.93218 -200 45 -200 45 -200 45
5785975029.1715 -4.4311028 -103.19409 -200 45 -200 45 -200 45
5786975145.8576 -4.4293041 -103.43673 -200 45 -200 45 -200 45
5787975262.5438 -4.4295564 -103.67028 -200 45 -200 45 -200 45
5788975379.2299 -4.4229174 -103.91917 -200 45 -200 45 -200 45
5789975495.916 -4.4171295 -104.16363 -200 45 -200 45 -200 45
5790975612.6021 -4.4074531 -104.39719 -200 45 -200 45 -200 45
5791975729.2882 -4.399292 -104.61767 -200 45 -200 45 -200 45
5792975845.9743 -4.3870645 -104.83027 -200 45 -200 45 -200 45
5793975962.6604 -4.3746638 -105.05405 -200 45 -200 45 -200 45
5794976079.3466 -4.3613391 -105.24765 -200 45 -200 45 -200 45
5795976196.0327 -4.3486075 -105.40555 -200 45 -200 45 -200 45
5796976312.7188 -4.3325152 -105.59991 -200 45 -200 45 -200 45
5797976429.4049 -4.3194828 -105.7478 -200 45 -200 45 -200 45
5798976546.091 -4.2957768 -105.88045 -200 45 -200 45 -200 45
5799976662.7771 -4.2792602 -106.00918 -200 45 -200 45 -200 45
5800976779.4632 -4.2573428 -106.10233 -200 45 -200 45 -200 45
5801976896.1494 -4.2400408 -106.21264 -200 45 -200 45 -200 45
5802977012.8355 -4.2169271 -106.29622 -200 45 -200 45 -200 45
5803977129.5216 -4.1969609 -106.33419 -200 45 -200 45 -200 45
5804977246.2077 -4.1750412 -106.40141 -200 45 -200 45 -200 45
5805977362.8938 -4.1526232 -106.42506 -200 45 -200 45 -200 45
5806977479.5799 -4.1315637 -106.45304 -200 45 -200 45 -200 45
5807977596.266 -4.1102653 -106.43108 -200 45 -200 45 -200 45
5808977712.9522 -4.0938568 -106.41917 -200 45 -200 45 -200 45
5809977829.6383 -4.0721717 -106.38663 -200 45 -200 45 -200 45
5810977946.3244 -4.0522437 -106.31976 -200 45 -200 45 -200 45
5811978063.0105 -4.0329881 -106.25723 -200 45 -200 45 -200 45
5812978179.6966 -4.0159149 -106.20088 -200 45 -200 45 -200 45
5813978296.3827 -3.9987712 -106.08816 -200 45 -200 45 -200 45
5814978413.0688 -3.9821627 -105.99757 -200 45 -200 45 -200 45
5815978529.755 -3.9654133 -105.87531 -200 45 -200 45 -200 45
5816978646.4411 -3.9540992 -105.75883 -200 45 -200 45 -200 45
5817978763.1272 -3.9390721 -105.60858 -200 45 -200 45 -200 45
5818978879.8133 -3.9270065 -105.46999 -200 45 -200 45 -200 45
5819978996.4994 -3.9146414 -105.31275 -200 45 -200 45 -200 45
5820979113.1855 -3.9059496 -105.1411 -200 45 -200 45 -200 45
5821979229.8716 -3.8976879 -104.96978 -200 45 -200 45 -200 45
5822979346.5578 -3.887785 -104.77956 -200 45 -200 45 -200 45
5823979463.2439 -3.8879035 -104.59921 -200 45 -200 45 -200 45
5824979579.93 -3.883292 -104.39951 -200 45 -200 45 -200 45
5825979696.6161 -3.8799996 -104.20496 -200 45 -200 45 -200 45
5826979813.3022 -3.8812411 -104.01455 -200 45 -200 45 -200 45
5827979929.9883 -3.8803208 -103.81713 -200 45 -200 45 -200 45
5828980046.6744 -3.8885159 -103.64435 -200 45 -200 45 -200 45
5829980163.3606 -3.8909743 -103.44115 -200 45 -200 45 -200 45
5830980280.0467 -3.8951595 -103.24548 -200 45 -200 45 -200 45
5831980396.7328 -3.9031076 -103.06419 -200 45 -200 45 -200 45
5832980513.4189 -3.9119942 -102.87206 -200 45 -200 45 -200 45
5833980630.105 -3.9230249 -102.68796 -200 45 -200 45 -200 45
5834980746.7911 -3.9354978 -102.52457 -200 45 -200 45 -200 45
5835980863.4772 -3.9465058 -102.34753 -200 45 -200 45 -200 45
5836980980.1634 -3.9571712 -102.20442 -200 45 -200 45 -200 45
5837981096.8495 -3.9726264 -102.06887 -200 45 -200 45 -200 45
5838981213.5356 -3.9895906 -101.9333 -200 45 -200 45 -200 45
5839981330.2217 -4.0046635 -101.80499 -200 45 -200 45 -200 45
5840981446.9078 -4.0267577 -101.68097 -200 45 -200 45 -200 45
5841981563.5939 -4.0456042 -101.59251 -200 45 -200 45 -200 45
5842981680.28 -4.0676823 -101.49931 -200 45 -200 45 -200 45
5843981796.9662 -4.0899158 -101.4068 -200 45 -200 45 -200 45
5844981913.6523 -4.1154184 -101.35416 -200 45 -200 45 -200 45
5845982030.3384 -4.1386929 -101.31532 -200 45 -200 45 -200 45
5846982147.0245 -4.1631937 -101.25584 -200 45 -200 45 -200 45
5847982263.7106 -4.1849051 -101.26086 -200 45 -200 45 -200 45
5848982380.3967 -4.2104616 -101.26146 -200 45 -200 45 -200 45
5849982497.0828 -4.2358236 -101.28009 -200 45 -200 45 -200 45
5850982613.769 -4.2600641 -101.31866 -200 45 -200 45 -200 45
5851982730.4551 -4.2795939 -101.36227 -200 45 -200 45 -200 45
5852982847.1412 -4.3053966 -101.43855 -200 45 -200 45 -200 45
5853982963.8273 -4.3291941 -101.50478 -200 45 -200 45 -200 45
5854983080.5134 -4.3544559 -101.63351 -200 45 -200 45 -200 45
5855983197.1995 -4.3756022 -101.7165 -200 45 -200 45 -200 45
5856983313.8856 -4.3976965 -101.84447 -200 45 -200 45 -200 45
5857983430.5718 -4.4191213 -101.99266 -200 45 -200 45 -200 45
5858983547.2579 -4.4414225 -102.14493 -200 45 -200 45 -200 45
5859983663.944 -4.462482 -102.31421 -200 45 -200 45 -200 45
5860983780.6301 -4.4782286 -102.47318 -200 45 -200 45 -200 45
5861983897.3162 -4.4972658 -102.67702 -200 45 -200 45 -200 45
5862984014.0023 -4.5110216 -102.88593 -200 45 -200 45 -200 45
5863984130.6884 -4.5225458 -103.06561 -200 45 -200 45 -200 45
5864984247.3746 -4.5333629 -103.27056 -200 45 -200 45 -200 45
5865984364.0607 -4.5483713 -103.49112 -200 45 -200 45 -200 45
5866984480.7468 -4.5521383 -103.71689 -200 45 -200 45 -200 45
5867984597.4329 -4.5556402 -103.92941 -200 45 -200 45 -200 45
5868984714.119 -4.5593619 -104.16976 -200 45 -200 45 -200 45
5869984830.8051 -4.5590334 -104.3963 -200 45 -200 45 -200 45
5870984947.4912 -4.5558467 -104.62028 -200 45 -200 45 -200 45
5871985064.1774 -4.5559502 -104.84974 -200 45 -200 45 -200 45
5872985180.8635 -4.5479689 -105.06868 -200 45 -200 45 -200 45
5873985297.5496 -4.544054 -105.29108 -200 45 -200 45 -200 45
5874985414.2357 -4.5373726 -105.50809 -200 45 -200 45 -200 45
5875985530.9218 -4.5254931 -105.72103 -200 45 -200 45 -200 45
5876985647.6079 -4.5118856 -105.91904 -200 45 -200 45 -200 45
5877985764.294 -4.497304 -106.08971 -200 45 -200 45 -200 45
5878985880.9802 -4.4795365 -106.31698 -200 45 -200 45 -200 45
5879985997.6663 -4.4654241 -106.49146 -200 45 -200 45 -200 45
5880986114.3524 -4.4445434 -106.64363 -200 45 -200 45 -200 45
5881986231.0385 -4.427134 -106.8079 -200 45 -200 45 -200 45
5882986347.7246 -4.40277 -106.91595 -200 45 -200 45 -200 45
5883986464.4107 -4.3809032 -107.06612 -200 45 -200 45 -200 45
5884986581.0968 -4.3590074 -107.16511 -200 45 -200 45 -200 45
5885986697.783 -4.3368258 -107.26518 -200 45 -200 45 -200 45
5886986814.4691 -4.3114786 -107.32993 -200 45 -200 45 -200 45
5887986931.1552 -4.2889009 -107.39822 -200 45 -200 45 -200 45
5888987047.8413 -4.2671919 -107.42451 -200 45 -200 45 -200 45
5889987164.5274 -4.2437582 -107.44407 -200 45 -200 45 -200 45
5890987281.2135 -4.2191725 -107.46085 -200 45 -200 45 -200 45
5891987397.8997 -4.2012744 -107.45307 -200 45 -200 45 -200 45
5892987514.5858 -4.1786098 -107.42444 -200 45 -200 45 -200 45
5893987631.2719 -4.1556225 -107.40926 -200 45 -200 45 -200 45
5894987747.958 -4.1348758 -107.35019 -200 45 -200 45 -200 45
5895987864.6441 -4.1104441 -107.29747 -200 45 -200 45 -200 45
5896987981.3302 -4.0921445 -107.2077 -200 45 -200 45 -200 45
5897988098.0163 -4.0732417 -107.08848 -200 45 -200 45 -200 45
5898988214.7025 -4.0542917 -107.02441 -200 45 -200 45 -200 45
5899988331.3886 -4.0370569 -106.90078 -200 45 -200 45 -200 45
5900988448.0747 -4.0189252 -106.77538 -200 45 -200 45 -200 45
5901988564.7608 -4.0035353 -106.6364 -200 45 -200 45 -200 45
5902988681.4469 -3.9888012 -106.48528 -200 45 -200 45 -200 45
5903988798.133 -3.9775479 -106.31452 -200 45 -200 45 -200 45
5904988914.8191 -3.9665518 -106.1708 -200 45 -200 45 -200 45
5905989031.5053 -3.959214 -105.98061 -200 45 -200 45 -200 45
5906989148.1914 -3.9512639 -105.81155 -200 45 -200 45 -200 45
5907989264.8775 -3.9456987 -105.62508 -200 45 -200 45 -200 45
5908989381.5636 -3.9455466 -105.44979 -200 45 -200 45 -200 45
5909989498.2497 -3.9405591 -105.25536 -200 45 -200 45 -200 45
5910989614.9358 -3.9382861 -105.0564 -200 45 -200 45 -200 45
5911989731.6219 -3.9382832 -104.88817 -200 45 -200 45 -200 45
5912989848.3081 -3.9383743 -104.68441 -200 45 -200 45 -200 45
5913989964.9942 -3.9436862 -104.49348 -200 45 -200 45 -200 45
5914990081.6803 -3.9445727 -104.2953 -200 45 -200 45 -200 45
5915990198.3664 -3.950877 -104.11572 -200 45 -200 45 -200 45
5916990315.0525 -3.9572778 -103.92136 -200 45 -200 45 -200 45
5917990431.7386 -3.9678557 -103.75272 -200 45 -200 45 -200 45
5918990548.4247 -3.9811471 -103.58935 -200 45 -200 45 -200 45
5919990665.1109 -3.9912844 -103.39984 -200 45 -200 45 -200 45
5920990781.797 -4.0056124 -103.24602 -200 45 -200 45 -200 45
5921990898.4831 -4.0249882 -103.07848 -200 45 -200 45 -200 45
5922991015.1692 -4.0372343 -102.96211 -200 45 -200 45 -200 45
5923991131.8553 -4.0555263 -102.83989 -200 45 -200 45 -200 45
5924991248.5414 -4.0734239 -102.71592 -200 45 -200 45 -200 45
5925991365.2275 -4.0922065 -102.59433 -200 45 -200 45 -200 45
5926991481.9137 -4.1132231 -102.52803 -200 45 -200 45 -200 45
5927991598.5998 -4.1355863 -102.45222 -200 45 -200 45 -200 45
5928991715.2859 -4.1579781 -102.38982 -200 45 -200 45 -200 45
5929991831.972 -4.1785159 -102.33318 -200 45 -200 45 -200 45
5930991948.6581 -4.2012444 -102.30831 -200 45 -200 45 -200 45
5931992065.3442 -4.2201076 -102.28672 -200 45 -200 45 -200 45
5932992182.0303 -4.2465129 -102.31172 -200 45 -200 45 -200 45
5933992298.7165 -4.2700601 -102.31082 -200 45 -200 45 -200 45
5934992415.4026 -4.2912412 -102.3369 -200 45 -200 45 -200 45
5935992532.0887 -4.3171635 -102.40485 -200 45 -200 45 -200 45
5936992648.7748 -4.3405237 -102.45824 -200 45 -200 45 -200 45
5937992765.4609 -4.3644199 -102.54395 -200 45 -200 45 -200 45
5938992882.147 -4.385025 -102.63144 -200 45 -200 45 -200 45
5939992998.8331 -4.4114466 -102.75976 -200 45 -200 45 -200 45
5940993115.5193 -4.4298801 -102.86661 -200 45 -200 45 -200 45
5941993232.2054 -4.4505367 -103.0203 -200 45 -200 45 -200 45
5942993348.8915 -4.4694524 -103.18352 -200 45 -200 45 -200 45
5943993465.5776 -4.488327 -103.37441 -200 45 -200 45 -200 45
5944993582.2637 -4.5046759 -103.53872 -200 45 -200 45 -200 45
5945993698.9498 -4.5169706 -103.75267 -200 45 -200 45 -200 45
5946993815.6359 -4.5298042 -103.95389 -200 45 -200 45 -200 45
5947993932.3221 -4.5417809 -104.17875 -200 45 -200 45 -200 45
5948994049.0082 -4.5524011 -104.4055 -200 45 -200 45 -200 45
5949994165.6943 -4.5609112 -104.65256 -200 45 -200 45 -200 45
5950994282.3804 -4.5660176 -104.87582 -200 45 -200 45 -200 45
5951994399.0665 -4.5706582 -105.10933 -200 45 -200 45 -200 45
5952994515.7526 -4.5769773 -105.34611 -200 45 -200 45 -200 45
5953994632.4387 -4.5773201 -105.59772 -200 45 -200 45 -200 45
5954994749.1249 -4.5799313 -105.83187 -200 45 -200 45 -200 45
5955994865.811 -4.5762429 -106.09436 -200 45 -200 45 -200 45
5956994982.4971 -4.574985 -106.3187 -200 45 -200 45 -200 45
5957995099.1832 -4.5678935 -106.57436 -200 45 -200 45 -200 45
5958995215.8693 -4.5568652 -106.79879 -200 45 -200 45 -200 45
5959995332.5554 -4.546783 -107.03204 -200 45 -200 45 -200 45
5960995449.2415 -4.5378909 -107.23898 -200 45 -200 45 -200 45
5961995565.9277 -4.5216022 -107.44948 -200 45 -200 45 -200 45
5962995682.6138 -4.5058122 -107.63297 -200 45 -200 45 -200 45
5963995799.2999 -4.4898729 -107.83598 -200 45 -200 45 -200 45
5964995915.986 -4.4736938 -107.99445 -200 45 -200 45 -200 45
5965996032.6721 -4.4547901 -108.16764 -200 45 -200 45 -200 45
5966996149.3582 -4.4357166 -108.31173 -200 45 -200 45 -200 45
5967996266.0443 -4.4188085 -108.42905 -200 45 -200 45 -200 45
5968996382.7305 -4.398819 -108.53678 -200 45 -200 45 -200 45
5969996499.4166 -4.3801522 -108.63862 -200 45 -200 45 -200 45
5970996616.1027 -4.3578887 -108.71095 -200 45 -200 45 -200 45
5971996732.7888 -4.3357644 -108.78165 -200 45 -200 45 -200 45
5972996849.4749 -4.3125505 -108.82724 -200 45 -200 45 -200 45
5973996966.161 -4.290493 -108.90031 -200 45 -200 45 -200 45
5974997082.8471 -4.2683268 -108.89637 -200 45 -200 45 -200 45
5975997199.5333 -4.2455602 -108.90173 -200 45 -200 45 -200 45
5976997316.2194 -4.2259212 -108.88401 -200 45 -200 45 -200 45
5977997432.9055 -4.2048678 -108.85012 -200 45 -200 45 -200 45
5978997549.5916 -4.1796098 -108.78632 -200 45 -200 45 -200 45
5979997666.2777 -4.1614261 -108.75102 -200 45 -200 45 -200 45
5980997782.9638 -4.1405792 -108.64677 -200 45 -200 45 -200 45
5981997899.6499 -4.1243958 -108.55681 -200 45 -200 45 -200 45
5982998016.3361 -4.1077557 -108.47016 -200 45 -200 45 -200 45
5983998133.0222 -4.089129 -108.34154 -200 45 -200 45 -200 45
5984998249.7083 -4.0781121 -108.2224 -200 45 -200 45 -200 45
5985998366.3944 -4.0669546 -108.08794 -200 45 -200 45 -200 45
5986998483.0805 -4.0516644 -107.91557 -200 45 -200 45 -200 45
5987998599.7666 -4.0411859 -107.77274 -200 45 -200 45 -200 45
5988998716.4527 -4.029994 -107.59563 -200 45 -200 45 -200 45
5989998833.1389 -4.0204759 -107.40636 -200 45 -200 45 -200 45
5990998949.825 -4.0154343 -107.24644 -200 45 -200 45 -200 45
5991999066.5111 -4.0091524 -107.0279 -200 45 -200 45 -200 45
5992999183.1972 -4.0029483 -106.8583 -200 45 -200 45 -200 45
5993999299.8833 -4.0005155 -106.68118 -200 45 -200 45 -200 45
5994999416.5694 -3.9953148 -106.46029 -200 45 -200 45 -200 45
5995999533.2555 -3.9984486 -106.27197 -200 45 -200 45 -200 45
5996999649.9417 -4.0008888 -106.08572 -200 45 -200 45 -200 45
5997999766.6278 -4.0037661 -105.86799 -200 45 -200 45 -200 45
5998999883.3139 -4.0083642 -105.68373 -200 45 -200 45 -200 45
6000000000 -4.0134602 -105.47716 -200 45 -200 45 -200 45
