!Keysight Technologies,P9374A,MY57304198,A.17.20.09
!Date: Friday, August 16, 2024 16:30:38
!Correction: S11(C  1-Port  ) 
!S21(C  1-Port  ) 
!S12(Off) 
!S22(Off) 
!S2P File: Measurements: S11, S21, S12, S22:
# Hz S  dB   R 50
300000 -0.0005190447 -0.012385581 -200 45 -200 45 -200 45
1300116.6861144 -0.00039503785 -0.034855191 -200 45 -200 45 -200 45
2300233.3722287 0.00065020687 -0.078074344 -200 45 -200 45 -200 45
3300350.0583431 0.0028413497 -0.11052589 -200 45 -200 45 -200 45
4300466.7444574 0.0029510329 -0.15396863 -200 45 -200 45 -200 45
5300583.4305718 0.0014892232 -0.19910724 -200 45 -200 45 -200 45
6300700.1166861 0.00033961062 -0.25812069 -200 45 -200 45 -200 45
7300816.8028005 -0.0036600058 -0.29883531 -200 45 -200 45 -200 45
8300933.4889148 -0.0079330066 -0.32410151 -200 45 -200 45 -200 45
9301050.1750292 -0.0061170184 -0.33623272 -200 45 -200 45 -200 45
10301166.861144 0.0015171705 -0.36178556 -200 45 -200 45 -200 45
11301283.547258 0.0012237162 -0.40247527 -200 45 -200 45 -200 45
12301400.233372 -0.00029795771 -0.43633509 -200 45 -200 45 -200 45
13301516.919487 -0.00090636231 -0.45953509 -200 45 -200 45 -200 45
14301633.605601 -0.0022775268 -0.5034005 -200 45 -200 45 -200 45
15301750.291715 -0.001853054 -0.5238409 -200 45 -200 45 -200 45
16301866.97783 -5.7726094e-005 -0.53466487 -200 45 -200 45 -200 45
17301983.663944 -0.0023163764 -0.59431368 -200 45 -200 45 -200 45
18302100.350058 -0.003175816 -0.63465345 -200 45 -200 45 -200 45
19302217.036173 -0.00038312923 -0.67703778 -200 45 -200 45 -200 45
20302333.722287 -0.00057470653 -0.71774024 -200 45 -200 45 -200 45
21302450.408401 -0.0007033787 -0.75457549 -200 45 -200 45 -200 45
22302567.094516 -0.0036416112 -0.79093564 -200 45 -200 45 -200 45
23302683.78063 -0.0013747625 -0.80623096 -200 45 -200 45 -200 45
24302800.466744 -0.0018139497 -0.86164778 -200 45 -200 45 -200 45
25302917.152859 -0.002578231 -0.89136183 -200 45 -200 45 -200 45
26303033.838973 -0.0044707363 -0.91513193 -200 45 -200 45 -200 45
27303150.525088 -0.0023839753 -0.96476209 -200 45 -200 45 -200 45
28303267.211202 -0.0048052813 -0.98241407 -200 45 -200 45 -200 45
29303383.897316 -0.005034891 -1.0213015 -200 45 -200 45 -200 45
30303500.583431 -0.0039102822 -1.0453391 -200 45 -200 45 -200 45
31303617.269545 -0.0053147925 -1.0358787 -200 45 -200 45 -200 45
32303733.955659 -0.0038219325 -1.0766042 -200 45 -200 45 -200 45
33303850.641774 -0.0055249901 -1.1103055 -200 45 -200 45 -200 45
34303967.327888 -0.0044113966 -1.1824965 -200 45 -200 45 -200 45
35304084.014002 -0.0058054416 -1.223164 -200 45 -200 45 -200 45
36304200.700117 -0.0052360035 -1.2628124 -200 45 -200 45 -200 45
37304317.386231 -0.0049496279 -1.309948 -200 45 -200 45 -200 45
38304434.072345 -0.0071125547 -1.3276589 -200 45 -200 45 -200 45
39304550.75846 -0.0068097217 -1.3929158 -200 45 -200 45 -200 45
40304667.444574 -0.0056198542 -1.4215904 -200 45 -200 45 -200 45
41304784.130688 -0.0096068047 -1.4422745 -200 45 -200 45 -200 45
42304900.816803 -0.0067202756 -1.4800758 -200 45 -200 45 -200 45
43305017.502917 -0.0088233883 -1.4869463 -200 45 -200 45 -200 45
44305134.189032 -0.0069390973 -1.5293212 -200 45 -200 45 -200 45
45305250.875146 -0.0078279786 -1.5559731 -200 45 -200 45 -200 45
46305367.56126 -0.0093354462 -1.5542442 -200 45 -200 45 -200 45
47305484.247375 -0.0090814847 -1.5682461 -200 45 -200 45 -200 45
48305600.933489 -0.0076280418 -1.6085703 -200 45 -200 45 -200 45
49305717.619603 -0.0080338884 -1.6806226 -200 45 -200 45 -200 45
50305834.305718 -0.01057849 -1.7360529 -200 45 -200 45 -200 45
51305950.991832 -0.0097274426 -1.801831 -200 45 -200 45 -200 45
52306067.677946 -0.010343138 -1.8499076 -200 45 -200 45 -200 45
53306184.364061 -0.01132459 -1.872164 -200 45 -200 45 -200 45
54306301.050175 -0.011652656 -1.9137022 -200 45 -200 45 -200 45
55306417.736289 -0.011889637 -1.9583224 -200 45 -200 45 -200 45
56306534.422404 -0.010393736 -2.0206966 -200 45 -200 45 -200 45
57306651.108518 -0.010648553 -2.0396609 -200 45 -200 45 -200 45
58306767.794632 -0.012667635 -2.053714 -200 45 -200 45 -200 45
59306884.480747 -0.011992427 -2.0884037 -200 45 -200 45 -200 45
60307001.166861 -0.011962836 -2.1246946 -200 45 -200 45 -200 45
61307117.852975 -0.014420656 -2.1330442 -200 45 -200 45 -200 45
62307234.53909 -0.013993695 -2.153791 -200 45 -200 45 -200 45
63307351.225204 -0.012912979 -2.1506 -200 45 -200 45 -200 45
64307467.911319 -0.013388908 -2.2038677 -200 45 -200 45 -200 45
65307584.597433 -0.016188415 -2.2731955 -200 45 -200 45 -200 45
66307701.283547 -0.015633201 -2.3488579 -200 45 -200 45 -200 45
67307817.969662 -0.017234862 -2.398751 -200 45 -200 45 -200 45
68307934.655776 -0.018140668 -2.44558 -200 45 -200 45 -200 45
69308051.34189 -0.01622349 -2.4782984 -200 45 -200 45 -200 45
70308168.028005 -0.017586766 -2.5389748 -200 45 -200 45 -200 45
71308284.714119 -0.018200977 -2.5784571 -200 45 -200 45 -200 45
72308401.400233 -0.018120132 -2.6325157 -200 45 -200 45 -200 45
73308518.086348 -0.018649668 -2.6505039 -200 45 -200 45 -200 45
74308634.772462 -0.020293012 -2.677906 -200 45 -200 45 -200 45
75308751.458576 -0.02025114 -2.6974432 -200 45 -200 45 -200 45
76308868.144691 -0.020347107 -2.711962 -200 45 -200 45 -200 45
77308984.830805 -0.021839155 -2.7254436 -200 45 -200 45 -200 45
78309101.516919 -0.019403137 -2.708066 -200 45 -200 45 -200 45
79309218.203034 -0.020174941 -2.7171266 -200 45 -200 45 -200 45
80309334.889148 -0.018210594 -2.7692733 -200 45 -200 45 -200 45
81309451.575263 -0.023242449 -2.8494554 -200 45 -200 45 -200 45
82309568.261377 -0.022653807 -2.9249535 -200 45 -200 45 -200 45
83309684.947491 -0.024219794 -2.9733546 -200 45 -200 45 -200 45
84309801.633606 -0.025482208 -3.0279443 -200 45 -200 45 -200 45
85309918.31972 -0.025085403 -3.0665243 -200 45 -200 45 -200 45
86310035.005834 -0.027087506 -3.1039147 -200 45 -200 45 -200 45
87310151.691949 -0.027144812 -3.1454303 -200 45 -200 45 -200 45
88310268.378063 -0.026812188 -3.1741633 -200 45 -200 45 -200 45
89310385.064177 -0.028929485 -3.2089763 -200 45 -200 45 -200 45
90310501.750292 -0.02736805 -3.2090271 -200 45 -200 45 -200 45
91310618.436406 -0.026338171 -3.2261021 -200 45 -200 45 -200 45
92310735.12252 -0.028346064 -3.2603738 -200 45 -200 45 -200 45
93310851.808635 -0.02876245 -3.2471902 -200 45 -200 45 -200 45
94310968.494749 -0.026131392 -3.2421093 -200 45 -200 45 -200 45
95311085.180863 -0.024606368 -3.2122591 -200 45 -200 45 -200 45
96311201.866978 -0.02655616 -3.2588761 -200 45 -200 45 -200 45
97311318.553092 -0.029603943 -3.3457508 -200 45 -200 45 -200 45
98311435.239207 -0.03086688 -3.4277818 -200 45 -200 45 -200 45
99311551.925321 -0.034606755 -3.4927967 -200 45 -200 45 -200 45
100311668.61144 -0.034641199 -3.5302327 -200 45 -200 45 -200 45
101311785.29755 -0.035752911 -3.5612187 -200 45 -200 45 -200 45
102311901.98366 -0.035718199 -3.6039958 -200 45 -200 45 -200 45
103312018.66978 -0.037527289 -3.6373553 -200 45 -200 45 -200 45
104312135.35589 -0.037248697 -3.6711786 -200 45 -200 45 -200 45
105312252.04201 -0.04011954 -3.6921899 -200 45 -200 45 -200 45
106312368.72812 -0.036625523 -3.7108333 -200 45 -200 45 -200 45
107312485.41424 -0.038533971 -3.7163146 -200 45 -200 45 -200 45
108312602.10035 -0.038860179 -3.7354045 -200 45 -200 45 -200 45
109312718.78646 -0.038250092 -3.7315342 -200 45 -200 45 -200 45
110312835.47258 -0.035644598 -3.7089653 -200 45 -200 45 -200 45
111312952.15869 -0.035082977 -3.6724868 -200 45 -200 45 -200 45
112313068.84481 -0.034843948 -3.7107599 -200 45 -200 45 -200 45
113313185.53092 -0.036470722 -3.7764459 -200 45 -200 45 -200 45
114313302.21704 -0.042236801 -3.8898864 -200 45 -200 45 -200 45
115313418.90315 -0.042860784 -3.9658132 -200 45 -200 45 -200 45
116313535.58926 -0.045089498 -4.0059228 -200 45 -200 45 -200 45
117313652.27538 -0.045764118 -4.041914 -200 45 -200 45 -200 45
118313768.96149 -0.044779558 -4.0777483 -200 45 -200 45 -200 45
119313885.64761 -0.047502026 -4.135035 -200 45 -200 45 -200 45
120314002.33372 -0.050328329 -4.1623607 -200 45 -200 45 -200 45
121314119.01984 -0.050137162 -4.205646 -200 45 -200 45 -200 45
122314235.70595 -0.051462404 -4.2073293 -200 45 -200 45 -200 45
123314352.39207 -0.05338734 -4.2179651 -200 45 -200 45 -200 45
124314469.07818 -0.051037285 -4.2376986 -200 45 -200 45 -200 45
125314585.76429 -0.05054019 -4.2447624 -200 45 -200 45 -200 45
126314702.45041 -0.049994446 -4.2178612 -200 45 -200 45 -200 45
127314819.13652 -0.047202382 -4.1700306 -200 45 -200 45 -200 45
128314935.82264 -0.04657568 -4.2068858 -200 45 -200 45 -200 45
129315052.50875 -0.049476001 -4.2478833 -200 45 -200 45 -200 45
130315169.19487 -0.055877641 -4.4208398 -200 45 -200 45 -200 45
131315285.88098 -0.055159502 -4.5003138 -200 45 -200 45 -200 45
132315402.56709 -0.059360947 -4.5464826 -200 45 -200 45 -200 45
133315519.25321 -0.057607532 -4.5888314 -200 45 -200 45 -200 45
134315635.93932 -0.061854672 -4.6321936 -200 45 -200 45 -200 45
135315752.62544 -0.061176501 -4.673378 -200 45 -200 45 -200 45
136315869.31155 -0.064665638 -4.7235341 -200 45 -200 45 -200 45
137315985.99767 -0.064286515 -4.7710748 -200 45 -200 45 -200 45
138316102.68378 -0.065595321 -4.7847095 -200 45 -200 45 -200 45
139316219.36989 -0.063416213 -4.792376 -200 45 -200 45 -200 45
140316336.05601 -0.062350176 -4.8331242 -200 45 -200 45 -200 45
141316452.74212 -0.061941061 -4.831367 -200 45 -200 45 -200 45
142316569.42824 -0.06371934 -4.8001218 -200 45 -200 45 -200 45
143316686.11435 -0.060361676 -4.7610817 -200 45 -200 45 -200 45
144316802.80047 -0.06013516 -4.768662 -200 45 -200 45 -200 45
145316919.48658 -0.05941448 -4.8383827 -200 45 -200 45 -200 45
146317036.1727 -0.065062657 -4.9744253 -200 45 -200 45 -200 45
147317152.85881 -0.066714726 -5.0808072 -200 45 -200 45 -200 45
148317269.54492 -0.069807671 -5.1666603 -200 45 -200 45 -200 45
149317386.23104 -0.072038941 -5.2252326 -200 45 -200 45 -200 45
150317502.91715 -0.072549559 -5.2630968 -200 45 -200 45 -200 45
151317619.60327 -0.075133309 -5.3135738 -200 45 -200 45 -200 45
152317736.28938 -0.074456215 -5.3556285 -200 45 -200 45 -200 45
153317852.9755 -0.078096516 -5.4169412 -200 45 -200 45 -200 45
154317969.66161 -0.078232251 -5.4321594 -200 45 -200 45 -200 45
155318086.34772 -0.077863544 -5.441752 -200 45 -200 45 -200 45
156318203.03384 -0.077331215 -5.4452558 -200 45 -200 45 -200 45
157318319.71995 -0.07542593 -5.4621649 -200 45 -200 45 -200 45
158318436.40607 -0.073854536 -5.435215 -200 45 -200 45 -200 45
159318553.09218 -0.068370581 -5.3784871 -200 45 -200 45 -200 45
160318669.7783 -0.067789987 -5.3813171 -200 45 -200 45 -200 45
161318786.46441 -0.067546517 -5.4380045 -200 45 -200 45 -200 45
162318903.15053 -0.076858506 -5.5851493 -200 45 -200 45 -200 45
163319019.83664 -0.084566385 -5.6888289 -200 45 -200 45 -200 45
164319136.52275 -0.085280687 -5.7480569 -200 45 -200 45 -200 45
165319253.20887 -0.087660447 -5.8037047 -200 45 -200 45 -200 45
166319369.89498 -0.08567854 -5.8236594 -200 45 -200 45 -200 45
167319486.5811 -0.089531474 -5.873703 -200 45 -200 45 -200 45
168319603.26721 -0.089751601 -5.9320564 -200 45 -200 45 -200 45
169319719.95333 -0.092257023 -5.9644928 -200 45 -200 45 -200 45
170319836.63944 -0.090654418 -5.9887004 -200 45 -200 45 -200 45
171319953.32555 -0.089517199 -5.9837036 -200 45 -200 45 -200 45
172320070.01167 -0.089126393 -5.9788175 -200 45 -200 45 -200 45
173320186.69778 -0.087712213 -6.0004635 -200 45 -200 45 -200 45
174320303.3839 -0.087048218 -5.9519958 -200 45 -200 45 -200 45
175320420.07001 -0.081552595 -5.9101367 -200 45 -200 45 -200 45
176320536.75613 -0.077774726 -5.8442025 -200 45 -200 45 -200 45
177320653.44224 -0.082408071 -5.8986554 -200 45 -200 45 -200 45
178320770.12835 -0.087403186 -6.0271196 -200 45 -200 45 -200 45
179320886.81447 -0.093825564 -6.1511726 -200 45 -200 45 -200 45
180321003.50058 -0.097329661 -6.2216277 -200 45 -200 45 -200 45
181321120.1867 -0.098628342 -6.2595315 -200 45 -200 45 -200 45
182321236.87281 -0.098119415 -6.2954898 -200 45 -200 45 -200 45
183321353.55893 -0.10207907 -6.3192096 -200 45 -200 45 -200 45
184321470.24504 -0.10227439 -6.3695631 -200 45 -200 45 -200 45
185321586.93116 -0.10536174 -6.4046073 -200 45 -200 45 -200 45
186321703.61727 -0.10677318 -6.4075618 -200 45 -200 45 -200 45
187321820.30338 -0.10623598 -6.4138036 -200 45 -200 45 -200 45
188321936.9895 -0.10656917 -6.4091868 -200 45 -200 45 -200 45
189322053.67561 -0.10623359 -6.41185 -200 45 -200 45 -200 45
190322170.36173 -0.1007685 -6.3821931 -200 45 -200 45 -200 45
191322287.04784 -0.096441068 -6.3369393 -200 45 -200 45 -200 45
192322403.73396 -0.093000099 -6.2552519 -200 45 -200 45 -200 45
193322520.42007 -0.094235055 -6.2851086 -200 45 -200 45 -200 45
194322637.10618 -0.097653434 -6.359715 -200 45 -200 45 -200 45
195322753.7923 -0.10809273 -6.5388536 -200 45 -200 45 -200 45
196322870.47841 -0.11295436 -6.6197133 -200 45 -200 45 -200 45
197322987.16453 -0.11743631 -6.6671605 -200 45 -200 45 -200 45
198323103.85064 -0.11764216 -6.6980033 -200 45 -200 45 -200 45
199323220.53676 -0.11963632 -6.7223611 -200 45 -200 45 -200 45
200323337.22287 -0.12057039 -6.7622085 -200 45 -200 45 -200 45
201323453.90898 -0.12388466 -6.8217454 -200 45 -200 45 -200 45
202323570.5951 -0.12555046 -6.8504419 -200 45 -200 45 -200 45
203323687.28121 -0.12468191 -6.8346429 -200 45 -200 45 -200 45
204323803.96733 -0.12124512 -6.8387523 -200 45 -200 45 -200 45
205323920.65344 -0.12218887 -6.8385882 -200 45 -200 45 -200 45
206324037.33956 -0.12115462 -6.835535 -200 45 -200 45 -200 45
207324154.02567 -0.11535811 -6.795002 -200 45 -200 45 -200 45
208324270.71179 -0.10714303 -6.7019453 -200 45 -200 45 -200 45
209324387.3979 -0.10781276 -6.7212582 -200 45 -200 45 -200 45
210324504.08401 -0.10962984 -6.7882733 -200 45 -200 45 -200 45
211324620.77013 -0.12527256 -6.9888291 -200 45 -200 45 -200 45
212324737.45624 -0.12968831 -7.117075 -200 45 -200 45 -200 45
213324854.14236 -0.13519074 -7.1558008 -200 45 -200 45 -200 45
214324970.82847 -0.13601331 -7.2105103 -200 45 -200 45 -200 45
215325087.51459 -0.13900501 -7.2476273 -200 45 -200 45 -200 45
216325204.2007 -0.14087369 -7.3130512 -200 45 -200 45 -200 45
217325320.88681 -0.14162299 -7.3650117 -200 45 -200 45 -200 45
218325437.57293 -0.1431862 -7.4175282 -200 45 -200 45 -200 45
219325554.25904 -0.1427718 -7.4195414 -200 45 -200 45 -200 45
220325670.94516 -0.14226596 -7.4251671 -200 45 -200 45 -200 45
221325787.63127 -0.1412994 -7.4409466 -200 45 -200 45 -200 45
222325904.31739 -0.13882567 -7.4356165 -200 45 -200 45 -200 45
223326021.0035 -0.1366218 -7.388967 -200 45 -200 45 -200 45
224326137.68961 -0.12969364 -7.3297858 -200 45 -200 45 -200 45
225326254.37573 -0.12496457 -7.3163953 -200 45 -200 45 -200 45
226326371.06184 -0.12602611 -7.3821778 -200 45 -200 45 -200 45
227326487.74796 -0.14042556 -7.5621891 -200 45 -200 45 -200 45
228326604.43407 -0.14756502 -7.7171698 -200 45 -200 45 -200 45
229326721.12019 -0.15240806 -7.7994065 -200 45 -200 45 -200 45
230326837.8063 -0.15561604 -7.8496251 -200 45 -200 45 -200 45
231326954.49242 -0.15562786 -7.9055352 -200 45 -200 45 -200 45
232327071.17853 -0.15777643 -7.9556193 -200 45 -200 45 -200 45
233327187.86464 -0.16191824 -8.0222502 -200 45 -200 45 -200 45
234327304.55076 -0.1612694 -8.0682306 -200 45 -200 45 -200 45
235327421.23687 -0.16350973 -8.094739 -200 45 -200 45 -200 45
236327537.92299 -0.16156438 -8.0998602 -200 45 -200 45 -200 45
237327654.6091 -0.15921253 -8.1064425 -200 45 -200 45 -200 45
238327771.29522 -0.15652247 -8.1026392 -200 45 -200 45 -200 45
239327887.98133 -0.15383354 -8.0804024 -200 45 -200 45 -200 45
240328004.66744 -0.14656462 -8.0080509 -200 45 -200 45 -200 45
241328121.35356 -0.13834755 -7.9485779 -200 45 -200 45 -200 45
242328238.03967 -0.14113039 -8.0067396 -200 45 -200 45 -200 45
243328354.72579 -0.15057541 -8.1554918 -200 45 -200 45 -200 45
244328471.4119 -0.16408229 -8.3373537 -200 45 -200 45 -200 45
245328588.09802 -0.16981262 -8.4208136 -200 45 -200 45 -200 45
246328704.78413 -0.17211553 -8.4678965 -200 45 -200 45 -200 45
247328821.47025 -0.17311242 -8.4971733 -200 45 -200 45 -200 45
248328938.15636 -0.17626512 -8.5416164 -200 45 -200 45 -200 45
249329054.84247 -0.17645922 -8.5925865 -200 45 -200 45 -200 45
250329171.52859 -0.18067746 -8.6676369 -200 45 -200 45 -200 45
251329288.2147 -0.17929493 -8.6754513 -200 45 -200 45 -200 45
252329404.90082 -0.18005952 -8.6610527 -200 45 -200 45 -200 45
253329521.58693 -0.17625946 -8.6608295 -200 45 -200 45 -200 45
254329638.27305 -0.17530255 -8.6564198 -200 45 -200 45 -200 45
255329754.95916 -0.17273234 -8.6307631 -200 45 -200 45 -200 45
256329871.64527 -0.16480631 -8.5637865 -200 45 -200 45 -200 45
257329988.33139 -0.15425356 -8.4524117 -200 45 -200 45 -200 45
258330105.0175 -0.15655522 -8.4820957 -200 45 -200 45 -200 45
259330221.70362 -0.16073857 -8.5480938 -200 45 -200 45 -200 45
260330338.38973 -0.17892401 -8.7517004 -200 45 -200 45 -200 45
261330455.07585 -0.18802023 -8.8550882 -200 45 -200 45 -200 45
262330571.76196 -0.18949233 -8.889328 -200 45 -200 45 -200 45
263330688.44807 -0.19255222 -8.926034 -200 45 -200 45 -200 45
264330805.13419 -0.19287884 -8.9416332 -200 45 -200 45 -200 45
265330921.8203 -0.1968338 -8.994153 -200 45 -200 45 -200 45
266331038.50642 -0.20095691 -9.0382938 -200 45 -200 45 -200 45
267331155.19253 -0.20316818 -9.0607357 -200 45 -200 45 -200 45
268331271.87865 -0.20062481 -9.0443449 -200 45 -200 45 -200 45
269331388.56476 -0.19998939 -9.031353 -200 45 -200 45 -200 45
270331505.25088 -0.19763644 -9.0158758 -200 45 -200 45 -200 45
271331621.93699 -0.19625095 -8.981945 -200 45 -200 45 -200 45
272331738.6231 -0.18835543 -8.9198532 -200 45 -200 45 -200 45
273331855.30922 -0.17526509 -8.7945251 -200 45 -200 45 -200 45
274331971.99533 -0.17316791 -8.7771931 -200 45 -200 45 -200 45
275332088.68145 -0.17597775 -8.820899 -200 45 -200 45 -200 45
276332205.36756 -0.19557773 -9.0062389 -200 45 -200 45 -200 45
277332322.05368 -0.20786673 -9.1406384 -200 45 -200 45 -200 45
278332438.73979 -0.21324296 -9.1921425 -200 45 -200 45 -200 45
279332555.4259 -0.21399996 -9.2237797 -200 45 -200 45 -200 45
280332672.11202 -0.21662165 -9.2576456 -200 45 -200 45 -200 45
281332788.79813 -0.21903965 -9.2990971 -200 45 -200 45 -200 45
282332905.48425 -0.22314522 -9.3413525 -200 45 -200 45 -200 45
283333022.17036 -0.22612585 -9.3858185 -200 45 -200 45 -200 45
284333138.85648 -0.22501966 -9.3820391 -200 45 -200 45 -200 45
285333255.54259 -0.22148597 -9.372798 -200 45 -200 45 -200 45
286333372.2287 -0.22094229 -9.3558788 -200 45 -200 45 -200 45
287333488.91482 -0.21813098 -9.3518276 -200 45 -200 45 -200 45
288333605.60093 -0.21232571 -9.3003807 -200 45 -200 45 -200 45
289333722.28705 -0.19981402 -9.1970091 -200 45 -200 45 -200 45
290333838.97316 -0.19190745 -9.11798 -200 45 -200 45 -200 45
291333955.65928 -0.19693619 -9.1993351 -200 45 -200 45 -200 45
292334072.34539 -0.21208623 -9.3562508 -200 45 -200 45 -200 45
293334189.03151 -0.22590415 -9.5256701 -200 45 -200 45 -200 45
294334305.71762 -0.23434255 -9.6316957 -200 45 -200 45 -200 45
295334422.40373 -0.2377768 -9.6698132 -200 45 -200 45 -200 45
296334539.08985 -0.23977247 -9.7056322 -200 45 -200 45 -200 45
297334655.77596 -0.24417616 -9.7644253 -200 45 -200 45 -200 45
298334772.46208 -0.24614902 -9.8158464 -200 45 -200 45 -200 45
299334889.14819 -0.24906461 -9.8786697 -200 45 -200 45 -200 45
300335005.83431 -0.25009876 -9.9142265 -200 45 -200 45 -200 45
301335122.52042 -0.24674957 -9.9185753 -200 45 -200 45 -200 45
302335239.20653 -0.24369891 -9.9147711 -200 45 -200 45 -200 45
303335355.89265 -0.24374627 -9.9151335 -200 45 -200 45 -200 45
304335472.57876 -0.23807485 -9.8964977 -200 45 -200 45 -200 45
305335589.26488 -0.22710083 -9.8275118 -200 45 -200 45 -200 45
306335705.95099 -0.2149502 -9.7386379 -200 45 -200 45 -200 45
307335822.63711 -0.21732046 -9.8024845 -200 45 -200 45 -200 45
308335939.32322 -0.22626765 -9.8924837 -200 45 -200 45 -200 45
309336056.00933 -0.24718826 -10.13546 -200 45 -200 45 -200 45
310336172.69545 -0.25795224 -10.247968 -200 45 -200 45 -200 45
311336289.38156 -0.26059401 -10.324921 -200 45 -200 45 -200 45
312336406.06768 -0.26265216 -10.37318 -200 45 -200 45 -200 45
313336522.75379 -0.26608247 -10.432016 -200 45 -200 45 -200 45
314336639.43991 -0.27139297 -10.505266 -200 45 -200 45 -200 45
315336756.12602 -0.27198076 -10.557777 -200 45 -200 45 -200 45
316336872.81214 -0.27114275 -10.586783 -200 45 -200 45 -200 45
317336989.49825 -0.27038813 -10.603553 -200 45 -200 45 -200 45
318337106.18436 -0.26702791 -10.596405 -200 45 -200 45 -200 45
319337222.87048 -0.26304376 -10.60324 -200 45 -200 45 -200 45
320337339.55659 -0.25774017 -10.574428 -200 45 -200 45 -200 45
321337456.24271 -0.24555978 -10.505268 -200 45 -200 45 -200 45
322337572.92882 -0.22979732 -10.410952 -200 45 -200 45 -200 45
323337689.61494 -0.23525681 -10.457729 -200 45 -200 45 -200 45
324337806.30105 -0.24443467 -10.579078 -200 45 -200 45 -200 45
325337922.98716 -0.268361 -10.806931 -200 45 -200 45 -200 45
326338039.67328 -0.27793536 -10.913345 -200 45 -200 45 -200 45
327338156.35939 -0.27938691 -10.977048 -200 45 -200 45 -200 45
328338273.04551 -0.28443098 -11.0264 -200 45 -200 45 -200 45
329338389.73162 -0.28373373 -11.049208 -200 45 -200 45 -200 45
330338506.41774 -0.28783482 -11.11402 -200 45 -200 45 -200 45
331338623.10385 -0.29056236 -11.161696 -200 45 -200 45 -200 45
332338739.78997 -0.29441425 -11.201483 -200 45 -200 45 -200 45
333338856.47608 -0.28896847 -11.197468 -200 45 -200 45 -200 45
334338973.16219 -0.28801432 -11.167577 -200 45 -200 45 -200 45
335339089.84831 -0.28531632 -11.152049 -200 45 -200 45 -200 45
336339206.53442 -0.27887347 -11.12798 -200 45 -200 45 -200 45
337339323.22054 -0.26831532 -11.060359 -200 45 -200 45 -200 45
338339439.90665 -0.24959537 -10.932602 -200 45 -200 45 -200 45
339339556.59277 -0.2492395 -10.948041 -200 45 -200 45 -200 45
340339673.27888 -0.25693458 -10.995021 -200 45 -200 45 -200 45
341339789.96499 -0.28194231 -11.221084 -200 45 -200 45 -200 45
342339906.65111 -0.29438516 -11.343691 -200 45 -200 45 -200 45
343340023.33722 -0.2989389 -11.39393 -200 45 -200 45 -200 45
344340140.02334 -0.30272466 -11.410181 -200 45 -200 45 -200 45
345340256.70945 -0.30496782 -11.437938 -200 45 -200 45 -200 45
346340373.39557 -0.30804738 -11.476248 -200 45 -200 45 -200 45
347340490.08168 -0.31351605 -11.521714 -200 45 -200 45 -200 45
348340606.76779 -0.31647751 -11.53888 -200 45 -200 45 -200 45
349340723.45391 -0.31477803 -11.510812 -200 45 -200 45 -200 45
350340840.14002 -0.31004614 -11.490549 -200 45 -200 45 -200 45
351340956.82614 -0.30885944 -11.475082 -200 45 -200 45 -200 45
352341073.51225 -0.30145729 -11.436899 -200 45 -200 45 -200 45
353341190.19837 -0.29316285 -11.361023 -200 45 -200 45 -200 45
354341306.88448 -0.27534285 -11.235803 -200 45 -200 45 -200 45
355341423.5706 -0.27025673 -11.173725 -200 45 -200 45 -200 45
356341540.25671 -0.27329773 -11.203096 -200 45 -200 45 -200 45
357341656.94282 -0.29938316 -11.4139 -200 45 -200 45 -200 45
358341773.62894 -0.31981853 -11.561676 -200 45 -200 45 -200 45
359341890.31505 -0.32701817 -11.619223 -200 45 -200 45 -200 45
360342007.00117 -0.32643518 -11.641957 -200 45 -200 45 -200 45
361342123.68728 -0.32879812 -11.669469 -200 45 -200 45 -200 45
362342240.3734 -0.33388007 -11.702971 -200 45 -200 45 -200 45
363342357.05951 -0.33848831 -11.740714 -200 45 -200 45 -200 45
364342473.74562 -0.34155926 -11.798808 -200 45 -200 45 -200 45
365342590.43174 -0.34186313 -11.778159 -200 45 -200 45 -200 45
366342707.11785 -0.33796671 -11.741744 -200 45 -200 45 -200 45
367342823.80397 -0.33496597 -11.744814 -200 45 -200 45 -200 45
368342940.49008 -0.33087292 -11.71032 -200 45 -200 45 -200 45
369343057.1762 -0.3241148 -11.667217 -200 45 -200 45 -200 45
370343173.86231 -0.30832028 -11.544348 -200 45 -200 45 -200 45
371343290.54842 -0.29195476 -11.473018 -200 45 -200 45 -200 45
372343407.23454 -0.29886818 -11.517193 -200 45 -200 45 -200 45
373343523.92065 -0.31866872 -11.678459 -200 45 -200 45 -200 45
374343640.60677 -0.34193453 -11.867517 -200 45 -200 45 -200 45
375343757.29288 -0.35270795 -11.961335 -200 45 -200 45 -200 45
376343873.979 -0.35638523 -12.006904 -200 45 -200 45 -200 45
377343990.66511 -0.36071926 -12.046999 -200 45 -200 45 -200 45
378344107.35123 -0.36432675 -12.099899 -200 45 -200 45 -200 45
379344224.03734 -0.36876309 -12.169717 -200 45 -200 45 -200 45
380344340.72345 -0.37486693 -12.221284 -200 45 -200 45 -200 45
381344457.40957 -0.37270755 -12.231127 -200 45 -200 45 -200 45
382344574.09568 -0.371207 -12.23 -200 45 -200 45 -200 45
383344690.7818 -0.36600515 -12.22756 -200 45 -200 45 -200 45
384344807.46791 -0.36431998 -12.225544 -200 45 -200 45 -200 45
385344924.15403 -0.3551743 -12.197105 -200 45 -200 45 -200 45
386345040.84014 -0.33922717 -12.113651 -200 45 -200 45 -200 45
387345157.52625 -0.32336569 -12.025066 -200 45 -200 45 -200 45
388345274.21237 -0.32681388 -12.080173 -200 45 -200 45 -200 45
389345390.89848 -0.33756492 -12.183477 -200 45 -200 45 -200 45
390345507.5846 -0.36896768 -12.435329 -200 45 -200 45 -200 45
391345624.27071 -0.38317344 -12.542876 -200 45 -200 45 -200 45
392345740.95683 -0.38688648 -12.633201 -200 45 -200 45 -200 45
393345857.64294 -0.38832822 -12.681074 -200 45 -200 45 -200 45
394345974.32905 -0.39227265 -12.736143 -200 45 -200 45 -200 45
395346091.01517 -0.39974847 -12.806151 -200 45 -200 45 -200 45
396346207.70128 -0.4035286 -12.878068 -200 45 -200 45 -200 45
397346324.3874 -0.4047136 -12.919001 -200 45 -200 45 -200 45
398346441.07351 -0.40082258 -12.934437 -200 45 -200 45 -200 45
399346557.75963 -0.39513692 -12.924375 -200 45 -200 45 -200 45
400346674.44574 -0.38987067 -12.920657 -200 45 -200 45 -200 45
401346791.13186 -0.38410345 -12.912828 -200 45 -200 45 -200 45
402346907.81797 -0.36864728 -12.84147 -200 45 -200 45 -200 45
403347024.50408 -0.34966558 -12.7377 -200 45 -200 45 -200 45
404347141.1902 -0.34833452 -12.747865 -200 45 -200 45 -200 45
405347257.87631 -0.35298282 -12.830637 -200 45 -200 45 -200 45
406347374.56243 -0.38796648 -13.081132 -200 45 -200 45 -200 45
407347491.24854 -0.40422773 -13.217716 -200 45 -200 45 -200 45
408347607.93466 -0.41014466 -13.294419 -200 45 -200 45 -200 45
409347724.62077 -0.41404319 -13.334159 -200 45 -200 45 -200 45
410347841.30688 -0.41492659 -13.366254 -200 45 -200 45 -200 45
411347957.993 -0.42034307 -13.423771 -200 45 -200 45 -200 45
412348074.67911 -0.42532665 -13.481331 -200 45 -200 45 -200 45
413348191.36523 -0.42684004 -13.525682 -200 45 -200 45 -200 45
414348308.05134 -0.4233532 -13.524206 -200 45 -200 45 -200 45
415348424.73746 -0.41891578 -13.495166 -200 45 -200 45 -200 45
416348541.42357 -0.41413942 -13.485543 -200 45 -200 45 -200 45
417348658.10968 -0.4084841 -13.466817 -200 45 -200 45 -200 45
418348774.7958 -0.39669994 -13.404872 -200 45 -200 45 -200 45
419348891.48191 -0.37269148 -13.281786 -200 45 -200 45 -200 45
420349008.16803 -0.36378992 -13.222774 -200 45 -200 45 -200 45
421349124.85414 -0.36699349 -13.259877 -200 45 -200 45 -200 45
422349241.54026 -0.39517206 -13.454327 -200 45 -200 45 -200 45
423349358.22637 -0.41955638 -13.615623 -200 45 -200 45 -200 45
424349474.91249 -0.42845023 -13.679705 -200 45 -200 45 -200 45
425349591.5986 -0.43396717 -13.712612 -200 45 -200 45 -200 45
426349708.28471 -0.43277186 -13.720107 -200 45 -200 45 -200 45
427349824.97083 -0.44047967 -13.756098 -200 45 -200 45 -200 45
428349941.65694 -0.44451192 -13.789427 -200 45 -200 45 -200 45
429350058.34306 -0.44941911 -13.826098 -200 45 -200 45 -200 45
430350175.02917 -0.44618204 -13.821757 -200 45 -200 45 -200 45
431350291.71529 -0.44209579 -13.778827 -200 45 -200 45 -200 45
432350408.4014 -0.43600726 -13.745162 -200 45 -200 45 -200 45
433350525.08751 -0.43182251 -13.70578 -200 45 -200 45 -200 45
434350641.77363 -0.42219564 -13.651515 -200 45 -200 45 -200 45
435350758.45974 -0.40171635 -13.529178 -200 45 -200 45 -200 45
436350875.14586 -0.381143 -13.411985 -200 45 -200 45 -200 45
437350991.83197 -0.38884231 -13.460261 -200 45 -200 45 -200 45
438351108.51809 -0.40868771 -13.563281 -200 45 -200 45 -200 45
439351225.2042 -0.43892601 -13.737078 -200 45 -200 45 -200 45
440351341.89032 -0.45084184 -13.826853 -200 45 -200 45 -200 45
441351458.57643 -0.45589447 -13.844213 -200 45 -200 45 -200 45
442351575.26254 -0.45995 -13.861426 -200 45 -200 45 -200 45
443351691.94866 -0.46298224 -13.875431 -200 45 -200 45 -200 45
444351808.63477 -0.46989465 -13.931676 -200 45 -200 45 -200 45
445351925.32089 -0.47305101 -13.961078 -200 45 -200 45 -200 45
446352042.007 -0.47638446 -13.963249 -200 45 -200 45 -200 45
447352158.69312 -0.47214881 -13.93647 -200 45 -200 45 -200 45
448352275.37923 -0.46452636 -13.914804 -200 45 -200 45 -200 45
449352392.06534 -0.46314436 -13.892786 -200 45 -200 45 -200 45
450352508.75146 -0.45193151 -13.841654 -200 45 -200 45 -200 45
451352625.43757 -0.43818232 -13.767416 -200 45 -200 45 -200 45
452352742.12369 -0.41253027 -13.62999 -200 45 -200 45 -200 45
453352858.8098 -0.41453013 -13.659033 -200 45 -200 45 -200 45
454352975.49592 -0.42640424 -13.722024 -200 45 -200 45 -200 45
455353092.18203 -0.46504149 -13.952708 -200 45 -200 45 -200 45
456353208.86814 -0.48231006 -14.062748 -200 45 -200 45 -200 45
457353325.55426 -0.48824605 -14.121739 -200 45 -200 45 -200 45
458353442.24037 -0.4943184 -14.14626 -200 45 -200 45 -200 45
459353558.92649 -0.49467781 -14.181996 -200 45 -200 45 -200 45
460353675.6126 -0.50242341 -14.234852 -200 45 -200 45 -200 45
461353792.29872 -0.50822639 -14.30034 -200 45 -200 45 -200 45
462353908.98483 -0.51014298 -14.332765 -200 45 -200 45 -200 45
463354025.67095 -0.50424856 -14.352541 -200 45 -200 45 -200 45
464354142.35706 -0.50348222 -14.331594 -200 45 -200 45 -200 45
465354259.04317 -0.49735674 -14.309231 -200 45 -200 45 -200 45
466354375.72929 -0.48737773 -14.31077 -200 45 -200 45 -200 45
467354492.4154 -0.47416738 -14.259164 -200 45 -200 45 -200 45
468354609.10152 -0.44646633 -14.161314 -200 45 -200 45 -200 45
469354725.78763 -0.44285133 -14.143741 -200 45 -200 45 -200 45
470354842.47375 -0.45072725 -14.208103 -200 45 -200 45 -200 45
471354959.15986 -0.48748547 -14.449566 -200 45 -200 45 -200 45
472355075.84597 -0.51116467 -14.610873 -200 45 -200 45 -200 45
473355192.53209 -0.52008814 -14.695768 -200 45 -200 45 -200 45
474355309.2182 -0.52051651 -14.742289 -200 45 -200 45 -200 45
475355425.90432 -0.52443218 -14.799447 -200 45 -200 45 -200 45
476355542.59043 -0.53093827 -14.861232 -200 45 -200 45 -200 45
477355659.27655 -0.53813148 -14.927195 -200 45 -200 45 -200 45
478355775.96266 -0.53895605 -15.002922 -200 45 -200 45 -200 45
479355892.64877 -0.53792077 -15.012945 -200 45 -200 45 -200 45
480356009.33489 -0.53002769 -15.024314 -200 45 -200 45 -200 45
481356126.021 -0.526474 -15.024944 -200 45 -200 45 -200 45
482356242.70712 -0.51953959 -15.013309 -200 45 -200 45 -200 45
483356359.39323 -0.50536942 -14.982053 -200 45 -200 45 -200 45
484356476.07935 -0.47938225 -14.900678 -200 45 -200 45 -200 45
485356592.76546 -0.46264645 -14.843545 -200 45 -200 45 -200 45
486356709.45158 -0.46775034 -14.916029 -200 45 -200 45 -200 45
487356826.13769 -0.50069118 -15.111732 -200 45 -200 45 -200 45
488356942.8238 -0.53027076 -15.263704 -200 45 -200 45 -200 45
489357059.50992 -0.54106897 -15.3757 -200 45 -200 45 -200 45
490357176.19603 -0.5453918 -15.437928 -200 45 -200 45 -200 45
491357292.88215 -0.54690617 -15.469021 -200 45 -200 45 -200 45
492357409.56826 -0.55091012 -15.509007 -200 45 -200 45 -200 45
493357526.25438 -0.55794543 -15.575976 -200 45 -200 45 -200 45
494357642.94049 -0.56145811 -15.631069 -200 45 -200 45 -200 45
495357759.6266 -0.55734766 -15.63689 -200 45 -200 45 -200 45
496357876.31272 -0.55493915 -15.639714 -200 45 -200 45 -200 45
497357992.99883 -0.54487467 -15.619083 -200 45 -200 45 -200 45
498358109.68495 -0.53890681 -15.620088 -200 45 -200 45 -200 45
499358226.37106 -0.52919751 -15.568134 -200 45 -200 45 -200 45
500358343.05718 -0.50459713 -15.479754 -200 45 -200 45 -200 45
501358459.74329 -0.47732484 -15.386111 -200 45 -200 45 -200 45
502358576.4294 -0.48552382 -15.42699 -200 45 -200 45 -200 45
503358693.11552 -0.50081462 -15.518106 -200 45 -200 45 -200 45
504358809.80163 -0.53951615 -15.704215 -200 45 -200 45 -200 45
505358926.48775 -0.55686122 -15.800143 -200 45 -200 45 -200 45
506359043.17386 -0.56149614 -15.831059 -200 45 -200 45 -200 45
507359159.85998 -0.56387442 -15.85162 -200 45 -200 45 -200 45
508359276.54609 -0.56465554 -15.877926 -200 45 -200 45 -200 45
509359393.23221 -0.57224977 -15.933296 -200 45 -200 45 -200 45
510359509.91832 -0.57719684 -15.948359 -200 45 -200 45 -200 45
511359626.60443 -0.57678616 -15.952218 -200 45 -200 45 -200 45
512359743.29055 -0.57238269 -15.925681 -200 45 -200 45 -200 45
513359859.97666 -0.56754172 -15.88991 -200 45 -200 45 -200 45
514359976.66278 -0.55813152 -15.866547 -200 45 -200 45 -200 45
515360093.34889 -0.55023837 -15.822904 -200 45 -200 45 -200 45
516360210.03501 -0.53083324 -15.731789 -200 45 -200 45 -200 45
517360326.72112 -0.50155199 -15.598538 -200 45 -200 45 -200 45
518360443.40723 -0.50207269 -15.582742 -200 45 -200 45 -200 45
519360560.09335 -0.50892919 -15.623795 -200 45 -200 45 -200 45
520360676.77946 -0.5562377 -15.815155 -200 45 -200 45 -200 45
521360793.46558 -0.57497144 -15.91967 -200 45 -200 45 -200 45
522360910.15169 -0.5834254 -15.950235 -200 45 -200 45 -200 45
523361026.83781 -0.58686274 -15.962055 -200 45 -200 45 -200 45
524361143.52392 -0.58934748 -15.969042 -200 45 -200 45 -200 45
525361260.21004 -0.59622657 -16.026703 -200 45 -200 45 -200 45
526361376.89615 -0.60258067 -16.047384 -200 45 -200 45 -200 45
527361493.58226 -0.60683686 -16.056124 -200 45 -200 45 -200 45
528361610.26838 -0.60267103 -16.025215 -200 45 -200 45 -200 45
529361726.95449 -0.59601629 -15.999775 -200 45 -200 45 -200 45
530361843.64061 -0.59182262 -15.972182 -200 45 -200 45 -200 45
531361960.32672 -0.58141577 -15.936163 -200 45 -200 45 -200 45
532362077.01284 -0.56810731 -15.863773 -200 45 -200 45 -200 45
533362193.69895 -0.53840923 -15.762907 -200 45 -200 45 -200 45
534362310.38506 -0.52791405 -15.69109 -200 45 -200 45 -200 45
535362427.07118 -0.53450644 -15.748002 -200 45 -200 45 -200 45
536362543.75729 -0.57437778 -15.906487 -200 45 -200 45 -200 45
537362660.44341 -0.60414696 -16.056768 -200 45 -200 45 -200 45
538362777.12952 -0.61523354 -16.122519 -200 45 -200 45 -200 45
539362893.81564 -0.62113374 -16.170048 -200 45 -200 45 -200 45
540363010.50175 -0.62279642 -16.197449 -200 45 -200 45 -200 45
541363127.18786 -0.62805837 -16.232117 -200 45 -200 45 -200 45
542363243.87398 -0.63659155 -16.293055 -200 45 -200 45 -200 45
543363360.56009 -0.64284533 -16.328028 -200 45 -200 45 -200 45
544363477.24621 -0.64073604 -16.339365 -200 45 -200 45 -200 45
545363593.93232 -0.63646656 -16.330097 -200 45 -200 45 -200 45
546363710.61844 -0.62822795 -16.331049 -200 45 -200 45 -200 45
547363827.30455 -0.6225825 -16.31152 -200 45 -200 45 -200 45
548363943.99067 -0.60940212 -16.287233 -200 45 -200 45 -200 45
549364060.67678 -0.58311689 -16.208244 -200 45 -200 45 -200 45
550364177.36289 -0.55972308 -16.136173 -200 45 -200 45 -200 45
551364294.04901 -0.56536609 -16.204275 -200 45 -200 45 -200 45
552364410.73512 -0.59256995 -16.349804 -200 45 -200 45 -200 45
553364527.42124 -0.6304186 -16.532753 -200 45 -200 45 -200 45
554364644.10735 -0.64641327 -16.656664 -200 45 -200 45 -200 45
555364760.79347 -0.65209126 -16.707033 -200 45 -200 45 -200 45
556364877.47958 -0.65649807 -16.756483 -200 45 -200 45 -200 45
557364994.16569 -0.66182035 -16.805927 -200 45 -200 45 -200 45
558365110.85181 -0.66804838 -16.889469 -200 45 -200 45 -200 45
559365227.53792 -0.67456412 -16.950508 -200 45 -200 45 -200 45
560365344.22404 -0.67215985 -16.98189 -200 45 -200 45 -200 45
561365460.91015 -0.66733259 -16.985733 -200 45 -200 45 -200 45
562365577.59627 -0.65836442 -17.005741 -200 45 -200 45 -200 45
563365694.28238 -0.65298504 -17.012259 -200 45 -200 45 -200 45
564365810.96849 -0.64025003 -17.003641 -200 45 -200 45 -200 45
565365927.65461 -0.61807984 -16.953241 -200 45 -200 45 -200 45
566366044.34072 -0.58680022 -16.872969 -200 45 -200 45 -200 45
567366161.02684 -0.58733779 -16.923904 -200 45 -200 45 -200 45
568366277.71295 -0.6003716 -17.003693 -200 45 -200 45 -200 45
569366394.39907 -0.64864188 -17.227024 -200 45 -200 45 -200 45
570366511.08518 -0.66724539 -17.343428 -200 45 -200 45 -200 45
571366627.7713 -0.67455477 -17.403006 -200 45 -200 45 -200 45
572366744.45741 -0.67834342 -17.467382 -200 45 -200 45 -200 45
573366861.14352 -0.67939091 -17.485725 -200 45 -200 45 -200 45
574366977.82964 -0.68530381 -17.565338 -200 45 -200 45 -200 45
575367094.51575 -0.69204074 -17.605974 -200 45 -200 45 -200 45
576367211.20187 -0.69388992 -17.660164 -200 45 -200 45 -200 45
577367327.88798 -0.68659949 -17.651627 -200 45 -200 45 -200 45
578367444.5741 -0.67791581 -17.634256 -200 45 -200 45 -200 45
579367561.26021 -0.6724152 -17.641672 -200 45 -200 45 -200 45
580367677.94632 -0.66029847 -17.625851 -200 45 -200 45 -200 45
581367794.63244 -0.63992244 -17.566593 -200 45 -200 45 -200 45
582367911.31855 -0.6057415 -17.464996 -200 45 -200 45 -200 45
583368028.00467 -0.60070097 -17.449934 -200 45 -200 45 -200 45
584368144.69078 -0.60739803 -17.491119 -200 45 -200 45 -200 45
585368261.3769 -0.65255934 -17.686831 -200 45 -200 45 -200 45
586368378.06301 -0.67868662 -17.78858 -200 45 -200 45 -200 45
587368494.74912 -0.68899691 -17.849506 -200 45 -200 45 -200 45
588368611.43524 -0.69346046 -17.871021 -200 45 -200 45 -200 45
589368728.12135 -0.69488317 -17.8876 -200 45 -200 45 -200 45
590368844.80747 -0.70006317 -17.93087 -200 45 -200 45 -200 45
591368961.49358 -0.70580149 -17.955994 -200 45 -200 45 -200 45
592369078.1797 -0.70891076 -17.977415 -200 45 -200 45 -200 45
593369194.86581 -0.70541507 -17.953138 -200 45 -200 45 -200 45
594369311.55193 -0.69842142 -17.917152 -200 45 -200 45 -200 45
595369428.23804 -0.69104391 -17.898203 -200 45 -200 45 -200 45
596369544.92415 -0.68358827 -17.867105 -200 45 -200 45 -200 45
597369661.61027 -0.66483188 -17.790693 -200 45 -200 45 -200 45
598369778.29638 -0.6357128 -17.683962 -200 45 -200 45 -200 45
599369894.9825 -0.61456013 -17.604366 -200 45 -200 45 -200 45
600370011.66861 -0.62260878 -17.634718 -200 45 -200 45 -200 45
601370128.35473 -0.65904438 -17.756989 -200 45 -200 45 -200 45
602370245.04084 -0.69419879 -17.878656 -200 45 -200 45 -200 45
603370361.72695 -0.70919597 -17.94031 -200 45 -200 45 -200 45
604370478.41307 -0.71481425 -17.948879 -200 45 -200 45 -200 45
605370595.09918 -0.71576589 -17.953547 -200 45 -200 45 -200 45
606370711.7853 -0.72142291 -17.971094 -200 45 -200 45 -200 45
607370828.47141 -0.72962296 -18.005901 -200 45 -200 45 -200 45
608370945.15753 -0.73703694 -18.017349 -200 45 -200 45 -200 45
609371061.84364 -0.73595244 -18.003603 -200 45 -200 45 -200 45
610371178.52976 -0.73075485 -17.965435 -200 45 -200 45 -200 45
611371295.21587 -0.72276914 -17.931387 -200 45 -200 45 -200 45
612371411.90198 -0.71480787 -17.910528 -200 45 -200 45 -200 45
613371528.5881 -0.70158261 -17.865501 -200 45 -200 45 -200 45
614371645.27421 -0.67710859 -17.773252 -200 45 -200 45 -200 45
615371761.96033 -0.64571124 -17.672731 -200 45 -200 45 -200 45
616371878.64644 -0.65359676 -17.694651 -200 45 -200 45 -200 45
617371995.33256 -0.67457956 -17.754814 -200 45 -200 45 -200 45
618372112.01867 -0.72354394 -17.937027 -200 45 -200 45 -200 45
619372228.70478 -0.74077463 -18.006216 -200 45 -200 45 -200 45
620372345.3909 -0.7498188 -18.043344 -200 45 -200 45 -200 45
621372462.07701 -0.75307274 -18.075617 -200 45 -200 45 -200 45
622372578.76313 -0.75602746 -18.092615 -200 45 -200 45 -200 45
623372695.44924 -0.76570898 -18.140953 -200 45 -200 45 -200 45
624372812.13536 -0.77136993 -18.189249 -200 45 -200 45 -200 45
625372928.82147 -0.77254617 -18.215618 -200 45 -200 45 -200 45
626373045.50758 -0.76551938 -18.197668 -200 45 -200 45 -200 45
627373162.1937 -0.76044947 -18.183216 -200 45 -200 45 -200 45
628373278.87981 -0.75205868 -18.20578 -200 45 -200 45 -200 45
629373395.56593 -0.7404986 -18.146778 -200 45 -200 45 -200 45
630373512.25204 -0.71118361 -18.093008 -200 45 -200 45 -200 45
631373628.93816 -0.68053919 -18.017008 -200 45 -200 45 -200 45
632373745.62427 -0.68908882 -18.080767 -200 45 -200 45 -200 45
633373862.31039 -0.70879251 -18.16897 -200 45 -200 45 -200 45
634373978.9965 -0.75954288 -18.374525 -200 45 -200 45 -200 45
635374095.68261 -0.77715158 -18.468935 -200 45 -200 45 -200 45
636374212.36873 -0.78577346 -18.534168 -200 45 -200 45 -200 45
637374329.05484 -0.78754252 -18.586842 -200 45 -200 45 -200 45
638374445.74096 -0.79301828 -18.611061 -200 45 -200 45 -200 45
639374562.42707 -0.80003434 -18.70656 -200 45 -200 45 -200 45
640374679.11319 -0.80909938 -18.768559 -200 45 -200 45 -200 45
641374795.7993 -0.80669898 -18.802399 -200 45 -200 45 -200 45
642374912.48541 -0.80117917 -18.82168 -200 45 -200 45 -200 45
643375029.17153 -0.7909205 -18.815584 -200 45 -200 45 -200 45
644375145.85764 -0.78525543 -18.83717 -200 45 -200 45 -200 45
645375262.54376 -0.77130407 -18.847578 -200 45 -200 45 -200 45
646375379.22987 -0.74651074 -18.813766 -200 45 -200 45 -200 45
647375495.91599 -0.71002781 -18.7216 -200 45 -200 45 -200 45
648375612.6021 -0.71058875 -18.784733 -200 45 -200 45 -200 45
649375729.28821 -0.72289509 -18.854794 -200 45 -200 45 -200 45
650375845.97433 -0.77501136 -19.060434 -200 45 -200 45 -200 45
651375962.66044 -0.79944777 -19.176123 -200 45 -200 45 -200 45
652376079.34656 -0.80803514 -19.252783 -200 45 -200 45 -200 45
653376196.03267 -0.8086285 -19.300236 -200 45 -200 45 -200 45
654376312.71879 -0.81093264 -19.354303 -200 45 -200 45 -200 45
655376429.4049 -0.81920671 -19.406645 -200 45 -200 45 -200 45
656376546.09102 -0.82365787 -19.466055 -200 45 -200 45 -200 45
657376662.77713 -0.82508284 -19.515257 -200 45 -200 45 -200 45
658376779.46324 -0.81905603 -19.511791 -200 45 -200 45 -200 45
659376896.14936 -0.80696613 -19.508839 -200 45 -200 45 -200 45
660377012.83547 -0.80315888 -19.525967 -200 45 -200 45 -200 45
661377129.52159 -0.78795314 -19.519018 -200 45 -200 45 -200 45
662377246.2077 -0.76485592 -19.456232 -200 45 -200 45 -200 45
663377362.89382 -0.72918725 -19.370752 -200 45 -200 45 -200 45
664377479.57993 -0.71956229 -19.372242 -200 45 -200 45 -200 45
665377596.26604 -0.72832447 -19.407251 -200 45 -200 45 -200 45
666377712.95216 -0.77919847 -19.600166 -200 45 -200 45 -200 45
667377829.63827 -0.80579889 -19.685871 -200 45 -200 45 -200 45
668377946.32439 -0.81691003 -19.746666 -200 45 -200 45 -200 45
669378063.0105 -0.82136106 -19.764395 -200 45 -200 45 -200 45
670378179.69662 -0.8225922 -19.796993 -200 45 -200 45 -200 45
671378296.38273 -0.82709318 -19.820869 -200 45 -200 45 -200 45
672378413.06884 -0.8351233 -19.850292 -200 45 -200 45 -200 45
673378529.75496 -0.83769804 -19.856501 -200 45 -200 45 -200 45
674378646.44107 -0.83082741 -19.845671 -200 45 -200 45 -200 45
675378763.12719 -0.82317162 -19.821573 -200 45 -200 45 -200 45
676378879.8133 -0.81330168 -19.800701 -200 45 -200 45 -200 45
677378996.49942 -0.80325514 -19.760761 -200 45 -200 45 -200 45
678379113.18553 -0.78417742 -19.693924 -200 45 -200 45 -200 45
679379229.87165 -0.74936903 -19.599083 -200 45 -200 45 -200 45
680379346.55776 -0.73079592 -19.541813 -200 45 -200 45 -200 45
681379463.24387 -0.73790509 -19.572308 -200 45 -200 45 -200 45
682379579.92999 -0.78297257 -19.692293 -200 45 -200 45 -200 45
683379696.6161 -0.81776434 -19.797264 -200 45 -200 45 -200 45
684379813.30222 -0.83195186 -19.827229 -200 45 -200 45 -200 45
685379929.98833 -0.83482903 -19.832027 -200 45 -200 45 -200 45
686380046.67445 -0.83866251 -19.828049 -200 45 -200 45 -200 45
687380163.36056 -0.84568453 -19.831175 -200 45 -200 45 -200 45
688380280.04667 -0.85314292 -19.865215 -200 45 -200 45 -200 45
689380396.73279 -0.85886896 -19.893934 -200 45 -200 45 -200 45
690380513.4189 -0.8553195 -19.848774 -200 45 -200 45 -200 45
691380630.10502 -0.85006505 -19.816257 -200 45 -200 45 -200 45
692380746.79113 -0.83956158 -19.777664 -200 45 -200 45 -200 45
693380863.47725 -0.83184057 -19.760239 -200 45 -200 45 -200 45
694380980.16336 -0.8155309 -19.693638 -200 45 -200 45 -200 45
695381096.84947 -0.78358769 -19.615671 -200 45 -200 45 -200 45
696381213.53559 -0.75567716 -19.542387 -200 45 -200 45 -200 45
697381330.2217 -0.76667148 -19.558138 -200 45 -200 45 -200 45
698381446.90782 -0.79912102 -19.655836 -200 45 -200 45 -200 45
699381563.59393 -0.84402931 -19.772415 -200 45 -200 45 -200 45
700381680.28005 -0.86072141 -19.824739 -200 45 -200 45 -200 45
701381796.96616 -0.87055719 -19.857584 -200 45 -200 45 -200 45
702381913.65228 -0.87400353 -19.863686 -200 45 -200 45 -200 45
703382030.33839 -0.87727994 -19.891405 -200 45 -200 45 -200 45
704382147.0245 -0.88998371 -19.919436 -200 45 -200 45 -200 45
705382263.71062 -0.89647257 -19.962431 -200 45 -200 45 -200 45
706382380.39673 -0.89432293 -19.972683 -200 45 -200 45 -200 45
707382497.08285 -0.88585705 -19.95097 -200 45 -200 45 -200 45
708382613.76896 -0.87963223 -19.947241 -200 45 -200 45 -200 45
709382730.45508 -0.87088138 -19.949244 -200 45 -200 45 -200 45
710382847.14119 -0.85712379 -19.923815 -200 45 -200 45 -200 45
711382963.8273 -0.83062398 -19.876507 -200 45 -200 45 -200 45
712383080.51342 -0.79609364 -19.825058 -200 45 -200 45 -200 45
713383197.19953 -0.80189461 -19.863707 -200 45 -200 45 -200 45
714383313.88565 -0.82338691 -19.955517 -200 45 -200 45 -200 45
715383430.57176 -0.87699264 -20.118435 -200 45 -200 45 -200 45
716383547.25788 -0.89944947 -20.216124 -200 45 -200 45 -200 45
717383663.94399 -0.9080351 -20.273314 -200 45 -200 45 -200 45
718383780.63011 -0.90980846 -20.299726 -200 45 -200 45 -200 45
719383897.31622 -0.9169184 -20.36861 -200 45 -200 45 -200 45
720384014.00233 -0.924595 -20.431751 -200 45 -200 45 -200 45
721384130.68845 -0.93438756 -20.497101 -200 45 -200 45 -200 45
722384247.37456 -0.93518084 -20.537569 -200 45 -200 45 -200 45
723384364.06068 -0.9258827 -20.547405 -200 45 -200 45 -200 45
724384480.74679 -0.91577047 -20.547373 -200 45 -200 45 -200 45
725384597.43291 -0.91033638 -20.572531 -200 45 -200 45 -200 45
726384714.11902 -0.89809442 -20.58234 -200 45 -200 45 -200 45
727384830.80513 -0.87054735 -20.563601 -200 45 -200 45 -200 45
728384947.49125 -0.8299706 -20.519421 -200 45 -200 45 -200 45
729385064.17736 -0.8299737 -20.556892 -200 45 -200 45 -200 45
730385180.86348 -0.8411935 -20.631901 -200 45 -200 45 -200 45
731385297.54959 -0.89894003 -20.82094 -200 45 -200 45 -200 45
732385414.23571 -0.92594391 -20.927343 -200 45 -200 45 -200 45
733385530.92182 -0.93570739 -20.996424 -200 45 -200 45 -200 45
734385647.60793 -0.93626004 -21.037418 -200 45 -200 45 -200 45
735385764.29405 -0.9372772 -21.088562 -200 45 -200 45 -200 45
736385880.98016 -0.94566542 -21.159555 -200 45 -200 45 -200 45
737385997.66628 -0.95416981 -21.213634 -200 45 -200 45 -200 45
738386114.35239 -0.95587599 -21.259249 -200 45 -200 45 -200 45
739386231.03851 -0.94933909 -21.275213 -200 45 -200 45 -200 45
740386347.72462 -0.93846649 -21.283115 -200 45 -200 45 -200 45
741386464.41074 -0.9296025 -21.288988 -200 45 -200 45 -200 45
742386581.09685 -0.91347933 -21.283445 -200 45 -200 45 -200 45
743386697.78296 -0.88998497 -21.254454 -200 45 -200 45 -200 45
744386814.46908 -0.85252953 -21.186405 -200 45 -200 45 -200 45
745386931.15519 -0.84002674 -21.201645 -200 45 -200 45 -200 45
746387047.84131 -0.84754497 -21.240931 -200 45 -200 45 -200 45
747387164.52742 -0.90120721 -21.40172 -200 45 -200 45 -200 45
748387281.21354 -0.93132764 -21.484226 -200 45 -200 45 -200 45
749387397.89965 -0.94097465 -21.53866 -200 45 -200 45 -200 45
750387514.58576 -0.94661719 -21.568586 -200 45 -200 45 -200 45
751387631.27188 -0.94655764 -21.58643 -200 45 -200 45 -200 45
752387747.95799 -0.95434719 -21.627892 -200 45 -200 45 -200 45
753387864.64411 -0.96099496 -21.668194 -200 45 -200 45 -200 45
754387981.33022 -0.96498615 -21.691774 -200 45 -200 45 -200 45
755388098.01634 -0.95771837 -21.669407 -200 45 -200 45 -200 45
756388214.70245 -0.94938868 -21.635414 -200 45 -200 45 -200 45
757388331.38856 -0.94021219 -21.639051 -200 45 -200 45 -200 45
758388448.07468 -0.92617744 -21.601273 -200 45 -200 45 -200 45
759388564.76079 -0.90814608 -21.540199 -200 45 -200 45 -200 45
760388681.44691 -0.87173241 -21.482204 -200 45 -200 45 -200 45
761388798.13302 -0.84769189 -21.419109 -200 45 -200 45 -200 45
762388914.81914 -0.85473514 -21.453255 -200 45 -200 45 -200 45
763389031.50525 -0.89853054 -21.549728 -200 45 -200 45 -200 45
764389148.19137 -0.9387393 -21.617393 -200 45 -200 45 -200 45
765389264.87748 -0.95339209 -21.643248 -200 45 -200 45 -200 45
766389381.56359 -0.95915699 -21.649675 -200 45 -200 45 -200 45
767389498.24971 -0.96148396 -21.644096 -200 45 -200 45 -200 45
768389614.93582 -0.96672857 -21.661348 -200 45 -200 45 -200 45
769389731.62194 -0.97586578 -21.682346 -200 45 -200 45 -200 45
770389848.30805 -0.98021775 -21.687208 -200 45 -200 45 -200 45
771389964.99417 -0.97689909 -21.666431 -200 45 -200 45 -200 45
772390081.68028 -0.97054476 -21.623781 -200 45 -200 45 -200 45
773390198.36639 -0.96217173 -21.575262 -200 45 -200 45 -200 45
774390315.05251 -0.95274478 -21.56955 -200 45 -200 45 -200 45
775390431.73862 -0.93511826 -21.531487 -200 45 -200 45 -200 45
776390548.42474 -0.90457338 -21.443113 -200 45 -200 45 -200 45
777390665.11085 -0.87217921 -21.36904 -200 45 -200 45 -200 45
778390781.79697 -0.8830474 -21.389606 -200 45 -200 45 -200 45
779390898.48308 -0.91178113 -21.447784 -200 45 -200 45 -200 45
780391015.16919 -0.96405137 -21.555313 -200 45 -200 45 -200 45
781391131.85531 -0.98159993 -21.584614 -200 45 -200 45 -200 45
782391248.54142 -0.99029505 -21.619619 -200 45 -200 45 -200 45
783391365.22754 -0.99477053 -21.614214 -200 45 -200 45 -200 45
784391481.91365 -1.0008446 -21.644178 -200 45 -200 45 -200 45
785391598.59977 -1.0101297 -21.66922 -200 45 -200 45 -200 45
786391715.28588 -1.0188563 -21.700169 -200 45 -200 45 -200 45
787391831.972 -1.0172813 -21.701492 -200 45 -200 45 -200 45
788391948.65811 -1.0111313 -21.694683 -200 45 -200 45 -200 45
789392065.34422 -1.0020475 -21.679426 -200 45 -200 45 -200 45
790392182.03034 -0.994847 -21.653727 -200 45 -200 45 -200 45
791392298.71645 -0.98089969 -21.657639 -200 45 -200 45 -200 45
792392415.40257 -0.95234734 -21.611475 -200 45 -200 45 -200 45
793392532.08868 -0.91344196 -21.561073 -200 45 -200 45 -200 45
794392648.7748 -0.92008054 -21.592199 -200 45 -200 45 -200 45
795392765.46091 -0.93893915 -21.649336 -200 45 -200 45 -200 45
796392882.14702 -0.99892384 -21.799103 -200 45 -200 45 -200 45
797392998.83314 -1.021019 -21.890747 -200 45 -200 45 -200 45
798393115.51925 -1.0319484 -21.933565 -200 45 -200 45 -200 45
799393232.20537 -1.0344908 -21.969988 -200 45 -200 45 -200 45
800393348.89148 -1.03953 -22.010515 -200 45 -200 45 -200 45
801393465.5776 -1.046335 -22.079769 -200 45 -200 45 -200 45
802393582.26371 -1.0546044 -22.137304 -200 45 -200 45 -200 45
803393698.94983 -1.0578269 -22.196476 -200 45 -200 45 -200 45
804393815.63594 -1.050787 -22.202372 -200 45 -200 45 -200 45
805393932.32205 -1.0408478 -22.220301 -200 45 -200 45 -200 45
806394049.00817 -1.0336332 -22.244755 -200 45 -200 45 -200 45
807394165.69428 -1.0203124 -22.261803 -200 45 -200 45 -200 45
808394282.3804 -0.99311179 -22.260742 -200 45 -200 45 -200 45
809394399.06651 -0.95245206 -22.216225 -200 45 -200 45 -200 45
810394515.75263 -0.94947857 -22.259762 -200 45 -200 45 -200 45
811394632.43874 -0.95944142 -22.333897 -200 45 -200 45 -200 45
812394749.12485 -1.0197401 -22.482672 -200 45 -200 45 -200 45
813394865.81097 -1.0492722 -22.59833 -200 45 -200 45 -200 45
814394982.49708 -1.0587691 -22.650698 -200 45 -200 45 -200 45
815395099.1832 -1.0623243 -22.715778 -200 45 -200 45 -200 45
816395215.86931 -1.0625728 -22.758121 -200 45 -200 45 -200 45
817395332.55543 -1.0738833 -22.835014 -200 45 -200 45 -200 45
818395449.24154 -1.0790919 -22.911455 -200 45 -200 45 -200 45
819395565.92765 -1.0812384 -22.9505 -200 45 -200 45 -200 45
820395682.61377 -1.0718993 -22.976269 -200 45 -200 45 -200 45
821395799.29988 -1.0642087 -22.983103 -200 45 -200 45 -200 45
822395915.986 -1.0521805 -22.982306 -200 45 -200 45 -200 45
823396032.67211 -1.0420144 -23.007879 -200 45 -200 45 -200 45
824396149.35823 -1.0175368 -22.997345 -200 45 -200 45 -200 45
825396266.04434 -0.97440541 -22.971062 -200 45 -200 45 -200 45
826396382.73046 -0.95865309 -22.96377 -200 45 -200 45 -200 45
827396499.41657 -0.96675253 -23.026052 -200 45 -200 45 -200 45
828396616.10268 -1.0206958 -23.137287 -200 45 -200 45 -200 45
829396732.7888 -1.0532889 -23.230982 -200 45 -200 45 -200 45
830396849.47491 -1.0671179 -23.291655 -200 45 -200 45 -200 45
831396966.16103 -1.0702682 -23.333456 -200 45 -200 45 -200 45
832397082.84714 -1.0722044 -23.349512 -200 45 -200 45 -200 45
833397199.53326 -1.0759728 -23.387472 -200 45 -200 45 -200 45
834397316.21937 -1.0840477 -23.421902 -200 45 -200 45 -200 45
835397432.90548 -1.0891614 -23.471485 -200 45 -200 45 -200 45
836397549.5916 -1.0820386 -23.451982 -200 45 -200 45 -200 45
837397666.27771 -1.0740216 -23.44343 -200 45 -200 45 -200 45
838397782.96383 -1.0648319 -23.439697 -200 45 -200 45 -200 45
839397899.64994 -1.052864 -23.422762 -200 45 -200 45 -200 45
840398016.33606 -1.0322758 -23.390364 -200 45 -200 45 -200 45
841398133.02217 -0.99415636 -23.32408 -200 45 -200 45 -200 45
842398249.70828 -0.96462214 -23.293207 -200 45 -200 45 -200 45
843398366.3944 -0.97610593 -23.306751 -200 45 -200 45 -200 45
844398483.08051 -1.0191512 -23.371078 -200 45 -200 45 -200 45
845398599.76663 -1.0620168 -23.440811 -200 45 -200 45 -200 45
846398716.45274 -1.0788908 -23.482187 -200 45 -200 45 -200 45
847398833.13886 -1.0843806 -23.476389 -200 45 -200 45 -200 45
848398949.82497 -1.0893338 -23.475592 -200 45 -200 45 -200 45
849399066.51109 -1.0942945 -23.473808 -200 45 -200 45 -200 45
850399183.1972 -1.1018584 -23.503313 -200 45 -200 45 -200 45
851399299.88331 -1.1090839 -23.501129 -200 45 -200 45 -200 45
852399416.56943 -1.1045542 -23.483715 -200 45 -200 45 -200 45
853399533.25554 -1.0973226 -23.444948 -200 45 -200 45 -200 45
854399649.94166 -1.0865556 -23.434 -200 45 -200 45 -200 45
855399766.62777 -1.0791298 -23.3908 -200 45 -200 45 -200 45
856399883.31389 -1.0653526 -23.365805 -200 45 -200 45 -200 45
857400000 -1.0331781 -23.296188 -200 45 -200 45 -200 45
858400116.68611 -0.99548507 -23.242434 -200 45 -200 45 -200 45
859400233.37223 -1.00802 -23.237627 -200 45 -200 45 -200 45
860400350.05834 -1.0357524 -23.277199 -200 45 -200 45 -200 45
861400466.74446 -1.0920111 -23.350723 -200 45 -200 45 -200 45
862400583.43057 -1.1125932 -23.37394 -200 45 -200 45 -200 45
863400700.11669 -1.1231345 -23.387129 -200 45 -200 45 -200 45
864400816.8028 -1.1273961 -23.396544 -200 45 -200 45 -200 45
865400933.48891 -1.1346878 -23.402098 -200 45 -200 45 -200 45
866401050.17503 -1.1449134 -23.413675 -200 45 -200 45 -200 45
867401166.86114 -1.1520624 -23.434412 -200 45 -200 45 -200 45
868401283.54726 -1.1543348 -23.434528 -200 45 -200 45 -200 45
869401400.23337 -1.1511611 -23.409948 -200 45 -200 45 -200 45
870401516.91949 -1.1411386 -23.387896 -200 45 -200 45 -200 45
871401633.6056 -1.1320858 -23.384495 -200 45 -200 45 -200 45
872401750.29172 -1.1218393 -23.35935 -200 45 -200 45 -200 45
873401866.97783 -1.0928084 -23.319223 -200 45 -200 45 -200 45
874401983.66394 -1.0521393 -23.279316 -200 45 -200 45 -200 45
875402100.35006 -1.0598257 -23.308668 -200 45 -200 45 -200 45
876402217.03617 -1.0758246 -23.33725 -200 45 -200 45 -200 45
877402333.72229 -1.1384643 -23.439705 -200 45 -200 45 -200 45
878402450.4084 -1.1679146 -23.484236 -200 45 -200 45 -200 45
879402567.09452 -1.1781121 -23.525217 -200 45 -200 45 -200 45
880402683.78063 -1.180814 -23.545021 -200 45 -200 45 -200 45
881402800.46674 -1.1855009 -23.566666 -200 45 -200 45 -200 45
882402917.15286 -1.197502 -23.619766 -200 45 -200 45 -200 45
883403033.83897 -1.2021192 -23.666889 -200 45 -200 45 -200 45
884403150.52509 -1.2082851 -23.709929 -200 45 -200 45 -200 45
885403267.2112 -1.2014341 -23.692377 -200 45 -200 45 -200 45
886403383.89732 -1.1909095 -23.711407 -200 45 -200 45 -200 45
887403500.58343 -1.1813681 -23.72113 -200 45 -200 45 -200 45
888403617.26954 -1.1667719 -23.74913 -200 45 -200 45 -200 45
889403733.95566 -1.1406242 -23.736813 -200 45 -200 45 -200 45
890403850.64177 -1.0957534 -23.713884 -200 45 -200 45 -200 45
891403967.32789 -1.088709 -23.736702 -200 45 -200 45 -200 45
892404084.014 -1.0979774 -23.793554 -200 45 -200 45 -200 45
893404200.70012 -1.1580957 -23.921648 -200 45 -200 45 -200 45
894404317.38623 -1.1896137 -23.999468 -200 45 -200 45 -200 45
895404434.07235 -1.2007978 -24.057283 -200 45 -200 45 -200 45
896404550.75846 -1.201684 -24.114773 -200 45 -200 45 -200 45
897404667.44457 -1.2020581 -24.156002 -200 45 -200 45 -200 45
898404784.13069 -1.2110006 -24.22097 -200 45 -200 45 -200 45
899404900.8168 -1.2160565 -24.275446 -200 45 -200 45 -200 45
900405017.50292 -1.221303 -24.336136 -200 45 -200 45 -200 45
901405134.18903 -1.2121296 -24.366461 -200 45 -200 45 -200 45
902405250.87515 -1.1992923 -24.374916 -200 45 -200 45 -200 45
903405367.56126 -1.1888509 -24.398029 -200 45 -200 45 -200 45
904405484.24737 -1.1729745 -24.41477 -200 45 -200 45 -200 45
905405600.93349 -1.1486278 -24.419905 -200 45 -200 45 -200 45
906405717.6196 -1.1082151 -24.430807 -200 45 -200 45 -200 45
907405834.30572 -1.0842321 -24.441584 -200 45 -200 45 -200 45
908405950.99183 -1.0918027 -24.484133 -200 45 -200 45 -200 45
909406067.67795 -1.1415113 -24.585161 -200 45 -200 45 -200 45
910406184.36406 -1.1784338 -24.663975 -200 45 -200 45 -200 45
911406301.05018 -1.1913464 -24.739819 -200 45 -200 45 -200 45
912406417.73629 -1.1953329 -24.764936 -200 45 -200 45 -200 45
913406534.4224 -1.1956526 -24.798035 -200 45 -200 45 -200 45
914406651.10852 -1.1991439 -24.835079 -200 45 -200 45 -200 45
915406767.79463 -1.2048281 -24.881536 -200 45 -200 45 -200 45
916406884.48075 -1.2085035 -24.909508 -200 45 -200 45 -200 45
917407001.16686 -1.2017058 -24.91872 -200 45 -200 45 -200 45
918407117.85298 -1.1913825 -24.920746 -200 45 -200 45 -200 45
919407234.53909 -1.1815519 -24.897999 -200 45 -200 45 -200 45
920407351.2252 -1.169796 -24.904707 -200 45 -200 45 -200 45
921407467.91132 -1.1458395 -24.896748 -200 45 -200 45 -200 45
922407584.59743 -1.1086311 -24.867388 -200 45 -200 45 -200 45
923407701.28355 -1.0748218 -24.848131 -200 45 -200 45 -200 45
924407817.96966 -1.0862634 -24.862823 -200 45 -200 45 -200 45
925407934.65578 -1.1207709 -24.913624 -200 45 -200 45 -200 45
926408051.34189 -1.167964 -24.952974 -200 45 -200 45 -200 45
927408168.028 -1.1836201 -24.993786 -200 45 -200 45 -200 45
928408284.71412 -1.1909136 -25.004927 -200 45 -200 45 -200 45
929408401.40023 -1.1911439 -24.993591 -200 45 -200 45 -200 45
930408518.08635 -1.1964505 -25.011986 -200 45 -200 45 -200 45
931408634.77246 -1.2038754 -25.027351 -200 45 -200 45 -200 45
932408751.45858 -1.2118706 -25.021584 -200 45 -200 45 -200 45
933408868.14469 -1.2076129 -25.002363 -200 45 -200 45 -200 45
934408984.83081 -1.1962247 -24.987244 -200 45 -200 45 -200 45
935409101.51692 -1.1883526 -24.963299 -200 45 -200 45 -200 45
936409218.20303 -1.1789985 -24.939444 -200 45 -200 45 -200 45
937409334.88915 -1.1601155 -24.904844 -200 45 -200 45 -200 45
938409451.57526 -1.1307831 -24.863152 -200 45 -200 45 -200 45
939409568.26138 -1.0905015 -24.833006 -200 45 -200 45 -200 45
940409684.94749 -1.0984044 -24.827629 -200 45 -200 45 -200 45
941409801.63361 -1.1210183 -24.847116 -200 45 -200 45 -200 45
942409918.31972 -1.1785927 -24.899096 -200 45 -200 45 -200 45
943410035.00583 -1.2016095 -24.9193 -200 45 -200 45 -200 45
944410151.69195 -1.2130413 -24.923544 -200 45 -200 45 -200 45
945410268.37806 -1.2158732 -24.932562 -200 45 -200 45 -200 45
946410385.06418 -1.2208463 -24.934998 -200 45 -200 45 -200 45
947410501.75029 -1.2330097 -24.94474 -200 45 -200 45 -200 45
948410618.43641 -1.2418556 -24.965174 -200 45 -200 45 -200 45
949410735.12252 -1.2423762 -24.957798 -200 45 -200 45 -200 45
950410851.80863 -1.2342529 -24.940058 -200 45 -200 45 -200 45
951410968.49475 -1.2266158 -24.913399 -200 45 -200 45 -200 45
952411085.18086 -1.2205813 -24.911798 -200 45 -200 45 -200 45
953411201.86698 -1.2062635 -24.898863 -200 45 -200 45 -200 45
954411318.55309 -1.1780816 -24.875788 -200 45 -200 45 -200 45
955411435.23921 -1.1371934 -24.85763 -200 45 -200 45 -200 45
956411551.92532 -1.139034 -24.865747 -200 45 -200 45 -200 45
957411668.61144 -1.1541555 -24.878508 -200 45 -200 45 -200 45
958411785.29755 -1.2170153 -24.963636 -200 45 -200 45 -200 45
959411901.98366 -1.2490108 -25.006432 -200 45 -200 45 -200 45
960412018.66978 -1.2601492 -25.056442 -200 45 -200 45 -200 45
961412135.35589 -1.2637658 -25.067921 -200 45 -200 45 -200 45
962412252.04201 -1.2696103 -25.106672 -200 45 -200 45 -200 45
963412368.72812 -1.2778282 -25.141607 -200 45 -200 45 -200 45
964412485.41424 -1.2859503 -25.181713 -200 45 -200 45 -200 45
965412602.10035 -1.2908827 -25.227365 -200 45 -200 45 -200 45
966412718.78646 -1.2848537 -25.231573 -200 45 -200 45 -200 45
967412835.47258 -1.2747443 -25.247343 -200 45 -200 45 -200 45
968412952.15869 -1.2668877 -25.267544 -200 45 -200 45 -200 45
969413068.84481 -1.2510686 -25.29117 -200 45 -200 45 -200 45
970413185.53092 -1.2288306 -25.300255 -200 45 -200 45 -200 45
971413302.21704 -1.1872609 -25.297575 -200 45 -200 45 -200 45
972413418.90315 -1.1742172 -25.345263 -200 45 -200 45 -200 45
973413535.58926 -1.1844205 -25.390924 -200 45 -200 45 -200 45
974413652.27538 -1.2431619 -25.480995 -200 45 -200 45 -200 45
975413768.96149 -1.2778063 -25.565626 -200 45 -200 45 -200 45
976413885.64761 -1.292891 -25.643652 -200 45 -200 45 -200 45
977414002.33372 -1.2967921 -25.677231 -200 45 -200 45 -200 45
978414119.01984 -1.2979629 -25.72995 -200 45 -200 45 -200 45
979414235.70595 -1.3047243 -25.790087 -200 45 -200 45 -200 45
980414352.39207 -1.3117574 -25.862776 -200 45 -200 45 -200 45
981414469.07818 -1.3181814 -25.914804 -200 45 -200 45 -200 45
982414585.76429 -1.3119158 -25.943981 -200 45 -200 45 -200 45
983414702.45041 -1.2994525 -25.980797 -200 45 -200 45 -200 45
984414819.13652 -1.2891439 -26.003344 -200 45 -200 45 -200 45
985414935.82264 -1.2777226 -26.035851 -200 45 -200 45 -200 45
986415052.50875 -1.252454 -26.049541 -200 45 -200 45 -200 45
987415169.19487 -1.2127169 -26.068796 -200 45 -200 45 -200 45
988415285.88098 -1.1850328 -26.095999 -200 45 -200 45 -200 45
989415402.56709 -1.1915168 -26.13661 -200 45 -200 45 -200 45
990415519.25321 -1.2399609 -26.224445 -200 45 -200 45 -200 45
991415635.93932 -1.2831583 -26.300735 -200 45 -200 45 -200 45
992415752.62544 -1.2925811 -26.352026 -200 45 -200 45 -200 45
993415869.31155 -1.2991142 -26.395824 -200 45 -200 45 -200 45
994415985.99767 -1.3004358 -26.428404 -200 45 -200 45 -200 45
995416102.68378 -1.3039424 -26.461327 -200 45 -200 45 -200 45
996416219.36989 -1.3114897 -26.509604 -200 45 -200 45 -200 45
997416336.05601 -1.3177055 -26.551041 -200 45 -200 45 -200 45
998416452.74212 -1.3065485 -26.566156 -200 45 -200 45 -200 45
999416569.42824 -1.2960025 -26.572977 -200 45 -200 45 -200 45
1000416686.1144 -1.2829816 -26.574839 -200 45 -200 45 -200 45
1001416802.8005 -1.2713038 -26.577991 -200 45 -200 45 -200 45
1002416919.4866 -1.251333 -26.582235 -200 45 -200 45 -200 45
1003417036.1727 -1.2161973 -26.574684 -200 45 -200 45 -200 45
1004417152.8588 -1.1768986 -26.566462 -200 45 -200 45 -200 45
1005417269.5449 -1.1855539 -26.595909 -200 45 -200 45 -200 45
1006417386.231 -1.2114946 -26.616051 -200 45 -200 45 -200 45
1007417502.9172 -1.2623178 -26.685806 -200 45 -200 45 -200 45
1008417619.6033 -1.283748 -26.712227 -200 45 -200 45 -200 45
1009417736.2894 -1.2918655 -26.714334 -200 45 -200 45 -200 45
1010417852.9755 -1.2919986 -26.719368 -200 45 -200 45 -200 45
1011417969.6616 -1.2943391 -26.752869 -200 45 -200 45 -200 45
1012418086.3477 -1.3038257 -26.742252 -200 45 -200 45 -200 45
1013418203.0338 -1.3105042 -26.765293 -200 45 -200 45 -200 45
1014418319.72 -1.3077656 -26.758072 -200 45 -200 45 -200 45
1015418436.4061 -1.2997863 -26.746635 -200 45 -200 45 -200 45
1016418553.0922 -1.2853308 -26.73163 -200 45 -200 45 -200 45
1017418669.7783 -1.2774433 -26.706875 -200 45 -200 45 -200 45
1018418786.4644 -1.2616339 -26.685467 -200 45 -200 45 -200 45
1019418903.1505 -1.230667 -26.659035 -200 45 -200 45 -200 45
1020419019.8366 -1.1912827 -26.632553 -200 45 -200 45 -200 45
1021419136.5228 -1.1947875 -26.627106 -200 45 -200 45 -200 45
1022419253.2089 -1.2147102 -26.6371 -200 45 -200 45 -200 45
1023419369.895 -1.2739545 -26.670357 -200 45 -200 45 -200 45
1024419486.5811 -1.2998177 -26.672024 -200 45 -200 45 -200 45
1025419603.2672 -1.308731 -26.694653 -200 45 -200 45 -200 45
1026419719.9533 -1.3133594 -26.688427 -200 45 -200 45 -200 45
1027419836.6394 -1.3190784 -26.684399 -200 45 -200 45 -200 45
1028419953.3256 -1.3283799 -26.692019 -200 45 -200 45 -200 45
1029420070.0117 -1.3377548 -26.723673 -200 45 -200 45 -200 45
1030420186.6978 -1.3437718 -26.710115 -200 45 -200 45 -200 45
1031420303.3839 -1.3350182 -26.697987 -200 45 -200 45 -200 45
1032420420.07 -1.3250375 -26.684008 -200 45 -200 45 -200 45
1033420536.7561 -1.3190315 -26.656279 -200 45 -200 45 -200 45
1034420653.4422 -1.30685 -26.658028 -200 45 -200 45 -200 45
1035420770.1284 -1.2845423 -26.645321 -200 45 -200 45 -200 45
1036420886.8145 -1.2420995 -26.641766 -200 45 -200 45 -200 45
1037421003.5006 -1.2382537 -26.659155 -200 45 -200 45 -200 45
1038421120.1867 -1.2527894 -26.659323 -200 45 -200 45 -200 45
1039421236.8728 -1.3167102 -26.69689 -200 45 -200 45 -200 45
1040421353.5589 -1.3512303 -26.725727 -200 45 -200 45 -200 45
1041421470.245 -1.3636887 -26.760794 -200 45 -200 45 -200 45
1042421586.9312 -1.3714883 -26.771578 -200 45 -200 45 -200 45
1043421703.6173 -1.3749952 -26.796156 -200 45 -200 45 -200 45
1044421820.3034 -1.3879864 -26.814341 -200 45 -200 45 -200 45
1045421936.9895 -1.3955356 -26.862919 -200 45 -200 45 -200 45
1046422053.6756 -1.4032137 -26.911123 -200 45 -200 45 -200 45
1047422170.3617 -1.3962896 -26.907402 -200 45 -200 45 -200 45
1048422287.0478 -1.3894554 -26.916965 -200 45 -200 45 -200 45
1049422403.734 -1.3830582 -26.933792 -200 45 -200 45 -200 45
1050422520.4201 -1.3703482 -26.956781 -200 45 -200 45 -200 45
1051422637.1062 -1.349174 -26.974186 -200 45 -200 45 -200 45
1052422753.7923 -1.3086361 -27.003057 -200 45 -200 45 -200 45
1053422870.4784 -1.2914592 -27.043036 -200 45 -200 45 -200 45
1054422987.1645 -1.3009262 -27.067286 -200 45 -200 45 -200 45
1055423103.8506 -1.3588421 -27.133509 -200 45 -200 45 -200 45
1056423220.5368 -1.397356 -27.199652 -200 45 -200 45 -200 45
1057423337.2229 -1.4140235 -27.256567 -200 45 -200 45 -200 45
1058423453.909 -1.420494 -27.29837 -200 45 -200 45 -200 45
1059423570.5951 -1.4220747 -27.332506 -200 45 -200 45 -200 45
1060423687.2812 -1.4299154 -27.39395 -200 45 -200 45 -200 45
1061423803.9673 -1.4391861 -27.455427 -200 45 -200 45 -200 45
1062423920.6534 -1.4442799 -27.515757 -200 45 -200 45 -200 45
1063424037.3396 -1.4392993 -27.53219 -200 45 -200 45 -200 45
1064424154.0257 -1.4292175 -27.565475 -200 45 -200 45 -200 45
1065424270.7118 -1.4188496 -27.589018 -200 45 -200 45 -200 45
1066424387.3979 -1.4049993 -27.631721 -200 45 -200 45 -200 45
1067424504.084 -1.3857 -27.663914 -200 45 -200 45 -200 45
1068424620.7701 -1.3476528 -27.695192 -200 45 -200 45 -200 45
1069424737.4562 -1.3142631 -27.736269 -200 45 -200 45 -200 45
1070424854.1424 -1.3249189 -27.782856 -200 45 -200 45 -200 45
1071424970.8285 -1.3661753 -27.841028 -200 45 -200 45 -200 45
1072425087.5146 -1.411272 -27.886612 -200 45 -200 45 -200 45
1073425204.2007 -1.4291426 -27.961992 -200 45 -200 45 -200 45
1074425320.8868 -1.4348611 -27.988192 -200 45 -200 45 -200 45
1075425437.5729 -1.4333165 -28.027431 -200 45 -200 45 -200 45
1076425554.259 -1.4373653 -28.061159 -200 45 -200 45 -200 45
1077425670.9452 -1.4446073 -28.124763 -200 45 -200 45 -200 45
1078425787.6313 -1.4509572 -28.148775 -200 45 -200 45 -200 45
1079425904.3174 -1.444737 -28.169834 -200 45 -200 45 -200 45
1080426021.0035 -1.4333183 -28.205919 -200 45 -200 45 -200 45
1081426137.6896 -1.4219571 -28.195467 -200 45 -200 45 -200 45
1082426254.3757 -1.4115952 -28.227568 -200 45 -200 45 -200 45
1083426371.0618 -1.3894042 -28.237953 -200 45 -200 45 -200 45
1084426487.748 -1.3556796 -28.245722 -200 45 -200 45 -200 45
1085426604.4341 -1.3137863 -28.246386 -200 45 -200 45 -200 45
1086426721.1202 -1.3185941 -28.272276 -200 45 -200 45 -200 45
1087426837.8063 -1.3418647 -28.298162 -200 45 -200 45 -200 45
1088426954.4924 -1.397675 -28.313837 -200 45 -200 45 -200 45
1089427071.1785 -1.4189246 -28.345659 -200 45 -200 45 -200 45
1090427187.8646 -1.4247102 -28.362621 -200 45 -200 45 -200 45
1091427304.5508 -1.4261543 -28.374538 -200 45 -200 45 -200 45
1092427421.2369 -1.4268546 -28.383101 -200 45 -200 45 -200 45
1093427537.923 -1.4355365 -28.412945 -200 45 -200 45 -200 45
1094427654.6091 -1.4396033 -28.42025 -200 45 -200 45 -200 45
1095427771.2952 -1.4402286 -28.422522 -200 45 -200 45 -200 45
1096427887.9813 -1.4310579 -28.414553 -200 45 -200 45 -200 45
1097428004.6674 -1.4174889 -28.391594 -200 45 -200 45 -200 45
1098428121.3536 -1.4121033 -28.384237 -200 45 -200 45 -200 45
1099428238.0397 -1.3934932 -28.362877 -200 45 -200 45 -200 45
1100428354.7258 -1.3655173 -28.358257 -200 45 -200 45 -200 45
1101428471.4119 -1.3212897 -28.349899 -200 45 -200 45 -200 45
1102428588.098 -1.3216879 -28.361542 -200 45 -200 45 -200 45
1103428704.7841 -1.335511 -28.346359 -200 45 -200 45 -200 45
1104428821.4702 -1.3941151 -28.347946 -200 45 -200 45 -200 45
1105428938.1564 -1.4257902 -28.37088 -200 45 -200 45 -200 45
1106429054.8425 -1.4353049 -28.365553 -200 45 -200 45 -200 45
1107429171.5286 -1.4418879 -28.358355 -200 45 -200 45 -200 45
1108429288.2147 -1.4411938 -28.355947 -200 45 -200 45 -200 45
1109429404.9008 -1.4546399 -28.370659 -200 45 -200 45 -200 45
1110429521.5869 -1.4612259 -28.363476 -200 45 -200 45 -200 45
1111429638.273 -1.4647738 -28.370281 -200 45 -200 45 -200 45
1112429754.9592 -1.45908 -28.369165 -200 45 -200 45 -200 45
1113429871.6453 -1.4501163 -28.340107 -200 45 -200 45 -200 45
1114429988.3314 -1.4439008 -28.335903 -200 45 -200 45 -200 45
1115430105.0175 -1.4340947 -28.343185 -200 45 -200 45 -200 45
1116430221.7036 -1.4120315 -28.322901 -200 45 -200 45 -200 45
1117430338.3897 -1.3728797 -28.338236 -200 45 -200 45 -200 45
1118430455.0758 -1.3636229 -28.33185 -200 45 -200 45 -200 45
1119430571.762 -1.3745831 -28.328421 -200 45 -200 45 -200 45
1120430688.4481 -1.4358522 -28.332247 -200 45 -200 45 -200 45
1121430805.1342 -1.4712887 -28.343615 -200 45 -200 45 -200 45
1122430921.8203 -1.4831873 -28.382706 -200 45 -200 45 -200 45
1123431038.5064 -1.490898 -28.393717 -200 45 -200 45 -200 45
1124431155.1925 -1.4966145 -28.411171 -200 45 -200 45 -200 45
1125431271.8786 -1.5082486 -28.457018 -200 45 -200 45 -200 45
1126431388.5648 -1.5172472 -28.491516 -200 45 -200 45 -200 45
1127431505.2509 -1.5250354 -28.524755 -200 45 -200 45 -200 45
1128431621.937 -1.5221097 -28.543741 -200 45 -200 45 -200 45
1129431738.6231 -1.5129374 -28.561131 -200 45 -200 45 -200 45
1130431855.3092 -1.5072856 -28.597004 -200 45 -200 45 -200 45
1131431971.9953 -1.5016631 -28.627077 -200 45 -200 45 -200 45
1132432088.6814 -1.4816763 -28.666578 -200 45 -200 45 -200 45
1133432205.3676 -1.4475635 -28.700001 -200 45 -200 45 -200 45
1134432322.0537 -1.4226583 -28.751753 -200 45 -200 45 -200 45
1135432438.7398 -1.4386604 -28.809813 -200 45 -200 45 -200 45
1136432555.4259 -1.4894577 -28.861437 -200 45 -200 45 -200 45
1137432672.112 -1.5350597 -28.935841 -200 45 -200 45 -200 45
1138432788.7981 -1.5595373 -29.002851 -200 45 -200 45 -200 45
1139432905.4842 -1.5695201 -29.082823 -200 45 -200 45 -200 45
1140433022.1704 -1.578846 -29.160919 -200 45 -200 45 -200 45
1141433138.8565 -1.5954494 -29.256409 -200 45 -200 45 -200 45
1142433255.5426 -1.617346 -29.37414 -200 45 -200 45 -200 45
1143433372.2287 -1.64213 -29.479879 -200 45 -200 45 -200 45
1144433488.9148 -1.6616447 -29.557735 -200 45 -200 45 -200 45
1145433605.6009 -1.6902093 -29.597212 -200 45 -200 45 -200 45
1146433722.287 -1.7322444 -29.490248 -200 45 -200 45 -200 45
1147433838.9732 -1.757164 -29.105766 -200 45 -200 45 -200 45
1148433955.6593 -1.7204026 -28.697063 -200 45 -200 45 -200 45
1149434072.3454 -1.6467746 -28.520458 -200 45 -200 45 -200 45
1150434189.0315 -1.5842342 -28.532375 -200 45 -200 45 -200 45
1151434305.7176 -1.5853252 -28.518232 -200 45 -200 45 -200 45
1152434422.4037 -1.6051747 -28.362938 -200 45 -200 45 -200 45
1153434539.0898 -1.6156086 -28.345251 -200 45 -200 45 -200 45
1154434655.776 -1.6022787 -28.438166 -200 45 -200 45 -200 45
1155434772.4621 -1.5940577 -28.570414 -200 45 -200 45 -200 45
1156434889.1482 -1.5849806 -28.679619 -200 45 -200 45 -200 45
1157435005.8343 -1.5789953 -28.741512 -200 45 -200 45 -200 45
1158435122.5204 -1.5760312 -28.845915 -200 45 -200 45 -200 45
1159435239.2065 -1.5750303 -28.945402 -200 45 -200 45 -200 45
1160435355.8926 -1.567929 -29.027765 -200 45 -200 45 -200 45
1161435472.5788 -1.5570265 -29.111643 -200 45 -200 45 -200 45
1162435589.2649 -1.5438844 -29.172359 -200 45 -200 45 -200 45
1163435705.951 -1.5305899 -29.204561 -200 45 -200 45 -200 45
1164435822.6371 -1.5121075 -29.262367 -200 45 -200 45 -200 45
1165435939.3232 -1.4773605 -29.313301 -200 45 -200 45 -200 45
1166436056.0093 -1.4342121 -29.368177 -200 45 -200 45 -200 45
1167436172.6954 -1.4388561 -29.416649 -200 45 -200 45 -200 45
1168436289.3816 -1.4544406 -29.440239 -200 45 -200 45 -200 45
1169436406.0677 -1.5116045 -29.466423 -200 45 -200 45 -200 45
1170436522.7538 -1.5352554 -29.500793 -200 45 -200 45 -200 45
1171436639.4399 -1.5435741 -29.536591 -200 45 -200 45 -200 45
1172436756.126 -1.5449445 -29.531034 -200 45 -200 45 -200 45
1173436872.8121 -1.5449834 -29.558699 -200 45 -200 45 -200 45
1174436989.4982 -1.5506649 -29.584826 -200 45 -200 45 -200 45
1175437106.1844 -1.5578524 -29.604782 -200 45 -200 45 -200 45
1176437222.8705 -1.5564183 -29.626833 -200 45 -200 45 -200 45
1177437339.5566 -1.5455068 -29.613016 -200 45 -200 45 -200 45
1178437456.2427 -1.534705 -29.610325 -200 45 -200 45 -200 45
1179437572.9288 -1.5260372 -29.615 -200 45 -200 45 -200 45
1180437689.6149 -1.5082061 -29.610855 -200 45 -200 45 -200 45
1181437806.3011 -1.4828372 -29.621038 -200 45 -200 45 -200 45
1182437922.9872 -1.4390411 -29.628473 -200 45 -200 45 -200 45
1183438039.6733 -1.4323835 -29.625986 -200 45 -200 45 -200 45
1184438156.3594 -1.4425926 -29.626038 -200 45 -200 45 -200 45
1185438273.0455 -1.5019659 -29.60874 -200 45 -200 45 -200 45
1186438389.7316 -1.5346351 -29.615479 -200 45 -200 45 -200 45
1187438506.4177 -1.544202 -29.601473 -200 45 -200 45 -200 45
1188438623.1039 -1.5464085 -29.599615 -200 45 -200 45 -200 45
1189438739.79 -1.5515051 -29.607468 -200 45 -200 45 -200 45
1190438856.4761 -1.5583193 -29.599627 -200 45 -200 45 -200 45
1191438973.1622 -1.5672194 -29.603294 -200 45 -200 45 -200 45
1192439089.8483 -1.5725236 -29.600634 -200 45 -200 45 -200 45
1193439206.5344 -1.5638499 -29.578653 -200 45 -200 45 -200 45
1194439323.2205 -1.5558089 -29.559536 -200 45 -200 45 -200 45
1195439439.9067 -1.5483795 -29.5406 -200 45 -200 45 -200 45
1196439556.5928 -1.5367829 -29.547859 -200 45 -200 45 -200 45
1197439673.2789 -1.5138947 -29.518623 -200 45 -200 45 -200 45
1198439789.965 -1.4749218 -29.553137 -200 45 -200 45 -200 45
1199439906.6511 -1.4605544 -29.54645 -200 45 -200 45 -200 45
1200440023.3372 -1.4713057 -29.549112 -200 45 -200 45 -200 45
1201440140.0233 -1.5271955 -29.529942 -200 45 -200 45 -200 45
1202440256.7095 -1.5644332 -29.545404 -200 45 -200 45 -200 45
1203440373.3956 -1.5806582 -29.545609 -200 45 -200 45 -200 45
1204440490.0817 -1.5874572 -29.562197 -200 45 -200 45 -200 45
1205440606.7678 -1.5952203 -29.56111 -200 45 -200 45 -200 45
1206440723.4539 -1.6056625 -29.579763 -200 45 -200 45 -200 45
1207440840.14 -1.6192709 -29.597403 -200 45 -200 45 -200 45
1208440956.8261 -1.6303089 -29.597492 -200 45 -200 45 -200 45
1209441073.5123 -1.6274943 -29.559307 -200 45 -200 45 -200 45
1210441190.1984 -1.6167829 -29.547655 -200 45 -200 45 -200 45
1211441306.8845 -1.6074694 -29.543564 -200 45 -200 45 -200 45
1212441423.5706 -1.5953354 -29.54343 -200 45 -200 45 -200 45
1213441540.2567 -1.5754843 -29.568958 -200 45 -200 45 -200 45
1214441656.9428 -1.5417632 -29.609745 -200 45 -200 45 -200 45
1215441773.6289 -1.5078324 -29.653782 -200 45 -200 45 -200 45
1216441890.3151 -1.5189472 -29.692785 -200 45 -200 45 -200 45
1217442007.0012 -1.5614512 -29.699108 -200 45 -200 45 -200 45
1218442123.6873 -1.6076002 -29.717115 -200 45 -200 45 -200 45
1219442240.3734 -1.6260314 -29.743988 -200 45 -200 45 -200 45
1220442357.0595 -1.6330417 -29.801765 -200 45 -200 45 -200 45
1221442473.7456 -1.6347685 -29.832924 -200 45 -200 45 -200 45
1222442590.4317 -1.6408819 -29.890226 -200 45 -200 45 -200 45
1223442707.1179 -1.6531625 -29.936388 -200 45 -200 45 -200 45
1224442823.804 -1.6606816 -29.982611 -200 45 -200 45 -200 45
1225442940.4901 -1.6561733 -30.028927 -200 45 -200 45 -200 45
1226443057.1762 -1.6482862 -30.06809 -200 45 -200 45 -200 45
1227443173.8623 -1.6393347 -30.10076 -200 45 -200 45 -200 45
1228443290.5484 -1.6281646 -30.13212 -200 45 -200 45 -200 45
1229443407.2345 -1.6119983 -30.17914 -200 45 -200 45 -200 45
1230443523.9207 -1.5799364 -30.238071 -200 45 -200 45 -200 45
1231443640.6068 -1.5403152 -30.325708 -200 45 -200 45 -200 45
1232443757.2929 -1.5478072 -30.360935 -200 45 -200 45 -200 45
1233443873.979 -1.5698222 -30.39661 -200 45 -200 45 -200 45
1234443990.6651 -1.6280073 -30.423357 -200 45 -200 45 -200 45
1235444107.3512 -1.6520275 -30.474409 -200 45 -200 45 -200 45
1236444224.0373 -1.6569239 -30.509756 -200 45 -200 45 -200 45
1237444340.7235 -1.6595249 -30.572594 -200 45 -200 45 -200 45
1238444457.4096 -1.6620804 -30.607639 -200 45 -200 45 -200 45
1239444574.0957 -1.670131 -30.655184 -200 45 -200 45 -200 45
1240444690.7818 -1.6772317 -30.704321 -200 45 -200 45 -200 45
1241444807.4679 -1.6785451 -30.759676 -200 45 -200 45 -200 45
1242444924.154 -1.6663259 -30.789848 -200 45 -200 45 -200 45
1243445040.8401 -1.6506917 -30.813467 -200 45 -200 45 -200 45
1244445157.5263 -1.641263 -30.836973 -200 45 -200 45 -200 45
1245445274.2124 -1.6238272 -30.895945 -200 45 -200 45 -200 45
1246445390.8985 -1.5943409 -30.925854 -200 45 -200 45 -200 45
1247445507.5846 -1.5500745 -30.989443 -200 45 -200 45 -200 45
1248445624.2707 -1.5504081 -31.023249 -200 45 -200 45 -200 45
1249445740.9568 -1.558472 -31.037479 -200 45 -200 45 -200 45
1250445857.6429 -1.6298133 -31.035366 -200 45 -200 45 -200 45
1251445974.3291 -1.6477929 -31.067608 -200 45 -200 45 -200 45
1252446091.0152 -1.6556377 -31.085041 -200 45 -200 45 -200 45
1253446207.7013 -1.6549253 -31.113363 -200 45 -200 45 -200 45
1254446324.3874 -1.6561229 -31.138187 -200 45 -200 45 -200 45
1255446441.0735 -1.6666679 -31.152052 -200 45 -200 45 -200 45
1256446557.7596 -1.6696162 -31.185957 -200 45 -200 45 -200 45
1257446674.4457 -1.6647575 -31.180462 -200 45 -200 45 -200 45
1258446791.1319 -1.6557325 -31.190466 -200 45 -200 45 -200 45
1259446907.818 -1.6430206 -31.180927 -200 45 -200 45 -200 45
1260447024.5041 -1.6320872 -31.181009 -200 45 -200 45 -200 45
1261447141.1902 -1.6159214 -31.206594 -200 45 -200 45 -200 45
1262447257.8763 -1.579406 -31.208668 -200 45 -200 45 -200 45
1263447374.5624 -1.5438522 -31.245035 -200 45 -200 45 -200 45
1264447491.2485 -1.5477562 -31.230648 -200 45 -200 45 -200 45
1265447607.9347 -1.5693181 -31.223291 -200 45 -200 45 -200 45
1266447724.6208 -1.6233686 -31.183475 -200 45 -200 45 -200 45
1267447841.3069 -1.6473867 -31.186262 -200 45 -200 45 -200 45
1268447957.993 -1.6522483 -31.168663 -200 45 -200 45 -200 45
1269448074.6791 -1.6573398 -31.163004 -200 45 -200 45 -200 45
1270448191.3652 -1.6573777 -31.154911 -200 45 -200 45 -200 45
1271448308.0513 -1.6688867 -31.155615 -200 45 -200 45 -200 45
1272448424.7375 -1.6755226 -31.151745 -200 45 -200 45 -200 45
1273448541.4236 -1.6746634 -31.141439 -200 45 -200 45 -200 45
1274448658.1097 -1.6659749 -31.133188 -200 45 -200 45 -200 45
1275448774.7958 -1.6532921 -31.096653 -200 45 -200 45 -200 45
1276448891.4819 -1.6471907 -31.084393 -200 45 -200 45 -200 45
1277449008.168 -1.6329192 -31.082794 -200 45 -200 45 -200 45
1278449124.8541 -1.6041881 -31.094286 -200 45 -200 45 -200 45
1279449241.5403 -1.5654135 -31.106089 -200 45 -200 45 -200 45
1280449358.2264 -1.5685248 -31.098057 -200 45 -200 45 -200 45
1281449474.9125 -1.5883139 -31.076914 -200 45 -200 45 -200 45
1282449591.5986 -1.6465492 -31.020924 -200 45 -200 45 -200 45
1283449708.2847 -1.6735395 -31.034929 -200 45 -200 45 -200 45
1284449824.9708 -1.6823133 -31.022768 -200 45 -200 45 -200 45
1285449941.6569 -1.6865348 -31.007851 -200 45 -200 45 -200 45
1286450058.3431 -1.6917988 -31.020163 -200 45 -200 45 -200 45
1287450175.0292 -1.703235 -31.013968 -200 45 -200 45 -200 45
1288450291.7153 -1.7120408 -31.01615 -200 45 -200 45 -200 45
1289450408.4014 -1.7149962 -31.010979 -200 45 -200 45 -200 45
1290450525.0875 -1.7077258 -31.01021 -200 45 -200 45 -200 45
1291450641.7736 -1.6983685 -31.014557 -200 45 -200 45 -200 45
1292450758.4597 -1.690473 -31.02037 -200 45 -200 45 -200 45
1293450875.1459 -1.6779131 -31.042477 -200 45 -200 45 -200 45
1294450991.832 -1.6533978 -31.051922 -200 45 -200 45 -200 45
1295451108.5181 -1.6122468 -31.097008 -200 45 -200 45 -200 45
1296451225.2042 -1.6156923 -31.118565 -200 45 -200 45 -200 45
1297451341.8903 -1.6294378 -31.126583 -200 45 -200 45 -200 45
1298451458.5764 -1.6904393 -31.099089 -200 45 -200 45 -200 45
1299451575.2625 -1.7191265 -31.131313 -200 45 -200 45 -200 45
1300451691.9487 -1.7308637 -31.129858 -200 45 -200 45 -200 45
1301451808.6348 -1.7355556 -31.173437 -200 45 -200 45 -200 45
1302451925.3209 -1.736449 -31.200481 -200 45 -200 45 -200 45
1303452042.007 -1.7498777 -31.245359 -200 45 -200 45 -200 45
1304452158.6931 -1.7606341 -31.278999 -200 45 -200 45 -200 45
1305452275.3792 -1.7619532 -31.313557 -200 45 -200 45 -200 45
1306452392.0653 -1.7533493 -31.327158 -200 45 -200 45 -200 45
1307452508.7515 -1.7440573 -31.359854 -200 45 -200 45 -200 45
1308452625.4376 -1.7371567 -31.40169 -200 45 -200 45 -200 45
1309452742.1237 -1.721984 -31.43128 -200 45 -200 45 -200 45
1310452858.8098 -1.6974639 -31.48716 -200 45 -200 45 -200 45
1311452975.4959 -1.654529 -31.572536 -200 45 -200 45 -200 45
1312453092.182 -1.6509601 -31.619783 -200 45 -200 45 -200 45
1313453208.8681 -1.6623336 -31.662319 -200 45 -200 45 -200 45
1314453325.5543 -1.7216642 -31.669392 -200 45 -200 45 -200 45
1315453442.2404 -1.7521204 -31.679182 -200 45 -200 45 -200 45
1316453558.9265 -1.7609121 -31.746567 -200 45 -200 45 -200 45
1317453675.6126 -1.7652717 -31.784922 -200 45 -200 45 -200 45
1318453792.2987 -1.7653459 -31.827839 -200 45 -200 45 -200 45
1319453908.9848 -1.7750314 -31.88916 -200 45 -200 45 -200 45
1320454025.6709 -1.7825509 -31.927177 -200 45 -200 45 -200 45
1321454142.3571 -1.7827109 -31.971729 -200 45 -200 45 -200 45
1322454259.0432 -1.773331 -32.009911 -200 45 -200 45 -200 45
1323454375.7293 -1.7639784 -32.044556 -200 45 -200 45 -200 45
1324454492.4154 -1.7506307 -32.081863 -200 45 -200 45 -200 45
1325454609.1015 -1.7328156 -32.127365 -200 45 -200 45 -200 45
1326454725.7876 -1.7087358 -32.179283 -200 45 -200 45 -200 45
1327454842.4737 -1.6667826 -32.239338 -200 45 -200 45 -200 45
1328454959.1599 -1.6541221 -32.295425 -200 45 -200 45 -200 45
1329455075.846 -1.6647747 -32.31868 -200 45 -200 45 -200 45
1330455192.5321 -1.718069 -32.317627 -200 45 -200 45 -200 45
1331455309.2182 -1.7474593 -32.346077 -200 45 -200 45 -200 45
1332455425.9043 -1.759214 -32.369984 -200 45 -200 45 -200 45
1333455542.5904 -1.7596368 -32.402298 -200 45 -200 45 -200 45
1334455659.2765 -1.7590191 -32.42926 -200 45 -200 45 -200 45
1335455775.9627 -1.7673353 -32.454208 -200 45 -200 45 -200 45
1336455892.6488 -1.7730242 -32.484386 -200 45 -200 45 -200 45
1337456009.3349 -1.775809 -32.51228 -200 45 -200 45 -200 45
1338456126.021 -1.7655624 -32.509071 -200 45 -200 45 -200 45
1339456242.7071 -1.7519739 -32.529686 -200 45 -200 45 -200 45
1340456359.3932 -1.7432711 -32.551929 -200 45 -200 45 -200 45
1341456476.0793 -1.7272096 -32.557384 -200 45 -200 45 -200 45
1342456592.7655 -1.7049072 -32.569324 -200 45 -200 45 -200 45
1343456709.4516 -1.6633589 -32.623032 -200 45 -200 45 -200 45
1344456826.1377 -1.6451721 -32.646049 -200 45 -200 45 -200 45
1345456942.8238 -1.6507629 -32.639587 -200 45 -200 45 -200 45
1346457059.5099 -1.7036757 -32.602592 -200 45 -200 45 -200 45
1347457176.196 -1.736939 -32.588581 -200 45 -200 45 -200 45
1348457292.8821 -1.7509445 -32.592392 -200 45 -200 45 -200 45
1349457409.5683 -1.7540983 -32.589211 -200 45 -200 45 -200 45
1350457526.2544 -1.7542735 -32.594879 -200 45 -200 45 -200 45
1351457642.9405 -1.7593665 -32.577385 -200 45 -200 45 -200 45
1352457759.6266 -1.7676762 -32.570278 -200 45 -200 45 -200 45
1353457876.3127 -1.7724483 -32.569462 -200 45 -200 45 -200 45
1354457992.9988 -1.7659721 -32.568779 -200 45 -200 45 -200 45
1355458109.6849 -1.7541192 -32.547035 -200 45 -200 45 -200 45
1356458226.3711 -1.7454066 -32.534557 -200 45 -200 45 -200 45
1357458343.0572 -1.7334808 -32.522114 -200 45 -200 45 -200 45
1358458459.7433 -1.7130902 -32.532181 -200 45 -200 45 -200 45
1359458576.4294 -1.6781493 -32.557461 -200 45 -200 45 -200 45
1360458693.1155 -1.6523494 -32.570442 -200 45 -200 45 -200 45
1361458809.8016 -1.6618739 -32.558903 -200 45 -200 45 -200 45
1362458926.4877 -1.7101793 -32.48045 -200 45 -200 45 -200 45
1363459043.1739 -1.7525436 -32.461407 -200 45 -200 45 -200 45
1364459159.86 -1.7681204 -32.435081 -200 45 -200 45 -200 45
1365459276.5461 -1.7745987 -32.437645 -200 45 -200 45 -200 45
1366459393.2322 -1.7784126 -32.428669 -200 45 -200 45 -200 45
1367459509.9183 -1.7855614 -32.42733 -200 45 -200 45 -200 45
1368459626.6044 -1.7967206 -32.423622 -200 45 -200 45 -200 45
1369459743.2905 -1.8026344 -32.413193 -200 45 -200 45 -200 45
1370459859.9767 -1.7976516 -32.398949 -200 45 -200 45 -200 45
1371459976.6628 -1.7908427 -32.39333 -200 45 -200 45 -200 45
1372460093.3489 -1.782078 -32.378754 -200 45 -200 45 -200 45
1373460210.035 -1.7741215 -32.392719 -200 45 -200 45 -200 45
1374460326.7211 -1.7558862 -32.403664 -200 45 -200 45 -200 45
1375460443.4072 -1.723447 -32.443729 -200 45 -200 45 -200 45
1376460560.0933 -1.695787 -32.478432 -200 45 -200 45 -200 45
1377460676.7795 -1.7062056 -32.47966 -200 45 -200 45 -200 45
1378460793.4656 -1.75191 -32.458488 -200 45 -200 45 -200 45
1379460910.1517 -1.7930197 -32.429604 -200 45 -200 45 -200 45
1380461026.8378 -1.8113468 -32.430279 -200 45 -200 45 -200 45
1381461143.5239 -1.8213636 -32.443218 -200 45 -200 45 -200 45
1382461260.21 -1.8248845 -32.455711 -200 45 -200 45 -200 45
1383461376.8961 -1.8330743 -32.473976 -200 45 -200 45 -200 45
1384461493.5823 -1.8425657 -32.510197 -200 45 -200 45 -200 45
1385461610.2684 -1.8511488 -32.534241 -200 45 -200 45 -200 45
1386461726.9545 -1.8472933 -32.554802 -200 45 -200 45 -200 45
1387461843.6406 -1.8397464 -32.581173 -200 45 -200 45 -200 45
1388461960.3267 -1.8305148 -32.616119 -200 45 -200 45 -200 45
1389462077.0128 -1.8235445 -32.631138 -200 45 -200 45 -200 45
1390462193.6989 -1.8043381 -32.687077 -200 45 -200 45 -200 45
1391462310.3851 -1.774157 -32.748924 -200 45 -200 45 -200 45
1392462427.0712 -1.7408725 -32.811798 -200 45 -200 45 -200 45
1393462543.7573 -1.7509305 -32.845837 -200 45 -200 45 -200 45
1394462660.4434 -1.7855215 -32.828987 -200 45 -200 45 -200 45
1395462777.1295 -1.8336148 -32.841465 -200 45 -200 45 -200 45
1396462893.8156 -1.851298 -32.866493 -200 45 -200 45 -200 45
1397463010.5018 -1.8577995 -32.913189 -200 45 -200 45 -200 45
1398463127.1879 -1.8604625 -32.974735 -200 45 -200 45 -200 45
1399463243.874 -1.8638277 -33.005795 -200 45 -200 45 -200 45
1400463360.5601 -1.8743786 -33.052608 -200 45 -200 45 -200 45
1401463477.2462 -1.8803672 -33.113514 -200 45 -200 45 -200 45
1402463593.9323 -1.8758451 -33.135452 -200 45 -200 45 -200 45
1403463710.6184 -1.8670976 -33.183826 -200 45 -200 45 -200 45
1404463827.3046 -1.8545549 -33.220898 -200 45 -200 45 -200 45
1405463943.9907 -1.8457998 -33.272255 -200 45 -200 45 -200 45
1406464060.6768 -1.8261713 -33.317463 -200 45 -200 45 -200 45
1407464177.3629 -1.7944723 -33.406303 -200 45 -200 45 -200 45
1408464294.049 -1.7564603 -33.474606 -200 45 -200 45 -200 45
1409464410.7351 -1.7621653 -33.516796 -200 45 -200 45 -200 45
1410464527.4212 -1.7879343 -33.52895 -200 45 -200 45 -200 45
1411464644.1074 -1.8374031 -33.517624 -200 45 -200 45 -200 45
1412464760.7935 -1.8568324 -33.542698 -200 45 -200 45 -200 45
1413464877.4796 -1.861858 -33.581932 -200 45 -200 45 -200 45
1414464994.1657 -1.8636588 -33.627083 -200 45 -200 45 -200 45
1415465110.8518 -1.8638723 -33.65427 -200 45 -200 45 -200 45
1416465227.5379 -1.8720021 -33.686028 -200 45 -200 45 -200 45
1417465344.224 -1.8745878 -33.717628 -200 45 -200 45 -200 45
1418465460.9102 -1.8711637 -33.755566 -200 45 -200 45 -200 45
1419465577.5963 -1.8598317 -33.766811 -200 45 -200 45 -200 45
1420465694.2824 -1.8451933 -33.779385 -200 45 -200 45 -200 45
1421465810.9685 -1.8335359 -33.806763 -200 45 -200 45 -200 45
1422465927.6546 -1.8175385 -33.835861 -200 45 -200 45 -200 45
1423466044.3407 -1.7863065 -33.901096 -200 45 -200 45 -200 45
1424466161.0268 -1.7443978 -33.95496 -200 45 -200 45 -200 45
1425466277.713 -1.748664 -33.962246 -200 45 -200 45 -200 45
1426466394.3991 -1.7680618 -33.947887 -200 45 -200 45 -200 45
1427466511.0852 -1.8199117 -33.905823 -200 45 -200 45 -200 45
1428466627.7713 -1.8403351 -33.921295 -200 45 -200 45 -200 45
1429466744.4574 -1.8452016 -33.911354 -200 45 -200 45 -200 45
1430466861.1435 -1.8464167 -33.919743 -200 45 -200 45 -200 45
1431466977.8296 -1.8462429 -33.930225 -200 45 -200 45 -200 45
1432467094.5158 -1.8566741 -33.921932 -200 45 -200 45 -200 45
1433467211.2019 -1.8612485 -33.931839 -200 45 -200 45 -200 45
1434467327.888 -1.8590949 -33.934444 -200 45 -200 45 -200 45
1435467444.5741 -1.850385 -33.924099 -200 45 -200 45 -200 45
1436467561.2602 -1.8364575 -33.917862 -200 45 -200 45 -200 45
1437467677.9463 -1.8289495 -33.915173 -200 45 -200 45 -200 45
1438467794.6324 -1.8110564 -33.913609 -200 45 -200 45 -200 45
1439467911.3186 -1.784784 -33.938927 -200 45 -200 45 -200 45
1440468028.0047 -1.7444078 -33.975433 -200 45 -200 45 -200 45
1441468144.6908 -1.7457634 -33.967773 -200 45 -200 45 -200 45
1442468261.3769 -1.7605782 -33.924473 -200 45 -200 45 -200 45
1443468378.063 -1.8167043 -33.868408 -200 45 -200 45 -200 45
1444468494.7491 -1.8404645 -33.838943 -200 45 -200 45 -200 45
1445468611.4352 -1.8493835 -33.817795 -200 45 -200 45 -200 45
1446468728.1214 -1.8538502 -33.822021 -200 45 -200 45 -200 45
1447468844.8075 -1.8581799 -33.811718 -200 45 -200 45 -200 45
1448468961.4936 -1.866321 -33.790051 -200 45 -200 45 -200 45
1449469078.1797 -1.874469 -33.791195 -200 45 -200 45 -200 45
1450469194.8658 -1.8758734 -33.781662 -200 45 -200 45 -200 45
1451469311.5519 -1.8692822 -33.769817 -200 45 -200 45 -200 45
1452469428.238 -1.8600947 -33.7728 -200 45 -200 45 -200 45
1453469544.9242 -1.852056 -33.748817 -200 45 -200 45 -200 45
1454469661.6103 -1.8378986 -33.745506 -200 45 -200 45 -200 45
1455469778.2964 -1.8155197 -33.774349 -200 45 -200 45 -200 45
1456469894.9825 -1.7783455 -33.846489 -200 45 -200 45 -200 45
1457470011.6686 -1.7768502 -33.82869 -200 45 -200 45 -200 45
1458470128.3547 -1.7902476 -33.827496 -200 45 -200 45 -200 45
1459470245.0408 -1.848192 -33.753952 -200 45 -200 45 -200 45
1460470361.727 -1.8786521 -33.721172 -200 45 -200 45 -200 45
1461470478.4131 -1.8884672 -33.727337 -200 45 -200 45 -200 45
1462470595.0992 -1.8932623 -33.750549 -200 45 -200 45 -200 45
1463470711.7853 -1.8957636 -33.74176 -200 45 -200 45 -200 45
1464470828.4714 -1.907308 -33.748516 -200 45 -200 45 -200 45
1465470945.1575 -1.9195645 -33.754875 -200 45 -200 45 -200 45
1466471061.8436 -1.9242762 -33.78175 -200 45 -200 45 -200 45
1467471178.5298 -1.9181124 -33.79604 -200 45 -200 45 -200 45
1468471295.2159 -1.909654 -33.804028 -200 45 -200 45 -200 45
1469471411.902 -1.9017205 -33.826668 -200 45 -200 45 -200 45
1470471528.5881 -1.8910356 -33.849297 -200 45 -200 45 -200 45
1471471645.2742 -1.8678604 -33.905018 -200 45 -200 45 -200 45
1472471761.9603 -1.8287357 -33.982159 -200 45 -200 45 -200 45
1473471878.6464 -1.8249921 -34.032089 -200 45 -200 45 -200 45
1474471995.3326 -1.8350405 -34.033863 -200 45 -200 45 -200 45
1475472112.0187 -1.8925874 -33.990421 -200 45 -200 45 -200 45
1476472228.7048 -1.9214916 -34.014149 -200 45 -200 45 -200 45
1477472345.3909 -1.9327018 -34.042809 -200 45 -200 45 -200 45
1478472462.077 -1.9369256 -34.076035 -200 45 -200 45 -200 45
1479472578.7631 -1.9388682 -34.108986 -200 45 -200 45 -200 45
1480472695.4492 -1.9491534 -34.153435 -200 45 -200 45 -200 45
1481472812.1354 -1.959426 -34.206413 -200 45 -200 45 -200 45
1482472928.8215 -1.9617796 -34.246017 -200 45 -200 45 -200 45
1483473045.5076 -1.9529886 -34.266842 -200 45 -200 45 -200 45
1484473162.1937 -1.9407598 -34.316364 -200 45 -200 45 -200 45
1485473278.8798 -1.9358268 -34.364426 -200 45 -200 45 -200 45
1486473395.5659 -1.9216032 -34.416325 -200 45 -200 45 -200 45
1487473512.252 -1.8996017 -34.486576 -200 45 -200 45 -200 45
1488473628.9382 -1.858475 -34.576603 -200 45 -200 45 -200 45
1489473745.6243 -1.8471957 -34.650711 -200 45 -200 45 -200 45
1490473862.3104 -1.8519093 -34.685745 -200 45 -200 45 -200 45
1491473978.9965 -1.9052656 -34.652927 -200 45 -200 45 -200 45
1492474095.6826 -1.935159 -34.67905 -200 45 -200 45 -200 45
1493474212.3687 -1.9487009 -34.716629 -200 45 -200 45 -200 45
1494474329.0548 -1.9518147 -34.752346 -200 45 -200 45 -200 45
1495474445.741 -1.9493108 -34.803162 -200 45 -200 45 -200 45
1496474562.4271 -1.95761 -34.840611 -200 45 -200 45 -200 45
1497474679.1132 -1.9620305 -34.878078 -200 45 -200 45 -200 45
1498474795.7993 -1.9654148 -34.927505 -200 45 -200 45 -200 45
1499474912.4854 -1.957955 -34.95591 -200 45 -200 45 -200 45
1500475029.1715 -1.9420401 -34.978592 -200 45 -200 45 -200 45
1501475145.8576 -1.9343827 -35.023132 -200 45 -200 45 -200 45
1502475262.5438 -1.9184902 -35.059841 -200 45 -200 45 -200 45
1503475379.2299 -1.8970327 -35.119389 -200 45 -200 45 -200 45
1504475495.916 -1.8568825 -35.200813 -200 45 -200 45 -200 45
1505475612.6021 -1.8373501 -35.252369 -200 45 -200 45 -200 45
1506475729.2882 -1.8420256 -35.26643 -200 45 -200 45 -200 45
1507475845.9743 -1.88749 -35.221886 -200 45 -200 45 -200 45
1508475962.6604 -1.9219389 -35.197365 -200 45 -200 45 -200 45
1509476079.3466 -1.9326752 -35.214413 -200 45 -200 45 -200 45
1510476196.0327 -1.9367918 -35.239712 -200 45 -200 45 -200 45
1511476312.7188 -1.934101 -35.233376 -200 45 -200 45 -200 45
1512476429.4049 -1.9398437 -35.273861 -200 45 -200 45 -200 45
1513476546.091 -1.948002 -35.272911 -200 45 -200 45 -200 45
1514476662.7771 -1.9508345 -35.280449 -200 45 -200 45 -200 45
1515476779.4632 -1.9415648 -35.28635 -200 45 -200 45 -200 45
1516476896.1494 -1.9322672 -35.27047 -200 45 -200 45 -200 45
1517477012.8355 -1.9211153 -35.28278 -200 45 -200 45 -200 45
1518477129.5216 -1.9086282 -35.29285 -200 45 -200 45 -200 45
1519477246.2077 -1.8871819 -35.308212 -200 45 -200 45 -200 45
1520477362.8938 -1.8529983 -35.352188 -200 45 -200 45 -200 45
1521477479.5799 -1.8253886 -35.375282 -200 45 -200 45 -200 45
1522477596.266 -1.8327143 -35.343216 -200 45 -200 45 -200 45
1523477712.9522 -1.8771898 -35.278988 -200 45 -200 45 -200 45
1524477829.6383 -1.91396 -35.236073 -200 45 -200 45 -200 45
1525477946.3244 -1.9265922 -35.217129 -200 45 -200 45 -200 45
1526478063.0105 -1.9343228 -35.196404 -200 45 -200 45 -200 45
1527478179.6966 -1.936242 -35.182228 -200 45 -200 45 -200 45
1528478296.3827 -1.9417968 -35.16967 -200 45 -200 45 -200 45
1529478413.0688 -1.9496571 -35.159676 -200 45 -200 45 -200 45
1530478529.755 -1.9556087 -35.156559 -200 45 -200 45 -200 45
1531478646.4411 -1.950686 -35.128338 -200 45 -200 45 -200 45
1532478763.1272 -1.9438002 -35.116966 -200 45 -200 45 -200 45
1533478879.8133 -1.9301105 -35.095554 -200 45 -200 45 -200 45
1534478996.4994 -1.9229287 -35.092861 -200 45 -200 45 -200 45
1535479113.1855 -1.9041462 -35.10231 -200 45 -200 45 -200 45
1536479229.8716 -1.8740243 -35.139496 -200 45 -200 45 -200 45
1537479346.5578 -1.8445159 -35.18169 -200 45 -200 45 -200 45
1538479463.2439 -1.8580477 -35.163254 -200 45 -200 45 -200 45
1539479579.93 -1.8925625 -35.098312 -200 45 -200 45 -200 45
1540479696.6161 -1.9364974 -35.022285 -200 45 -200 45 -200 45
1541479813.3022 -1.9556636 -35.01609 -200 45 -200 45 -200 45
1542479929.9883 -1.9617784 -35.0186 -200 45 -200 45 -200 45
1543480046.6744 -1.9659345 -35.025806 -200 45 -200 45 -200 45
1544480163.3606 -1.9734851 -35.011929 -200 45 -200 45 -200 45
1545480280.0467 -1.9843547 -35.014191 -200 45 -200 45 -200 45
1546480396.7328 -1.9917077 -35.025707 -200 45 -200 45 -200 45
1547480513.4189 -1.9896141 -35.019352 -200 45 -200 45 -200 45
1548480630.105 -1.9825151 -35.011402 -200 45 -200 45 -200 45
1549480746.7911 -1.9744422 -35.034981 -200 45 -200 45 -200 45
1550480863.4772 -1.9649837 -35.062977 -200 45 -200 45 -200 45
1551480980.1634 -1.9533848 -35.077789 -200 45 -200 45 -200 45
1552481096.8495 -1.923848 -35.118023 -200 45 -200 45 -200 45
1553481213.5356 -1.8892223 -35.205292 -200 45 -200 45 -200 45
1554481330.2217 -1.9044552 -35.212254 -200 45 -200 45 -200 45
1555481446.9078 -1.9289415 -35.189907 -200 45 -200 45 -200 45
1556481563.5939 -1.9782677 -35.156227 -200 45 -200 45 -200 45
1557481680.28 -2.0006604 -35.162445 -200 45 -200 45 -200 45
1558481796.9662 -2.0092893 -35.19973 -200 45 -200 45 -200 45
1559481913.6523 -2.0110817 -35.227238 -200 45 -200 45 -200 45
1560482030.3384 -2.0180092 -35.248661 -200 45 -200 45 -200 45
1561482147.0245 -2.0291755 -35.279907 -200 45 -200 45 -200 45
1562482263.7106 -2.0344465 -35.331306 -200 45 -200 45 -200 45
1563482380.3967 -2.0342391 -35.362034 -200 45 -200 45 -200 45
1564482497.0828 -2.0226023 -35.398769 -200 45 -200 45 -200 45
1565482613.769 -2.0145073 -35.437103 -200 45 -200 45 -200 45
1566482730.4551 -2.004493 -35.493084 -200 45 -200 45 -200 45
1567482847.1412 -1.9912221 -35.546505 -200 45 -200 45 -200 45
1568482963.8273 -1.9636987 -35.621773 -200 45 -200 45 -200 45
1569483080.5134 -1.9265991 -35.745716 -200 45 -200 45 -200 45
1570483197.1995 -1.933383 -35.767262 -200 45 -200 45 -200 45
1571483313.8856 -1.9532167 -35.778339 -200 45 -200 45 -200 45
1572483430.5718 -2.0036426 -35.756123 -200 45 -200 45 -200 45
1573483547.2579 -2.0244334 -35.781487 -200 45 -200 45 -200 45
1574483663.944 -2.0336525 -35.821739 -200 45 -200 45 -200 45
1575483780.6301 -2.0314355 -35.877895 -200 45 -200 45 -200 45
1576483897.3162 -2.0363212 -35.912148 -200 45 -200 45 -200 45
1577484014.0023 -2.0425677 -35.951511 -200 45 -200 45 -200 45
1578484130.6884 -2.0506442 -35.990509 -200 45 -200 45 -200 45
1579484247.3746 -2.0466754 -36.042965 -200 45 -200 45 -200 45
1580484364.0607 -2.0358429 -36.09169 -200 45 -200 45 -200 45
1581484480.7468 -2.0252783 -36.125153 -200 45 -200 45 -200 45
1582484597.4329 -2.0140977 -36.166077 -200 45 -200 45 -200 45
1583484714.119 -1.9966629 -36.226173 -200 45 -200 45 -200 45
1584484830.8051 -1.9671628 -36.297798 -200 45 -200 45 -200 45
1585484947.4912 -1.9286517 -36.399368 -200 45 -200 45 -200 45
1586485064.1774 -1.9334674 -36.409245 -200 45 -200 45 -200 45
1587485180.8635 -1.9442984 -36.436726 -200 45 -200 45 -200 45
1588485297.5496 -1.9965854 -36.400635 -200 45 -200 45 -200 45
1589485414.2357 -2.0139136 -36.402245 -200 45 -200 45 -200 45
1590485530.9218 -2.0200381 -36.432793 -200 45 -200 45 -200 45
1591485647.6079 -2.0221922 -36.438072 -200 45 -200 45 -200 45
1592485764.294 -2.023515 -36.451916 -200 45 -200 45 -200 45
1593485880.9802 -2.0285132 -36.475063 -200 45 -200 45 -200 45
1594485997.6663 -2.0361474 -36.529892 -200 45 -200 45 -200 45
1595486114.3524 -2.0328784 -36.528225 -200 45 -200 45 -200 45
1596486231.0385 -2.0202038 -36.543472 -200 45 -200 45 -200 45
1597486347.7246 -2.0082614 -36.546349 -200 45 -200 45 -200 45
1598486464.4107 -1.9993833 -36.559971 -200 45 -200 45 -200 45
1599486581.0968 -1.9816445 -36.587952 -200 45 -200 45 -200 45
1600486697.783 -1.9575341 -36.615921 -200 45 -200 45 -200 45
1601486814.4691 -1.9157635 -36.69405 -200 45 -200 45 -200 45
1602486931.1552 -1.9119225 -36.704956 -200 45 -200 45 -200 45
1603487047.8413 -1.9231044 -36.685532 -200 45 -200 45 -200 45
1604487164.5274 -1.9776692 -36.601906 -200 45 -200 45 -200 45
1605487281.2135 -1.9975508 -36.583694 -200 45 -200 45 -200 45
1606487397.8997 -2.0111425 -36.574444 -200 45 -200 45 -200 45
1607487514.5858 -2.0108604 -36.54707 -200 45 -200 45 -200 45
1608487631.2719 -2.0095267 -36.525047 -200 45 -200 45 -200 45
1609487747.958 -2.020328 -36.527664 -200 45 -200 45 -200 45
1610487864.6441 -2.0248909 -36.527637 -200 45 -200 45 -200 45
1611487981.3302 -2.0264759 -36.518757 -200 45 -200 45 -200 45
1612488098.0163 -2.0185831 -36.490452 -200 45 -200 45 -200 45
1613488214.7025 -2.005867 -36.474514 -200 45 -200 45 -200 45
1614488331.3886 -1.9991617 -36.473461 -200 45 -200 45 -200 45
1615488448.0747 -1.9852149 -36.466663 -200 45 -200 45 -200 45
1616488564.7608 -1.9628693 -36.492485 -200 45 -200 45 -200 45
1617488681.4469 -1.9248581 -36.531647 -200 45 -200 45 -200 45
1618488798.133 -1.9225115 -36.547073 -200 45 -200 45 -200 45
1619488914.8191 -1.9324542 -36.505608 -200 45 -200 45 -200 45
1620489031.5053 -1.983057 -36.386871 -200 45 -200 45 -200 45
1621489148.1914 -2.0136936 -36.351818 -200 45 -200 45 -200 45
1622489264.8775 -2.0228376 -36.339085 -200 45 -200 45 -200 45
1623489381.5636 -2.028173 -36.322247 -200 45 -200 45 -200 45
1624489498.2497 -2.0313883 -36.321064 -200 45 -200 45 -200 45
1625489614.9358 -2.0423706 -36.314014 -200 45 -200 45 -200 45
1626489731.6219 -2.0505545 -36.303543 -200 45 -200 45 -200 45
1627489848.3081 -2.0554438 -36.294617 -200 45 -200 45 -200 45
1628489964.9942 -2.0478425 -36.285599 -200 45 -200 45 -200 45
1629490081.6803 -2.0400553 -36.29129 -200 45 -200 45 -200 45
1630490198.3664 -2.0328915 -36.279343 -200 45 -200 45 -200 45
1631490315.0525 -2.0219898 -36.294632 -200 45 -200 45 -200 45
1632490431.7386 -2.0030105 -36.334812 -200 45 -200 45 -200 45
1633490548.4247 -1.9650648 -36.394352 -200 45 -200 45 -200 45
1634490665.1109 -1.957179 -36.422325 -200 45 -200 45 -200 45
1635490781.797 -1.9692529 -36.429272 -200 45 -200 45 -200 45
1636490898.4831 -2.0225499 -36.324532 -200 45 -200 45 -200 45
1637491015.1692 -2.0525773 -36.310947 -200 45 -200 45 -200 45
1638491131.8553 -2.064667 -36.322594 -200 45 -200 45 -200 45
1639491248.5414 -2.0717177 -36.343647 -200 45 -200 45 -200 45
1640491365.2275 -2.0755186 -36.363182 -200 45 -200 45 -200 45
1641491481.9137 -2.0831456 -36.373112 -200 45 -200 45 -200 45
1642491598.5998 -2.0949197 -36.412239 -200 45 -200 45 -200 45
1643491715.2859 -2.0984099 -36.431343 -200 45 -200 45 -200 45
1644491831.972 -2.0912457 -36.457508 -200 45 -200 45 -200 45
1645491948.6581 -2.0810192 -36.48959 -200 45 -200 45 -200 45
1646492065.3442 -2.0753884 -36.522987 -200 45 -200 45 -200 45
1647492182.0303 -2.0637946 -36.574333 -200 45 -200 45 -200 45
1648492298.7165 -2.0444918 -36.629429 -200 45 -200 45 -200 45
1649492415.4026 -2.0095279 -36.726711 -200 45 -200 45 -200 45
1650492532.0887 -1.9972003 -36.797688 -200 45 -200 45 -200 45
1651492648.7748 -2.0028977 -36.824013 -200 45 -200 45 -200 45
1652492765.4609 -2.0515594 -36.796318 -200 45 -200 45 -200 45
1653492882.147 -2.0838139 -36.790642 -200 45 -200 45 -200 45
1654492998.8331 -2.0967867 -36.829319 -200 45 -200 45 -200 45
1655493115.5193 -2.0988178 -36.873302 -200 45 -200 45 -200 45
1656493232.2054 -2.100913 -36.91983 -200 45 -200 45 -200 45
1657493348.8915 -2.1085887 -36.96172 -200 45 -200 45 -200 45
1658493465.5776 -2.1168046 -37.004971 -200 45 -200 45 -200 45
1659493582.2637 -2.1180019 -37.055073 -200 45 -200 45 -200 45
1660493698.9498 -2.1112299 -37.101334 -200 45 -200 45 -200 45
1661493815.6359 -2.0978696 -37.158852 -200 45 -200 45 -200 45
1662493932.3221 -2.089716 -37.200645 -200 45 -200 45 -200 45
1663494049.0082 -2.0759711 -37.257858 -200 45 -200 45 -200 45
1664494165.6943 -2.0546935 -37.340843 -200 45 -200 45 -200 45
1665494282.3804 -2.0205452 -37.445374 -200 45 -200 45 -200 45
1666494399.0665 -1.9997349 -37.527439 -200 45 -200 45 -200 45
1667494515.7526 -2.0032454 -37.550484 -200 45 -200 45 -200 45
1668494632.4387 -2.0458493 -37.53392 -200 45 -200 45 -200 45
1669494749.1249 -2.0780735 -37.513691 -200 45 -200 45 -200 45
1670494865.811 -2.0909767 -37.541447 -200 45 -200 45 -200 45
1671494982.4971 -2.0943065 -37.582878 -200 45 -200 45 -200 45
1672495099.1832 -2.094136 -37.618107 -200 45 -200 45 -200 45
1673495215.8693 -2.0971477 -37.648933 -200 45 -200 45 -200 45
1674495332.5554 -2.1012661 -37.685741 -200 45 -200 45 -200 45
1675495449.2415 -2.1067567 -37.72522 -200 45 -200 45 -200 45
1676495565.9277 -2.0998802 -37.749523 -200 45 -200 45 -200 45
1677495682.6138 -2.0851133 -37.755901 -200 45 -200 45 -200 45
1678495799.2999 -2.0745482 -37.7901 -200 45 -200 45 -200 45
1679495915.986 -2.061435 -37.812145 -200 45 -200 45 -200 45
1680496032.6721 -2.0411973 -37.861584 -200 45 -200 45 -200 45
1681496149.3582 -2.0075331 -37.92979 -200 45 -200 45 -200 45
1682496266.0443 -1.9788225 -37.998528 -200 45 -200 45 -200 45
1683496382.7305 -1.9854369 -38.005745 -200 45 -200 45 -200 45
1684496499.4166 -2.019908 -37.921101 -200 45 -200 45 -200 45
1685496616.1027 -2.0557411 -37.868153 -200 45 -200 45 -200 45
1686496732.7888 -2.070075 -37.86948 -200 45 -200 45 -200 45
1687496849.4749 -2.0746729 -37.866394 -200 45 -200 45 -200 45
1688496966.161 -2.0714629 -37.871979 -200 45 -200 45 -200 45
1689497082.8471 -2.0761333 -37.854099 -200 45 -200 45 -200 45
1690497199.5333 -2.0861046 -37.859287 -200 45 -200 45 -200 45
1691497316.2194 -2.0888846 -37.864399 -200 45 -200 45 -200 45
1692497432.9055 -2.0813494 -37.839714 -200 45 -200 45 -200 45
1693497549.5916 -2.0736313 -37.827187 -200 45 -200 45 -200 45
1694497666.2777 -2.0628846 -37.825157 -200 45 -200 45 -200 45
1695497782.9638 -2.0545194 -37.807003 -200 45 -200 45 -200 45
1696497899.6499 -2.0351343 -37.843544 -200 45 -200 45 -200 45
1697498016.3361 -2.0045965 -37.862801 -200 45 -200 45 -200 45
1698498133.0222 -1.9763266 -37.924416 -200 45 -200 45 -200 45
1699498249.7083 -1.9848253 -37.873455 -200 45 -200 45 -200 45
1700498366.3944 -2.0137486 -37.810265 -200 45 -200 45 -200 45
1701498483.0805 -2.0549319 -37.730995 -200 45 -200 45 -200 45
1702498599.7666 -2.0730312 -37.693607 -200 45 -200 45 -200 45
1703498716.4527 -2.0777242 -37.660595 -200 45 -200 45 -200 45
1704498833.1389 -2.0820551 -37.659 -200 45 -200 45 -200 45
1705498949.825 -2.0856464 -37.645996 -200 45 -200 45 -200 45
1706499066.5111 -2.0984752 -37.621586 -200 45 -200 45 -200 45
1707499183.1972 -2.1022258 -37.609848 -200 45 -200 45 -200 45
1708499299.8833 -2.10165 -37.584915 -200 45 -200 45 -200 45
1709499416.5694 -2.0923901 -37.568485 -200 45 -200 45 -200 45
1710499533.2555 -2.0824172 -37.565647 -200 45 -200 45 -200 45
1711499649.9417 -2.0756502 -37.558937 -200 45 -200 45 -200 45
1712499766.6278 -2.0625825 -37.580753 -200 45 -200 45 -200 45
1713499883.3139 -2.0356374 -37.619171 -200 45 -200 45 -200 45
1714500000 -2.005316 -37.685242 -200 45 -200 45 -200 45
1715500116.6861 -2.0157144 -37.651089 -200 45 -200 45 -200 45
1716500233.3722 -2.0396593 -37.595909 -200 45 -200 45 -200 45
1717500350.0583 -2.0868671 -37.521832 -200 45 -200 45 -200 45
1718500466.7445 -2.1067646 -37.513153 -200 45 -200 45 -200 45
1719500583.4306 -2.1184227 -37.512554 -200 45 -200 45 -200 45
1720500700.1167 -2.1190159 -37.526901 -200 45 -200 45 -200 45
1721500816.8028 -2.124903 -37.520069 -200 45 -200 45 -200 45
1722500933.4889 -2.135639 -37.53767 -200 45 -200 45 -200 45
1723501050.175 -2.143286 -37.548397 -200 45 -200 45 -200 45
1724501166.8611 -2.1449993 -37.566814 -200 45 -200 45 -200 45
1725501283.5473 -2.1342313 -37.594063 -200 45 -200 45 -200 45
1726501400.2334 -2.1274452 -37.610962 -200 45 -200 45 -200 45
1727501516.9195 -2.1207573 -37.646675 -200 45 -200 45 -200 45
1728501633.6056 -2.1109626 -37.688873 -200 45 -200 45 -200 45
1729501750.2917 -2.0815544 -37.776978 -200 45 -200 45 -200 45
1730501866.9778 -2.0491128 -37.878998 -200 45 -200 45 -200 45
1731501983.6639 -2.0552387 -37.88295 -200 45 -200 45 -200 45
1732502100.3501 -2.0745678 -37.885292 -200 45 -200 45 -200 45
1733502217.0362 -2.1225569 -37.852459 -200 45 -200 45 -200 45
1734502333.7223 -2.1474476 -37.842163 -200 45 -200 45 -200 45
1735502450.4084 -2.1545181 -37.908276 -200 45 -200 45 -200 45
1736502567.0945 -2.1576388 -37.932564 -200 45 -200 45 -200 45
1737502683.7806 -2.1609111 -37.96146 -200 45 -200 45 -200 45
1738502800.4667 -2.1688118 -38.014839 -200 45 -200 45 -200 45
1739502917.1529 -2.1769102 -38.06004 -200 45 -200 45 -200 45
1740503033.839 -2.1774366 -38.125088 -200 45 -200 45 -200 45
1741503150.5251 -2.1675017 -38.155277 -200 45 -200 45 -200 45
1742503267.2112 -2.1543541 -38.204067 -200 45 -200 45 -200 45
1743503383.8973 -2.1477304 -38.283466 -200 45 -200 45 -200 45
1744503500.5834 -2.1326275 -38.350552 -200 45 -200 45 -200 45
1745503617.2695 -2.1069753 -38.426353 -200 45 -200 45 -200 45
1746503733.9557 -2.0703702 -38.565773 -200 45 -200 45 -200 45
1747503850.6418 -2.0713594 -38.594112 -200 45 -200 45 -200 45
1748503967.3279 -2.0796375 -38.631298 -200 45 -200 45 -200 45
1749504084.014 -2.1293278 -38.591511 -200 45 -200 45 -200 45
1750504200.7001 -2.1529632 -38.61652 -200 45 -200 45 -200 45
1751504317.3862 -2.1602395 -38.660034 -200 45 -200 45 -200 45
1752504434.0723 -2.159723 -38.695938 -200 45 -200 45 -200 45
1753504550.7585 -2.1592884 -38.739307 -200 45 -200 45 -200 45
1754504667.4446 -2.166435 -38.78233 -200 45 -200 45 -200 45
1755504784.1307 -2.1704707 -38.820381 -200 45 -200 45 -200 45
1756504900.8168 -2.1708033 -38.864838 -200 45 -200 45 -200 45
1757505017.5029 -2.1595306 -38.912689 -200 45 -200 45 -200 45
1758505134.189 -2.146183 -38.955704 -200 45 -200 45 -200 45
1759505250.8751 -2.1342552 -38.985519 -200 45 -200 45 -200 45
1760505367.5613 -2.1176 -39.044361 -200 45 -200 45 -200 45
1761505484.2474 -2.0944219 -39.095505 -200 45 -200 45 -200 45
1762505600.9335 -2.0555034 -39.207386 -200 45 -200 45 -200 45
1763505717.6196 -2.0497117 -39.246433 -200 45 -200 45 -200 45
1764505834.3057 -2.0572264 -39.240482 -200 45 -200 45 -200 45
1765505950.9918 -2.1062617 -39.17178 -200 45 -200 45 -200 45
1766506067.6779 -2.1266997 -39.146084 -200 45 -200 45 -200 45
1767506184.3641 -2.1347113 -39.157505 -200 45 -200 45 -200 45
1768506301.0502 -2.1357634 -39.169891 -200 45 -200 45 -200 45
1769506417.7363 -2.1359608 -39.180851 -200 45 -200 45 -200 45
1770506534.4224 -2.1408548 -39.186428 -200 45 -200 45 -200 45
1771506651.1085 -2.145421 -39.216488 -200 45 -200 45 -200 45
1772506767.7946 -2.1460779 -39.183098 -200 45 -200 45 -200 45
1773506884.4807 -2.1358764 -39.211193 -200 45 -200 45 -200 45
1774507001.1669 -2.1207111 -39.199013 -200 45 -200 45 -200 45
1775507117.853 -2.1138768 -39.186146 -200 45 -200 45 -200 45
1776507234.5391 -2.0986485 -39.207561 -200 45 -200 45 -200 45
1777507351.2252 -2.0743849 -39.237988 -200 45 -200 45 -200 45
1778507467.9113 -2.03968 -39.294804 -200 45 -200 45 -200 45
1779507584.5974 -2.0322075 -39.302921 -200 45 -200 45 -200 45
1780507701.2835 -2.0401306 -39.261189 -200 45 -200 45 -200 45
1781507817.9697 -2.0886295 -39.156876 -200 45 -200 45 -200 45
1782507934.6558 -2.1162083 -39.10836 -200 45 -200 45 -200 45
1783508051.3419 -2.1236749 -39.076382 -200 45 -200 45 -200 45
1784508168.028 -2.1287956 -39.064835 -200 45 -200 45 -200 45
1785508284.7141 -2.1289964 -39.040035 -200 45 -200 45 -200 45
1786508401.4002 -2.1369116 -39.015129 -200 45 -200 45 -200 45
1787508518.0863 -2.1449735 -38.994148 -200 45 -200 45 -200 45
1788508634.7725 -2.1491282 -38.980225 -200 45 -200 45 -200 45
1789508751.4586 -2.1421518 -38.95541 -200 45 -200 45 -200 45
1790508868.1447 -2.1331677 -38.916573 -200 45 -200 45 -200 45
1791508984.8308 -2.1259995 -38.924633 -200 45 -200 45 -200 45
1792509101.5169 -2.1163452 -38.909218 -200 45 -200 45 -200 45
1793509218.203 -2.0946717 -38.926006 -200 45 -200 45 -200 45
1794509334.8891 -2.0634108 -38.987854 -200 45 -200 45 -200 45
1795509451.5753 -2.0522499 -39.005569 -200 45 -200 45 -200 45
1796509568.2614 -2.060092 -38.979557 -200 45 -200 45 -200 45
1797509684.9475 -2.1079042 -38.877663 -200 45 -200 45 -200 45
1798509801.6336 -2.1416996 -38.81805 -200 45 -200 45 -200 45
1799509918.3197 -2.1541181 -38.786064 -200 45 -200 45 -200 45
1800510035.0058 -2.1602752 -38.798328 -200 45 -200 45 -200 45
1801510151.6919 -2.1601338 -38.79406 -200 45 -200 45 -200 45
1802510268.3781 -2.1702127 -38.762581 -200 45 -200 45 -200 45
1803510385.0642 -2.181268 -38.785866 -200 45 -200 45 -200 45
1804510501.7503 -2.1876392 -38.783401 -200 45 -200 45 -200 45
1805510618.4364 -2.1818423 -38.771187 -200 45 -200 45 -200 45
1806510735.1225 -2.1725643 -38.793476 -200 45 -200 45 -200 45
1807510851.8086 -2.1675417 -38.815765 -200 45 -200 45 -200 45
1808510968.4947 -2.1566749 -38.837971 -200 45 -200 45 -200 45
1809511085.1809 -2.142221 -38.893066 -200 45 -200 45 -200 45
1810511201.867 -2.1093602 -38.984879 -200 45 -200 45 -200 45
1811511318.5531 -2.0944054 -39.027218 -200 45 -200 45 -200 45
1812511435.2392 -2.1056767 -39.054901 -200 45 -200 45 -200 45
1813511551.9253 -2.1463399 -38.992645 -200 45 -200 45 -200 45
1814511668.6114 -2.181308 -38.963131 -200 45 -200 45 -200 45
1815511785.2975 -2.1971476 -38.974808 -200 45 -200 45 -200 45
1816511901.9837 -2.2016356 -39.014038 -200 45 -200 45 -200 45
1817512018.6698 -2.2055559 -39.050632 -200 45 -200 45 -200 45
1818512135.3559 -2.2110813 -39.085213 -200 45 -200 45 -200 45
1819512252.042 -2.2208362 -39.123459 -200 45 -200 45 -200 45
1820512368.7281 -2.2265608 -39.169037 -200 45 -200 45 -200 45
1821512485.4142 -2.2222536 -39.212246 -200 45 -200 45 -200 45
1822512602.1004 -2.2122593 -39.261002 -200 45 -200 45 -200 45
1823512718.7865 -2.203465 -39.318619 -200 45 -200 45 -200 45
1824512835.4726 -2.1924489 -39.375065 -200 45 -200 45 -200 45
1825512952.1587 -2.1750281 -39.469387 -200 45 -200 45 -200 45
1826513068.8448 -2.1421797 -39.572334 -200 45 -200 45 -200 45
1827513185.5309 -2.1186261 -39.69463 -200 45 -200 45 -200 45
1828513302.217 -2.1278369 -39.719276 -200 45 -200 45 -200 45
1829513418.9032 -2.1643386 -39.702881 -200 45 -200 45 -200 45
1830513535.5893 -2.2010872 -39.705021 -200 45 -200 45 -200 45
1831513652.2754 -2.2137549 -39.760807 -200 45 -200 45 -200 45
1832513768.9615 -2.2167461 -39.793438 -200 45 -200 45 -200 45
1833513885.6476 -2.2156765 -39.85627 -200 45 -200 45 -200 45
1834514002.3337 -2.2192221 -39.90979 -200 45 -200 45 -200 45
1835514119.0198 -2.2270334 -39.966473 -200 45 -200 45 -200 45
1836514235.706 -2.2307971 -40.019665 -200 45 -200 45 -200 45
1837514352.3921 -2.2232444 -40.066097 -200 45 -200 45 -200 45
1838514469.0782 -2.2129862 -40.118507 -200 45 -200 45 -200 45
1839514585.7643 -2.2016866 -40.180412 -200 45 -200 45 -200 45
1840514702.4504 -2.1875656 -40.234085 -200 45 -200 45 -200 45
1841514819.1365 -2.1725481 -40.29987 -200 45 -200 45 -200 45
1842514935.8226 -2.1385005 -40.415447 -200 45 -200 45 -200 45
1843515052.5088 -2.1108911 -40.521942 -200 45 -200 45 -200 45
1844515169.1949 -2.1129787 -40.529083 -200 45 -200 45 -200 45
1845515285.881 -2.1418653 -40.512455 -200 45 -200 45 -200 45
1846515402.5671 -2.1780622 -40.456566 -200 45 -200 45 -200 45
1847515519.2532 -2.1921592 -40.482159 -200 45 -200 45 -200 45
1848515635.9393 -2.1944683 -40.490974 -200 45 -200 45 -200 45
1849515752.6254 -2.1949425 -40.505196 -200 45 -200 45 -200 45
1850515869.3116 -2.1945615 -40.543968 -200 45 -200 45 -200 45
1851515985.9977 -2.2008169 -40.558022 -200 45 -200 45 -200 45
1852516102.6838 -2.2050474 -40.584091 -200 45 -200 45 -200 45
1853516219.3699 -2.1979125 -40.591949 -200 45 -200 45 -200 45
1854516336.056 -2.1872232 -40.582573 -200 45 -200 45 -200 45
1855516452.7421 -2.1731679 -40.602402 -200 45 -200 45 -200 45
1856516569.4282 -2.163295 -40.619698 -200 45 -200 45 -200 45
1857516686.1144 -2.144954 -40.6408 -200 45 -200 45 -200 45
1858516802.8005 -2.1173608 -40.691582 -200 45 -200 45 -200 45
1859516919.4866 -2.0834785 -40.775326 -200 45 -200 45 -200 45
1860517036.1727 -2.0894482 -40.73896 -200 45 -200 45 -200 45
1861517152.8588 -2.1104171 -40.679272 -200 45 -200 45 -200 45
1862517269.5449 -2.150255 -40.577789 -200 45 -200 45 -200 45
1863517386.231 -2.1664643 -40.557068 -200 45 -200 45 -200 45
1864517502.9172 -2.1730022 -40.542362 -200 45 -200 45 -200 45
1865517619.6033 -2.1733706 -40.512566 -200 45 -200 45 -200 45
1866517736.2894 -2.1758082 -40.499786 -200 45 -200 45 -200 45
1867517852.9755 -2.1844695 -40.478367 -200 45 -200 45 -200 45
1868517969.6616 -2.1903486 -40.448807 -200 45 -200 45 -200 45
1869518086.3477 -2.1868768 -40.429688 -200 45 -200 45 -200 45
1870518203.0338 -2.1780164 -40.408066 -200 45 -200 45 -200 45
1871518319.72 -2.1681921 -40.39743 -200 45 -200 45 -200 45
1872518436.4061 -2.1592944 -40.375702 -200 45 -200 45 -200 45
1873518553.0922 -2.1462207 -40.383305 -200 45 -200 45 -200 45
1874518669.7783 -2.1198468 -40.399769 -200 45 -200 45 -200 45
1875518786.4644 -2.090771 -40.462276 -200 45 -200 45 -200 45
1876518903.1505 -2.0941589 -40.427952 -200 45 -200 45 -200 45
1877519019.8366 -2.1160002 -40.354317 -200 45 -200 45 -200 45
1878519136.5228 -2.1611593 -40.247078 -200 45 -200 45 -200 45
1879519253.2089 -2.184063 -40.196129 -200 45 -200 45 -200 45
1880519369.895 -2.1901014 -40.186306 -200 45 -200 45 -200 45
1881519486.5811 -2.1936128 -40.163746 -200 45 -200 45 -200 45
1882519603.2672 -2.1978016 -40.144611 -200 45 -200 45 -200 45
1883519719.9533 -2.2088349 -40.130554 -200 45 -200 45 -200 45
1884519836.6394 -2.2188358 -40.126923 -200 45 -200 45 -200 45
1885519953.3256 -2.2196791 -40.112621 -200 45 -200 45 -200 45
1886520070.0117 -2.2113576 -40.106564 -200 45 -200 45 -200 45
1887520186.6978 -2.2028816 -40.10535 -200 45 -200 45 -200 45
1888520303.3839 -2.1978467 -40.108376 -200 45 -200 45 -200 45
1889520420.07 -2.1864674 -40.147884 -200 45 -200 45 -200 45
1890520536.7561 -2.1653736 -40.184704 -200 45 -200 45 -200 45
1891520653.4422 -2.1342986 -40.296101 -200 45 -200 45 -200 45
1892520770.1284 -2.14114 -40.304337 -200 45 -200 45 -200 45
1893520886.8145 -2.1564872 -40.269001 -200 45 -200 45 -200 45
1894521003.5006 -2.2068999 -40.185211 -200 45 -200 45 -200 45
1895521120.1867 -2.2297287 -40.193806 -200 45 -200 45 -200 45
1896521236.8728 -2.2401197 -40.198383 -200 45 -200 45 -200 45
1897521353.5589 -2.2449369 -40.231998 -200 45 -200 45 -200 45
1898521470.245 -2.2510369 -40.267307 -200 45 -200 45 -200 45
1899521586.9312 -2.2630386 -40.301464 -200 45 -200 45 -200 45
1900521703.6173 -2.2732041 -40.342583 -200 45 -200 45 -200 45
1901521820.3034 -2.2815547 -40.378784 -200 45 -200 45 -200 45
1902521936.9895 -2.2752135 -40.396343 -200 45 -200 45 -200 45
1903522053.6756 -2.2680905 -40.408192 -200 45 -200 45 -200 45
1904522170.3617 -2.2623858 -40.454433 -200 45 -200 45 -200 45
1905522287.0478 -2.2463775 -40.508854 -200 45 -200 45 -200 45
1906522403.734 -2.2226613 -40.592083 -200 45 -200 45 -200 45
1907522520.4201 -2.1872289 -40.729652 -200 45 -200 45 -200 45
1908522637.1062 -2.1862652 -40.781822 -200 45 -200 45 -200 45
1909522753.7923 -2.1965668 -40.820095 -200 45 -200 45 -200 45
1910522870.4784 -2.2464764 -40.772507 -200 45 -200 45 -200 45
1911522987.1645 -2.2700908 -40.769909 -200 45 -200 45 -200 45
1912523103.8506 -2.2767961 -40.835892 -200 45 -200 45 -200 45
1913523220.5368 -2.2799683 -40.888645 -200 45 -200 45 -200 45
1914523337.2229 -2.2796924 -40.940094 -200 45 -200 45 -200 45
1915523453.909 -2.2901096 -40.970856 -200 45 -200 45 -200 45
1916523570.5951 -2.2942617 -41.03524 -200 45 -200 45 -200 45
1917523687.2812 -2.2929533 -41.078884 -200 45 -200 45 -200 45
1918523803.9673 -2.2805948 -41.134838 -200 45 -200 45 -200 45
1919523920.6534 -2.2669666 -41.208981 -200 45 -200 45 -200 45
1920524037.3396 -2.2550859 -41.271 -200 45 -200 45 -200 45
1921524154.0257 -2.2397225 -41.334354 -200 45 -200 45 -200 45
1922524270.7118 -2.2182086 -41.448647 -200 45 -200 45 -200 45
1923524387.3979 -2.1794708 -41.588146 -200 45 -200 45 -200 45
1924524504.084 -2.1701238 -41.647682 -200 45 -200 45 -200 45
1925524620.7701 -2.1769345 -41.684692 -200 45 -200 45 -200 45
1926524737.4562 -2.2195945 -41.636562 -200 45 -200 45 -200 45
1927524854.1424 -2.2425544 -41.629158 -200 45 -200 45 -200 45
1928524970.8285 -2.2516131 -41.681313 -200 45 -200 45 -200 45
1929525087.5146 -2.2503304 -41.719856 -200 45 -200 45 -200 45
1930525204.2007 -2.2489951 -41.758015 -200 45 -200 45 -200 45
1931525320.8868 -2.2539887 -41.796162 -200 45 -200 45 -200 45
1932525437.5729 -2.258409 -41.83136 -200 45 -200 45 -200 45
1933525554.259 -2.2583346 -41.844128 -200 45 -200 45 -200 45
1934525670.9452 -2.2465007 -41.87582 -200 45 -200 45 -200 45
1935525787.6313 -2.2342913 -41.888371 -200 45 -200 45 -200 45
1936525904.3174 -2.2217977 -41.933262 -200 45 -200 45 -200 45
1937526021.0035 -2.2077191 -41.953892 -200 45 -200 45 -200 45
1938526137.6896 -2.1859107 -42.021061 -200 45 -200 45 -200 45
1939526254.3757 -2.1526525 -42.094658 -200 45 -200 45 -200 45
1940526371.0618 -2.1404085 -42.138119 -200 45 -200 45 -200 45
1941526487.748 -2.1427603 -42.102043 -200 45 -200 45 -200 45
1942526604.4341 -2.1856401 -41.995678 -200 45 -200 45 -200 45
1943526721.1202 -2.2123468 -41.956955 -200 45 -200 45 -200 45
1944526837.8063 -2.2212381 -41.947277 -200 45 -200 45 -200 45
1945526954.4924 -2.2227671 -41.949127 -200 45 -200 45 -200 45
1946527071.1785 -2.2203929 -41.919563 -200 45 -200 45 -200 45
1947527187.8646 -2.227582 -41.901695 -200 45 -200 45 -200 45
1948527304.5508 -2.2304325 -41.884609 -200 45 -200 45 -200 45
1949527421.2369 -2.2347395 -41.874893 -200 45 -200 45 -200 45
1950527537.923 -2.2259955 -41.843864 -200 45 -200 45 -200 45
1951527654.6091 -2.2149308 -41.827621 -200 45 -200 45 -200 45
1952527771.2952 -2.2064378 -41.794788 -200 45 -200 45 -200 45
1953527887.9813 -2.1948566 -41.79171 -200 45 -200 45 -200 45
1954528004.6674 -2.1743076 -41.792923 -200 45 -200 45 -200 45
1955528121.3536 -2.1438279 -41.856567 -200 45 -200 45 -200 45
1956528238.0397 -2.1278627 -41.861153 -200 45 -200 45 -200 45
1957528354.7258 -2.1334834 -41.816277 -200 45 -200 45 -200 45
1958528471.4119 -2.1763465 -41.690205 -200 45 -200 45 -200 45
1959528588.098 -2.2058802 -41.615776 -200 45 -200 45 -200 45
1960528704.7841 -2.2194848 -41.562153 -200 45 -200 45 -200 45
1961528821.4702 -2.2255058 -41.52803 -200 45 -200 45 -200 45
1962528938.1564 -2.2244728 -41.525154 -200 45 -200 45 -200 45
1963529054.8425 -2.2336731 -41.488285 -200 45 -200 45 -200 45
1964529171.5286 -2.2426908 -41.444458 -200 45 -200 45 -200 45
1965529288.2147 -2.2476232 -41.441345 -200 45 -200 45 -200 45
1966529404.9008 -2.2448604 -41.429462 -200 45 -200 45 -200 45
1967529521.5869 -2.2364426 -41.394905 -200 45 -200 45 -200 45
1968529638.273 -2.2314677 -41.392605 -200 45 -200 45 -200 45
1969529754.9592 -2.2231274 -41.397949 -200 45 -200 45 -200 45
1970529871.6453 -2.2083266 -41.394691 -200 45 -200 45 -200 45
1971529988.3314 -2.1799238 -41.481384 -200 45 -200 45 -200 45
1972530105.0175 -2.1635985 -41.524086 -200 45 -200 45 -200 45
1973530221.7036 -2.1713204 -41.501545 -200 45 -200 45 -200 45
1974530338.3897 -2.2088227 -41.407665 -200 45 -200 45 -200 45
1975530455.0758 -2.2451174 -41.34729 -200 45 -200 45 -200 45
1976530571.762 -2.2646301 -41.335087 -200 45 -200 45 -200 45
1977530688.4481 -2.2684004 -41.347149 -200 45 -200 45 -200 45
1978530805.1342 -2.274174 -41.37051 -200 45 -200 45 -200 45
1979530921.8203 -2.2804828 -41.371647 -200 45 -200 45 -200 45
1980531038.5064 -2.2913437 -41.403679 -200 45 -200 45 -200 45
1981531155.1925 -2.2994726 -41.418022 -200 45 -200 45 -200 45
1982531271.8786 -2.2977688 -41.461056 -200 45 -200 45 -200 45
1983531388.5648 -2.2904637 -41.47723 -200 45 -200 45 -200 45
1984531505.2509 -2.2813096 -41.529602 -200 45 -200 45 -200 45
1985531621.937 -2.27619 -41.578865 -200 45 -200 45 -200 45
1986531738.6231 -2.2588384 -41.654228 -200 45 -200 45 -200 45
1987531855.3092 -2.2342026 -41.762524 -200 45 -200 45 -200 45
1988531971.9953 -2.2080989 -41.869846 -200 45 -200 45 -200 45
1989532088.6814 -2.2198694 -41.90324 -200 45 -200 45 -200 45
1990532205.3676 -2.253406 -41.884296 -200 45 -200 45 -200 45
1991532322.0537 -2.2895715 -41.857967 -200 45 -200 45 -200 45
1992532438.7398 -2.3057368 -41.891777 -200 45 -200 45 -200 45
1993532555.4259 -2.3114467 -41.950607 -200 45 -200 45 -200 45
1994532672.112 -2.3140793 -42.011715 -200 45 -200 45 -200 45
1995532788.7981 -2.3173985 -42.066742 -200 45 -200 45 -200 45
1996532905.4842 -2.3261733 -42.136719 -200 45 -200 45 -200 45
1997533022.1704 -2.3332551 -42.193275 -200 45 -200 45 -200 45
1998533138.8565 -2.3275588 -42.265385 -200 45 -200 45 -200 45
1999533255.5426 -2.3190227 -42.321075 -200 45 -200 45 -200 45
2000533372.2287 -2.3089755 -42.406563 -200 45 -200 45 -200 45
2001533488.9148 -2.2982786 -42.485516 -200 45 -200 45 -200 45
2002533605.6009 -2.2809162 -42.559837 -200 45 -200 45 -200 45
2003533722.287 -2.2514014 -42.684772 -200 45 -200 45 -200 45
2004533838.9732 -2.2232339 -42.845272 -200 45 -200 45 -200 45
2005533955.6593 -2.2293913 -42.879356 -200 45 -200 45 -200 45
2006534072.3454 -2.2506325 -42.882858 -200 45 -200 45 -200 45
2007534189.0315 -2.2920036 -42.845642 -200 45 -200 45 -200 45
2008534305.7176 -2.3049595 -42.890179 -200 45 -200 45 -200 45
2009534422.4037 -2.3081646 -42.926594 -200 45 -200 45 -200 45
2010534539.0898 -2.3089929 -42.982552 -200 45 -200 45 -200 45
2011534655.776 -2.309562 -43.035713 -200 45 -200 45 -200 45
2012534772.4621 -2.3166852 -43.07444 -200 45 -200 45 -200 45
2013534889.1482 -2.3224034 -43.103703 -200 45 -200 45 -200 45
2014535005.8343 -2.3207285 -43.15197 -200 45 -200 45 -200 45
2015535122.5204 -2.3085589 -43.156921 -200 45 -200 45 -200 45
2016535239.2065 -2.2935035 -43.188511 -200 45 -200 45 -200 45
2017535355.8926 -2.2833633 -43.214336 -200 45 -200 45 -200 45
2018535472.5788 -2.259666 -43.247925 -200 45 -200 45 -200 45
2019535589.2649 -2.2303545 -43.325493 -200 45 -200 45 -200 45
2020535705.951 -2.1952875 -43.446884 -200 45 -200 45 -200 45
2021535822.6371 -2.1989148 -43.445038 -200 45 -200 45 -200 45
2022535939.3232 -2.2106299 -43.412437 -200 45 -200 45 -200 45
2023536056.0093 -2.2505774 -43.341251 -200 45 -200 45 -200 45
2024536172.6954 -2.2663012 -43.326317 -200 45 -200 45 -200 45
2025536289.3816 -2.2691083 -43.326408 -200 45 -200 45 -200 45
2026536406.0677 -2.2692506 -43.316994 -200 45 -200 45 -200 45
2027536522.7538 -2.266685 -43.320389 -200 45 -200 45 -200 45
2028536639.4399 -2.2750063 -43.314053 -200 45 -200 45 -200 45
2029536756.126 -2.279115 -43.313606 -200 45 -200 45 -200 45
2030536872.8121 -2.2749686 -43.288624 -200 45 -200 45 -200 45
2031536989.4982 -2.2619283 -43.262894 -200 45 -200 45 -200 45
2032537106.1844 -2.2514205 -43.256073 -200 45 -200 45 -200 45
2033537222.8705 -2.2412906 -43.238419 -200 45 -200 45 -200 45
2034537339.5566 -2.2238896 -43.240364 -200 45 -200 45 -200 45
2035537456.2427 -2.1999743 -43.273968 -200 45 -200 45 -200 45
2036537572.9288 -2.1683149 -43.346397 -200 45 -200 45 -200 45
2037537689.6149 -2.1684535 -43.300537 -200 45 -200 45 -200 45
2038537806.3011 -2.183527 -43.226513 -200 45 -200 45 -200 45
2039537922.9872 -2.2257493 -43.103767 -200 45 -200 45 -200 45
2040538039.6733 -2.2462406 -43.042286 -200 45 -200 45 -200 45
2041538156.3594 -2.2534699 -43.01239 -200 45 -200 45 -200 45
2042538273.0455 -2.2567606 -42.975822 -200 45 -200 45 -200 45
2043538389.7316 -2.2572401 -42.961834 -200 45 -200 45 -200 45
2044538506.4177 -2.2673736 -42.902794 -200 45 -200 45 -200 45
2045538623.1039 -2.2745945 -42.883408 -200 45 -200 45 -200 45
2046538739.79 -2.27549 -42.846748 -200 45 -200 45 -200 45
2047538856.4761 -2.2672248 -42.820602 -200 45 -200 45 -200 45
2048538973.1622 -2.2589478 -42.795399 -200 45 -200 45 -200 45
2049539089.8483 -2.2544472 -42.784592 -200 45 -200 45 -200 45
2050539206.5344 -2.2426839 -42.771229 -200 45 -200 45 -200 45
2051539323.2205 -2.2224777 -42.804077 -200 45 -200 45 -200 45
2052539439.9067 -2.1927662 -42.879295 -200 45 -200 45 -200 45
2053539556.5928 -2.194231 -42.853497 -200 45 -200 45 -200 45
2054539673.2789 -2.207665 -42.819115 -200 45 -200 45 -200 45
2055539789.965 -2.2546778 -42.699848 -200 45 -200 45 -200 45
2056539906.6511 -2.2772229 -42.657051 -200 45 -200 45 -200 45
2057540023.3372 -2.2901592 -42.659771 -200 45 -200 45 -200 45
2058540140.0233 -2.294533 -42.643036 -200 45 -200 45 -200 45
2059540256.7095 -2.2998128 -42.633312 -200 45 -200 45 -200 45
2060540373.3956 -2.3117609 -42.6497 -200 45 -200 45 -200 45
2061540490.0817 -2.3191264 -42.643028 -200 45 -200 45 -200 45
2062540606.7678 -2.3236885 -42.665421 -200 45 -200 45 -200 45
2063540723.4539 -2.318902 -42.678455 -200 45 -200 45 -200 45
2064540840.14 -2.3111651 -42.70092 -200 45 -200 45 -200 45
2065540956.8261 -2.3069317 -42.736401 -200 45 -200 45 -200 45
2066541073.5123 -2.2991583 -42.797138 -200 45 -200 45 -200 45
2067541190.1984 -2.2793198 -42.861404 -200 45 -200 45 -200 45
2068541306.8845 -2.2495403 -42.997025 -200 45 -200 45 -200 45
2069541423.5706 -2.2463131 -43.037109 -200 45 -200 45 -200 45
2070541540.2567 -2.2543812 -43.064526 -200 45 -200 45 -200 45
2071541656.9428 -2.3042884 -42.991074 -200 45 -200 45 -200 45
2072541773.6289 -2.3315077 -42.995255 -200 45 -200 45 -200 45
2073541890.3151 -2.3415086 -43.054646 -200 45 -200 45 -200 45
2074542007.0012 -2.3471751 -43.106258 -200 45 -200 45 -200 45
2075542123.6873 -2.3484187 -43.143822 -200 45 -200 45 -200 45
2076542240.3734 -2.3563066 -43.202663 -200 45 -200 45 -200 45
2077542357.0595 -2.3659005 -43.271027 -200 45 -200 45 -200 45
2078542473.7456 -2.3703425 -43.324375 -200 45 -200 45 -200 45
2079542590.4317 -2.3616352 -43.390976 -200 45 -200 45 -200 45
2080542707.1179 -2.351197 -43.468391 -200 45 -200 45 -200 45
2081542823.804 -2.3442252 -43.555798 -200 45 -200 45 -200 45
2082542940.4901 -2.3320758 -43.614479 -200 45 -200 45 -200 45
2083543057.1762 -2.3127093 -43.74651 -200 45 -200 45 -200 45
2084543173.8623 -2.2790766 -43.897881 -200 45 -200 45 -200 45
2085543290.5484 -2.2696798 -43.998604 -200 45 -200 45 -200 45
2086543407.2345 -2.276294 -44.042042 -200 45 -200 45 -200 45
2087543523.9207 -2.3191533 -44.013245 -200 45 -200 45 -200 45
2088543640.6068 -2.3418086 -44.024616 -200 45 -200 45 -200 45
2089543757.2929 -2.3514872 -44.072006 -200 45 -200 45 -200 45
2090543873.979 -2.3519728 -44.138103 -200 45 -200 45 -200 45
2091543990.6651 -2.3507926 -44.201607 -200 45 -200 45 -200 45
2092544107.3512 -2.3569658 -44.277191 -200 45 -200 45 -200 45
2093544224.0373 -2.3608363 -44.31221 -200 45 -200 45 -200 45
2094544340.7235 -2.3595302 -44.381817 -200 45 -200 45 -200 45
2095544457.4096 -2.3533862 -44.432411 -200 45 -200 45 -200 45
2096544574.0957 -2.3379653 -44.500912 -200 45 -200 45 -200 45
2097544690.7818 -2.327354 -44.545658 -200 45 -200 45 -200 45
2098544807.4679 -2.3124878 -44.609314 -200 45 -200 45 -200 45
2099544924.154 -2.2914696 -44.683437 -200 45 -200 45 -200 45
2100545040.8401 -2.2569695 -44.79052 -200 45 -200 45 -200 45
2101545157.5263 -2.2419953 -44.878521 -200 45 -200 45 -200 45
2102545274.2124 -2.2433748 -44.898155 -200 45 -200 45 -200 45
2103545390.8985 -2.2791548 -44.815536 -200 45 -200 45 -200 45
2104545507.5846 -2.3052244 -44.786137 -200 45 -200 45 -200 45
2105545624.2707 -2.3130977 -44.792145 -200 45 -200 45 -200 45
2106545740.9568 -2.3130722 -44.796726 -200 45 -200 45 -200 45
2107545857.6429 -2.3130105 -44.807438 -200 45 -200 45 -200 45
2108545974.3291 -2.3131075 -44.806934 -200 45 -200 45 -200 45
2109546091.0152 -2.3175588 -44.801849 -200 45 -200 45 -200 45
2110546207.7013 -2.3183992 -44.818119 -200 45 -200 45 -200 45
2111546324.3874 -2.3099475 -44.812798 -200 45 -200 45 -200 45
2112546441.0735 -2.2964728 -44.818287 -200 45 -200 45 -200 45
2113546557.7596 -2.2853596 -44.794254 -200 45 -200 45 -200 45
2114546674.4457 -2.271534 -44.800369 -200 45 -200 45 -200 45
2115546791.1319 -2.255348 -44.819153 -200 45 -200 45 -200 45
2116546907.818 -2.2232466 -44.868042 -200 45 -200 45 -200 45
2117547024.5041 -2.2050054 -44.888214 -200 45 -200 45 -200 45
2118547141.1902 -2.2069025 -44.853889 -200 45 -200 45 -200 45
2119547257.8763 -2.2397928 -44.731525 -200 45 -200 45 -200 45
2120547374.5624 -2.2688901 -44.648018 -200 45 -200 45 -200 45
2121547491.2485 -2.2808189 -44.60025 -200 45 -200 45 -200 45
2122547607.9347 -2.2823966 -44.550983 -200 45 -200 45 -200 45
2123547724.6208 -2.2842979 -44.514717 -200 45 -200 45 -200 45
2124547841.3069 -2.2892811 -44.479649 -200 45 -200 45 -200 45
2125547957.993 -2.2962153 -44.437366 -200 45 -200 45 -200 45
2126548074.6791 -2.3022044 -44.393944 -200 45 -200 45 -200 45
2127548191.3652 -2.2970552 -44.350475 -200 45 -200 45 -200 45
2128548308.0513 -2.2903452 -44.324749 -200 45 -200 45 -200 45
2129548424.7375 -2.2801104 -44.291145 -200 45 -200 45 -200 45
2130548541.4236 -2.273675 -44.281376 -200 45 -200 45 -200 45
2131548658.1097 -2.2570095 -44.286587 -200 45 -200 45 -200 45
2132548774.7958 -2.2343252 -44.304173 -200 45 -200 45 -200 45
2133548891.4819 -2.2107151 -44.358208 -200 45 -200 45 -200 45
2134549008.168 -2.2212279 -44.29705 -200 45 -200 45 -200 45
2135549124.8541 -2.2516727 -44.184063 -200 45 -200 45 -200 45
2136549241.5403 -2.2886295 -44.092251 -200 45 -200 45 -200 45
2137549358.2264 -2.3068886 -44.045506 -200 45 -200 45 -200 45
2138549474.9125 -2.3149042 -44.008869 -200 45 -200 45 -200 45
2139549591.5986 -2.3160098 -44.002533 -200 45 -200 45 -200 45
2140549708.2847 -2.3255792 -43.981125 -200 45 -200 45 -200 45
2141549824.9708 -2.3352687 -43.967438 -200 45 -200 45 -200 45
2142549941.6569 -2.3455541 -43.966583 -200 45 -200 45 -200 45
2143550058.3431 -2.3412697 -43.971405 -200 45 -200 45 -200 45
2144550175.0292 -2.3375473 -43.970093 -200 45 -200 45 -200 45
2145550291.7153 -2.3296962 -43.984436 -200 45 -200 45 -200 45
2146550408.4014 -2.324101 -43.997314 -200 45 -200 45 -200 45
2147550525.0875 -2.3142195 -44.044048 -200 45 -200 45 -200 45
2148550641.7736 -2.2936485 -44.136021 -200 45 -200 45 -200 45
2149550758.4597 -2.2701974 -44.250805 -200 45 -200 45 -200 45
2150550875.1459 -2.2796206 -44.235901 -200 45 -200 45 -200 45
2151550991.832 -2.3065143 -44.205475 -200 45 -200 45 -200 45
2152551108.5181 -2.3449914 -44.152206 -200 45 -200 45 -200 45
2153551225.2042 -2.3660111 -44.165527 -200 45 -200 45 -200 45
2154551341.8903 -2.37486 -44.217682 -200 45 -200 45 -200 45
2155551458.5764 -2.3772633 -44.26405 -200 45 -200 45 -200 45
2156551575.2625 -2.381366 -44.310566 -200 45 -200 45 -200 45
2157551691.9487 -2.3927536 -44.350258 -200 45 -200 45 -200 45
2158551808.6348 -2.4017076 -44.419163 -200 45 -200 45 -200 45
2159551925.3209 -2.399714 -44.47374 -200 45 -200 45 -200 45
2160552042.007 -2.3952587 -44.554317 -200 45 -200 45 -200 45
2161552158.6931 -2.3843284 -44.618153 -200 45 -200 45 -200 45
2162552275.3792 -2.3789363 -44.704521 -200 45 -200 45 -200 45
2163552392.0653 -2.3656297 -44.807331 -200 45 -200 45 -200 45
2164552508.7515 -2.3395929 -44.930527 -200 45 -200 45 -200 45
2165552625.4376 -2.3120854 -45.101295 -200 45 -200 45 -200 45
2166552742.1237 -2.3207369 -45.15881 -200 45 -200 45 -200 45
2167552858.8098 -2.3374498 -45.165165 -200 45 -200 45 -200 45
2168552975.4959 -2.3783276 -45.142136 -200 45 -200 45 -200 45
2169553092.182 -2.3951902 -45.199123 -200 45 -200 45 -200 45
2170553208.8681 -2.3994188 -45.266575 -200 45 -200 45 -200 45
2171553325.5543 -2.4003634 -45.356617 -200 45 -200 45 -200 45
2172553442.2404 -2.3988874 -45.427322 -200 45 -200 45 -200 45
2173553558.9265 -2.4073794 -45.487381 -200 45 -200 45 -200 45
2174553675.6126 -2.412744 -45.547096 -200 45 -200 45 -200 45
2175553792.2987 -2.4094143 -45.619598 -200 45 -200 45 -200 45
2176553908.9848 -2.3989336 -45.699432 -200 45 -200 45 -200 45
2177554025.6709 -2.3831949 -45.774105 -200 45 -200 45 -200 45
2178554142.3571 -2.3728819 -45.842369 -200 45 -200 45 -200 45
2179554259.0432 -2.3608952 -45.927658 -200 45 -200 45 -200 45
2180554375.7293 -2.331476 -46.036526 -200 45 -200 45 -200 45
2181554492.4154 -2.2969594 -46.178249 -200 45 -200 45 -200 45
2182554609.1015 -2.2966855 -46.221039 -200 45 -200 45 -200 45
2183554725.7876 -2.3071325 -46.23867 -200 45 -200 45 -200 45
2184554842.4737 -2.3463264 -46.164402 -200 45 -200 45 -200 45
2185554959.1599 -2.3598449 -46.170105 -200 45 -200 45 -200 45
2186555075.846 -2.3656733 -46.20052 -200 45 -200 45 -200 45
2187555192.5321 -2.3640268 -46.211594 -200 45 -200 45 -200 45
2188555309.2182 -2.3614461 -46.255959 -200 45 -200 45 -200 45
2189555425.9043 -2.3660715 -46.261692 -200 45 -200 45 -200 45
2190555542.5904 -2.3694923 -46.266876 -200 45 -200 45 -200 45
2191555659.2765 -2.3633366 -46.291233 -200 45 -200 45 -200 45
2192555775.9627 -2.3516307 -46.298492 -200 45 -200 45 -200 45
2193555892.6488 -2.3391857 -46.303955 -200 45 -200 45 -200 45
2194556009.3349 -2.329118 -46.305637 -200 45 -200 45 -200 45
2195556126.021 -2.3098876 -46.336754 -200 45 -200 45 -200 45
2196556242.7071 -2.2873678 -46.367317 -200 45 -200 45 -200 45
2197556359.3932 -2.2503009 -46.456314 -200 45 -200 45 -200 45
2198556476.0793 -2.2493517 -46.423286 -200 45 -200 45 -200 45
2199556592.7655 -2.2574325 -46.366074 -200 45 -200 45 -200 45
2200556709.4516 -2.2987778 -46.241154 -200 45 -200 45 -200 45
2201556826.1377 -2.3180099 -46.197861 -200 45 -200 45 -200 45
2202556942.8238 -2.3220737 -46.159061 -200 45 -200 45 -200 45
2203557059.5099 -2.3220694 -46.119747 -200 45 -200 45 -200 45
2204557176.196 -2.3235631 -46.068104 -200 45 -200 45 -200 45
2205557292.8821 -2.3274288 -46.052246 -200 45 -200 45 -200 45
2206557409.5683 -2.3339589 -46.00441 -200 45 -200 45 -200 45
2207557526.2544 -2.3360994 -45.962524 -200 45 -200 45 -200 45
2208557642.9405 -2.3278172 -45.91972 -200 45 -200 45 -200 45
2209557759.6266 -2.3152893 -45.88763 -200 45 -200 45 -200 45
2210557876.3127 -2.3087611 -45.856689 -200 45 -200 45 -200 45
2211557992.9988 -2.299845 -45.833538 -200 45 -200 45 -200 45
2212558109.6849 -2.281841 -45.840202 -200 45 -200 45 -200 45
2213558226.3711 -2.2477791 -45.885651 -200 45 -200 45 -200 45
2214558343.0572 -2.2459769 -45.86816 -200 45 -200 45 -200 45
2215558459.7433 -2.2545056 -45.780899 -200 45 -200 45 -200 45
2216558576.4294 -2.3005948 -45.647587 -200 45 -200 45 -200 45
2217558693.1155 -2.3250077 -45.572453 -200 45 -200 45 -200 45
2218558809.8016 -2.3350127 -45.526611 -200 45 -200 45 -200 45
2219558926.4877 -2.3412809 -45.495319 -200 45 -200 45 -200 45
2220559043.1739 -2.3435147 -45.457115 -200 45 -200 45 -200 45
2221559159.86 -2.353801 -45.431187 -200 45 -200 45 -200 45
2222559276.5461 -2.3629794 -45.415607 -200 45 -200 45 -200 45
2223559393.2322 -2.3693538 -45.388668 -200 45 -200 45 -200 45
2224559509.9183 -2.3622203 -45.378811 -200 45 -200 45 -200 45
2225559626.6044 -2.3587487 -45.374886 -200 45 -200 45 -200 45
2226559743.2905 -2.3531663 -45.37812 -200 45 -200 45 -200 45
2227559859.9767 -2.3448448 -45.391315 -200 45 -200 45 -200 45
2228559976.6628 -2.332525 -45.42802 -200 45 -200 45 -200 45
2229560093.3489 -2.3033099 -45.525116 -200 45 -200 45 -200 45
2230560210.035 -2.2995868 -45.547714 -200 45 -200 45 -200 45
2231560326.7211 -2.3089135 -45.555229 -200 45 -200 45 -200 45
2232560443.4072 -2.352885 -45.4627 -200 45 -200 45 -200 45
2233560560.0933 -2.3814557 -45.433186 -200 45 -200 45 -200 45
2234560676.7795 -2.3978 -45.454369 -200 45 -200 45 -200 45
2235560793.4656 -2.4033842 -45.482071 -200 45 -200 45 -200 45
2236560910.1517 -2.4097762 -45.520164 -200 45 -200 45 -200 45
2237561026.8378 -2.4171767 -45.544842 -200 45 -200 45 -200 45
2238561143.5239 -2.4299912 -45.602264 -200 45 -200 45 -200 45
2239561260.21 -2.4346764 -45.650482 -200 45 -200 45 -200 45
2240561376.8961 -2.4294682 -45.709133 -200 45 -200 45 -200 45
2241561493.5823 -2.4248974 -45.768246 -200 45 -200 45 -200 45
2242561610.2684 -2.4205968 -45.837204 -200 45 -200 45 -200 45
2243561726.9545 -2.4102948 -45.923473 -200 45 -200 45 -200 45
2244561843.6406 -2.396071 -46.033375 -200 45 -200 45 -200 45
2245561960.3267 -2.365418 -46.194786 -200 45 -200 45 -200 45
2246562077.0128 -2.3548515 -46.294842 -200 45 -200 45 -200 45
2247562193.6989 -2.3618128 -46.349251 -200 45 -200 45 -200 45
2248562310.3851 -2.3998728 -46.319687 -200 45 -200 45 -200 45
2249562427.0712 -2.4313476 -46.325825 -200 45 -200 45 -200 45
2250562543.7573 -2.4404478 -46.403625 -200 45 -200 45 -200 45
2251562660.4434 -2.4483123 -46.459351 -200 45 -200 45 -200 45
2252562777.1295 -2.444248 -46.568905 -200 45 -200 45 -200 45
2253562893.8156 -2.4499147 -46.629803 -200 45 -200 45 -200 45
2254563010.5018 -2.4589028 -46.713188 -200 45 -200 45 -200 45
2255563127.1879 -2.4620249 -46.802132 -200 45 -200 45 -200 45
2256563243.874 -2.4529846 -46.873238 -200 45 -200 45 -200 45
2257563360.5601 -2.4424574 -46.966011 -200 45 -200 45 -200 45
2258563477.2462 -2.4304035 -47.043907 -200 45 -200 45 -200 45
2259563593.9323 -2.4202652 -47.146389 -200 45 -200 45 -200 45
2260563710.6184 -2.3985653 -47.254868 -200 45 -200 45 -200 45
2261563827.3046 -2.369097 -47.392693 -200 45 -200 45 -200 45
2262563943.9907 -2.3474569 -47.514977 -200 45 -200 45 -200 45
2263564060.6768 -2.3510604 -47.563862 -200 45 -200 45 -200 45
2264564177.3629 -2.3807788 -47.533478 -200 45 -200 45 -200 45
2265564294.049 -2.4072702 -47.518242 -200 45 -200 45 -200 45
2266564410.7351 -2.4162104 -47.557053 -200 45 -200 45 -200 45
2267564527.4212 -2.4202986 -47.608322 -200 45 -200 45 -200 45
2268564644.1074 -2.4148796 -47.646309 -200 45 -200 45 -200 45
2269564760.7935 -2.4146943 -47.67379 -200 45 -200 45 -200 45
2270564877.4796 -2.4183886 -47.706326 -200 45 -200 45 -200 45
2271564994.1657 -2.419843 -47.746506 -200 45 -200 45 -200 45
2272565110.8518 -2.4121635 -47.768028 -200 45 -200 45 -200 45
2273565227.5379 -2.3975859 -47.799213 -200 45 -200 45 -200 45
2274565344.224 -2.3847697 -47.822147 -200 45 -200 45 -200 45
2275565460.9102 -2.3704071 -47.838661 -200 45 -200 45 -200 45
2276565577.5963 -2.3520815 -47.885536 -200 45 -200 45 -200 45
2277565694.2824 -2.3218722 -47.963783 -200 45 -200 45 -200 45
2278565810.9685 -2.2980514 -48.030094 -200 45 -200 45 -200 45
2279565927.6546 -2.2996612 -48.000458 -200 45 -200 45 -200 45
2280566044.3407 -2.3228374 -47.892136 -200 45 -200 45 -200 45
2281566161.0268 -2.3512042 -47.821609 -200 45 -200 45 -200 45
2282566277.713 -2.3615968 -47.775772 -200 45 -200 45 -200 45
2283566394.3991 -2.3671968 -47.742043 -200 45 -200 45 -200 45
2284566511.0852 -2.3637471 -47.726067 -200 45 -200 45 -200 45
2285566627.7713 -2.3627903 -47.677116 -200 45 -200 45 -200 45
2286566744.4574 -2.3703492 -47.652596 -200 45 -200 45 -200 45
2287566861.1435 -2.3738029 -47.621037 -200 45 -200 45 -200 45
2288566977.8296 -2.3682568 -47.563526 -200 45 -200 45 -200 45
2289567094.5158 -2.3569767 -47.540489 -200 45 -200 45 -200 45
2290567211.2019 -2.3464437 -47.497917 -200 45 -200 45 -200 45
2291567327.888 -2.3374002 -47.476036 -200 45 -200 45 -200 45
2292567444.5741 -2.3224008 -47.445904 -200 45 -200 45 -200 45
2293567561.2602 -2.3010302 -47.478329 -200 45 -200 45 -200 45
2294567677.9463 -2.2727637 -47.527714 -200 45 -200 45 -200 45
2295567794.6324 -2.281373 -47.444099 -200 45 -200 45 -200 45
2296567911.3186 -2.3029039 -47.337029 -200 45 -200 45 -200 45
2297568028.0047 -2.3408976 -47.198036 -200 45 -200 45 -200 45
2298568144.6908 -2.3559663 -47.132278 -200 45 -200 45 -200 45
2299568261.3769 -2.3638809 -47.071278 -200 45 -200 45 -200 45
2300568378.063 -2.3652198 -47.036629 -200 45 -200 45 -200 45
2301568494.7491 -2.3706872 -46.997959 -200 45 -200 45 -200 45
2302568611.4352 -2.3819816 -46.972225 -200 45 -200 45 -200 45
2303568728.1214 -2.3897638 -46.909344 -200 45 -200 45 -200 45
2304568844.8075 -2.3905258 -46.880726 -200 45 -200 45 -200 45
2305568961.4936 -2.3836906 -46.848774 -200 45 -200 45 -200 45
2306569078.1797 -2.3793085 -46.840122 -200 45 -200 45 -200 45
2307569194.8658 -2.3704996 -46.831589 -200 45 -200 45 -200 45
2308569311.5519 -2.3632796 -46.828999 -200 45 -200 45 -200 45
2309569428.238 -2.3427746 -46.890099 -200 45 -200 45 -200 45
2310569544.9242 -2.3209834 -46.957718 -200 45 -200 45 -200 45
2311569661.6103 -2.3326938 -46.940746 -200 45 -200 45 -200 45
2312569778.2964 -2.3519559 -46.895679 -200 45 -200 45 -200 45
2313569894.9825 -2.3951821 -46.791569 -200 45 -200 45 -200 45
2314570011.6686 -2.4153941 -46.77034 -200 45 -200 45 -200 45
2315570128.3547 -2.4263761 -46.771812 -200 45 -200 45 -200 45
2316570245.0408 -2.4319339 -46.807426 -200 45 -200 45 -200 45
2317570361.727 -2.4384699 -46.820435 -200 45 -200 45 -200 45
2318570478.4131 -2.4527504 -46.851307 -200 45 -200 45 -200 45
2319570595.0992 -2.4626117 -46.87767 -200 45 -200 45 -200 45
2320570711.7853 -2.4634583 -46.907509 -200 45 -200 45 -200 45
2321570828.4714 -2.4590571 -46.962196 -200 45 -200 45 -200 45
2322570945.1575 -2.4521923 -47.032459 -200 45 -200 45 -200 45
2323571061.8436 -2.4480121 -47.086311 -200 45 -200 45 -200 45
2324571178.5298 -2.44012 -47.164314 -200 45 -200 45 -200 45
2325571295.2159 -2.420248 -47.292431 -200 45 -200 45 -200 45
2326571411.902 -2.3938909 -47.453465 -200 45 -200 45 -200 45
2327571528.5881 -2.4011037 -47.506733 -200 45 -200 45 -200 45
2328571645.2742 -2.4146943 -47.54158 -200 45 -200 45 -200 45
2329571761.9603 -2.4589591 -47.515038 -200 45 -200 45 -200 45
2330571878.6464 -2.4797442 -47.554245 -200 45 -200 45 -200 45
2331571995.3326 -2.4876349 -47.62434 -200 45 -200 45 -200 45
2332572112.0187 -2.4908941 -47.712688 -200 45 -200 45 -200 45
2333572228.7048 -2.4953623 -47.797077 -200 45 -200 45 -200 45
2334572345.3909 -2.5024431 -47.880157 -200 45 -200 45 -200 45
2335572462.077 -2.5100265 -47.948193 -200 45 -200 45 -200 45
2336572578.7631 -2.5088637 -48.03054 -200 45 -200 45 -200 45
2337572695.4492 -2.4989772 -48.131073 -200 45 -200 45 -200 45
2338572812.1354 -2.4893835 -48.238911 -200 45 -200 45 -200 45
2339572928.8215 -2.4806404 -48.322849 -200 45 -200 45 -200 45
2340573045.5076 -2.4670727 -48.425842 -200 45 -200 45 -200 45
2341573162.1937 -2.4435368 -48.563358 -200 45 -200 45 -200 45
2342573278.8798 -2.4135509 -48.736759 -200 45 -200 45 -200 45
2343573395.5659 -2.4097722 -48.831604 -200 45 -200 45 -200 45
2344573512.252 -2.416801 -48.877926 -200 45 -200 45 -200 45
2345573628.9382 -2.4562986 -48.834953 -200 45 -200 45 -200 45
2346573745.6243 -2.4744015 -48.86298 -200 45 -200 45 -200 45
2347573862.3104 -2.4802895 -48.929588 -200 45 -200 45 -200 45
2348573978.9965 -2.4785461 -48.986553 -200 45 -200 45 -200 45
2349574095.6826 -2.4771035 -49.056747 -200 45 -200 45 -200 45
2350574212.3687 -2.4799953 -49.104145 -200 45 -200 45 -200 45
2351574329.0548 -2.4816277 -49.15757 -200 45 -200 45 -200 45
2352574445.741 -2.4792476 -49.190971 -200 45 -200 45 -200 45
2353574562.4271 -2.4667361 -49.231396 -200 45 -200 45 -200 45
2354574679.1132 -2.4518368 -49.285873 -200 45 -200 45 -200 45
2355574795.7993 -2.4403064 -49.321365 -200 45 -200 45 -200 45
2356574912.4854 -2.4231949 -49.355694 -200 45 -200 45 -200 45
2357575029.1715 -2.4006777 -49.444492 -200 45 -200 45 -200 45
2358575145.8576 -2.3646812 -49.538422 -200 45 -200 45 -200 45
2359575262.5438 -2.3579056 -49.57296 -200 45 -200 45 -200 45
2360575379.2299 -2.3628201 -49.545937 -200 45 -200 45 -200 45
2361575495.916 -2.3979909 -49.437462 -200 45 -200 45 -200 45
2362575612.6021 -2.4159439 -49.397625 -200 45 -200 45 -200 45
2363575729.2882 -2.418864 -49.37817 -200 45 -200 45 -200 45
2364575845.9743 -2.4169273 -49.36121 -200 45 -200 45 -200 45
2365575962.6604 -2.4146049 -49.329418 -200 45 -200 45 -200 45
2366576079.3466 -2.4202571 -49.309711 -200 45 -200 45 -200 45
2367576196.0327 -2.4238751 -49.289536 -200 45 -200 45 -200 45
2368576312.7188 -2.4228854 -49.248707 -200 45 -200 45 -200 45
2369576429.4049 -2.4124823 -49.21851 -200 45 -200 45 -200 45
2370576546.091 -2.397073 -49.186718 -200 45 -200 45 -200 45
2371576662.7771 -2.3874805 -49.146412 -200 45 -200 45 -200 45
2372576779.4632 -2.3758302 -49.140163 -200 45 -200 45 -200 45
2373576896.1494 -2.3594589 -49.134956 -200 45 -200 45 -200 45
2374577012.8355 -2.3266273 -49.175156 -200 45 -200 45 -200 45
2375577129.5216 -2.3197458 -49.156284 -200 45 -200 45 -200 45
2376577246.2077 -2.3233395 -49.085072 -200 45 -200 45 -200 45
2377577362.8938 -2.3610396 -48.914707 -200 45 -200 45 -200 45
2378577479.5799 -2.3866472 -48.819916 -200 45 -200 45 -200 45
2379577596.266 -2.3955219 -48.744648 -200 45 -200 45 -200 45
2380577712.9522 -2.4004023 -48.698502 -200 45 -200 45 -200 45
2381577829.6383 -2.4018538 -48.642929 -200 45 -200 45 -200 45
2382577946.3244 -2.410157 -48.590111 -200 45 -200 45 -200 45
2383578063.0105 -2.4190357 -48.554939 -200 45 -200 45 -200 45
2384578179.6966 -2.4226277 -48.52018 -200 45 -200 45 -200 45
2385578296.3827 -2.4185734 -48.467731 -200 45 -200 45 -200 45
2386578413.0688 -2.4090495 -48.417473 -200 45 -200 45 -200 45
2387578529.755 -2.4065151 -48.397797 -200 45 -200 45 -200 45
2388578646.4411 -2.3980618 -48.387474 -200 45 -200 45 -200 45
2389578763.1272 -2.3874781 -48.391705 -200 45 -200 45 -200 45
2390578879.8133 -2.3611479 -48.447788 -200 45 -200 45 -200 45
2391578996.4994 -2.3530688 -48.472115 -200 45 -200 45 -200 45
2392579113.1855 -2.3629589 -48.430481 -200 45 -200 45 -200 45
2393579229.8716 -2.4036386 -48.317173 -200 45 -200 45 -200 45
2394579346.5578 -2.4331822 -48.239658 -200 45 -200 45 -200 45
2395579463.2439 -2.4514935 -48.232407 -200 45 -200 45 -200 45
2396579579.93 -2.4585884 -48.222809 -200 45 -200 45 -200 45
2397579696.6161 -2.4635127 -48.217903 -200 45 -200 45 -200 45
2398579813.3022 -2.4731467 -48.235233 -200 45 -200 45 -200 45
2399579929.9883 -2.4858124 -48.252972 -200 45 -200 45 -200 45
2400580046.6744 -2.4945655 -48.258636 -200 45 -200 45 -200 45
2401580163.3606 -2.4911799 -48.281776 -200 45 -200 45 -200 45
2402580280.0467 -2.4881852 -48.331066 -200 45 -200 45 -200 45
2403580396.7328 -2.4851184 -48.357735 -200 45 -200 45 -200 45
2404580513.4189 -2.4813192 -48.433727 -200 45 -200 45 -200 45
2405580630.105 -2.4667928 -48.510193 -200 45 -200 45 -200 45
2406580746.7911 -2.4460852 -48.638824 -200 45 -200 45 -200 45
2407580863.4772 -2.4314952 -48.763153 -200 45 -200 45 -200 45
2408580980.1634 -2.4438722 -48.802334 -200 45 -200 45 -200 45
2409581096.8495 -2.477473 -48.758003 -200 45 -200 45 -200 45
2410581213.5356 -2.5097859 -48.776413 -200 45 -200 45 -200 45
2411581330.2217 -2.5257337 -48.820572 -200 45 -200 45 -200 45
2412581446.9078 -2.533108 -48.888126 -200 45 -200 45 -200 45
2413581563.5939 -2.5369885 -48.972263 -200 45 -200 45 -200 45
2414581680.28 -2.5442553 -49.046467 -200 45 -200 45 -200 45
2415581796.9662 -2.5539398 -49.13797 -200 45 -200 45 -200 45
2416581913.6523 -2.5598037 -49.220963 -200 45 -200 45 -200 45
2417582030.3384 -2.5548701 -49.333454 -200 45 -200 45 -200 45
2418582147.0245 -2.544359 -49.420971 -200 45 -200 45 -200 45
2419582263.7106 -2.5359032 -49.513203 -200 45 -200 45 -200 45
2420582380.3967 -2.5293052 -49.627415 -200 45 -200 45 -200 45
2421582497.0828 -2.5142405 -49.754444 -200 45 -200 45 -200 45
2422582613.769 -2.4876485 -49.920361 -200 45 -200 45 -200 45
2423582730.4551 -2.4651582 -50.100468 -200 45 -200 45 -200 45
2424582847.1412 -2.4686117 -50.166077 -200 45 -200 45 -200 45
2425582963.8273 -2.4964237 -50.176254 -200 45 -200 45 -200 45
2426583080.5134 -2.5254502 -50.182541 -200 45 -200 45 -200 45
2427583197.1995 -2.5391841 -50.227291 -200 45 -200 45 -200 45
2428583313.8856 -2.5412722 -50.32407 -200 45 -200 45 -200 45
2429583430.5718 -2.5401559 -50.403824 -200 45 -200 45 -200 45
2430583547.2579 -2.5392704 -50.460945 -200 45 -200 45 -200 45
2431583663.944 -2.5440528 -50.535797 -200 45 -200 45 -200 45
2432583780.6301 -2.5429034 -50.592438 -200 45 -200 45 -200 45
2433583897.3162 -2.5350335 -50.65659 -200 45 -200 45 -200 45
2434584014.0023 -2.5219853 -50.717999 -200 45 -200 45 -200 45
2435584130.6884 -2.5080295 -50.788799 -200 45 -200 45 -200 45
2436584247.3746 -2.4953206 -50.843895 -200 45 -200 45 -200 45
2437584364.0607 -2.4764011 -50.940685 -200 45 -200 45 -200 45
2438584480.7468 -2.448391 -51.036068 -200 45 -200 45 -200 45
2439584597.4329 -2.4199932 -51.159363 -200 45 -200 45 -200 45
2440584714.119 -2.4219358 -51.141785 -200 45 -200 45 -200 45
2441584830.8051 -2.4352233 -51.106628 -200 45 -200 45 -200 45
2442584947.4912 -2.470165 -51.043594 -200 45 -200 45 -200 45
2443585064.1774 -2.4765925 -51.021297 -200 45 -200 45 -200 45
2444585180.8635 -2.4787147 -51.02647 -200 45 -200 45 -200 45
2445585297.5496 -2.4762807 -51.013462 -200 45 -200 45 -200 45
2446585414.2357 -2.4760034 -51.025074 -200 45 -200 45 -200 45
2447585530.9218 -2.4771373 -50.986164 -200 45 -200 45 -200 45
2448585647.6079 -2.4790134 -50.985332 -200 45 -200 45 -200 45
2449585764.294 -2.471529 -50.951271 -200 45 -200 45 -200 45
2450585880.9802 -2.4605932 -50.924053 -200 45 -200 45 -200 45
2451585997.6663 -2.4490142 -50.911068 -200 45 -200 45 -200 45
2452586114.3524 -2.4339623 -50.902306 -200 45 -200 45 -200 45
2453586231.0385 -2.4180191 -50.871094 -200 45 -200 45 -200 45
2454586347.7246 -2.3960881 -50.911522 -200 45 -200 45 -200 45
2455586464.4107 -2.3664834 -50.945461 -200 45 -200 45 -200 45
2456586581.0968 -2.3711498 -50.887527 -200 45 -200 45 -200 45
2457586697.783 -2.3852675 -50.77504 -200 45 -200 45 -200 45
2458586814.4691 -2.4182572 -50.638863 -200 45 -200 45 -200 45
2459586931.1552 -2.4346111 -50.549809 -200 45 -200 45 -200 45
2460587047.8413 -2.4397228 -50.506466 -200 45 -200 45 -200 45
2461587164.5274 -2.4431899 -50.433365 -200 45 -200 45 -200 45
2462587281.2135 -2.4442258 -50.377155 -200 45 -200 45 -200 45
2463587397.8997 -2.4539328 -50.317039 -200 45 -200 45 -200 45
2464587514.5858 -2.4611421 -50.252911 -200 45 -200 45 -200 45
2465587631.2719 -2.4589062 -50.194931 -200 45 -200 45 -200 45
2466587747.958 -2.4538112 -50.156311 -200 45 -200 45 -200 45
2467587864.6441 -2.4458144 -50.105198 -200 45 -200 45 -200 45
2468587981.3302 -2.4399066 -50.07122 -200 45 -200 45 -200 45
2469588098.0163 -2.4287574 -50.049351 -200 45 -200 45 -200 45
2470588214.7025 -2.4161115 -50.061241 -200 45 -200 45 -200 45
2471588331.3886 -2.3893213 -50.107903 -200 45 -200 45 -200 45
2472588448.0747 -2.3959038 -50.065128 -200 45 -200 45 -200 45
2473588564.7608 -2.4117281 -49.989273 -200 45 -200 45 -200 45
2474588681.4469 -2.4561074 -49.85984 -200 45 -200 45 -200 45
2475588798.133 -2.4761014 -49.795204 -200 45 -200 45 -200 45
2476588914.8191 -2.4869473 -49.76672 -200 45 -200 45 -200 45
2477589031.5053 -2.496428 -49.752312 -200 45 -200 45 -200 45
2478589148.1914 -2.5031044 -49.723972 -200 45 -200 45 -200 45
2479589264.8775 -2.513586 -49.726753 -200 45 -200 45 -200 45
2480589381.5636 -2.525327 -49.723694 -200 45 -200 45 -200 45
2481589498.2497 -2.532445 -49.737415 -200 45 -200 45 -200 45
2482589614.9358 -2.5280921 -49.74905 -200 45 -200 45 -200 45
2483589731.6219 -2.5244586 -49.776691 -200 45 -200 45 -200 45
2484589848.3081 -2.5216019 -49.804897 -200 45 -200 45 -200 45
2485589964.9942 -2.5169337 -49.86253 -200 45 -200 45 -200 45
2486590081.6803 -2.5017412 -49.954784 -200 45 -200 45 -200 45
2487590198.3664 -2.477767 -50.093613 -200 45 -200 45 -200 45
2488590315.0525 -2.4842019 -50.138206 -200 45 -200 45 -200 45
2489590431.7386 -2.4976506 -50.175858 -200 45 -200 45 -200 45
2490590548.4247 -2.5438292 -50.100105 -200 45 -200 45 -200 45
2491590665.1109 -2.5664146 -50.13018 -200 45 -200 45 -200 45
2492590781.797 -2.5789905 -50.206848 -200 45 -200 45 -200 45
2493590898.4831 -2.5844738 -50.277237 -200 45 -200 45 -200 45
2494591015.1692 -2.5928469 -50.356297 -200 45 -200 45 -200 45
2495591131.8553 -2.6015131 -50.426334 -200 45 -200 45 -200 45
2496591248.5414 -2.6144569 -50.519466 -200 45 -200 45 -200 45
2497591365.2275 -2.6173787 -50.594933 -200 45 -200 45 -200 45
2498591481.9137 -2.6108551 -50.709454 -200 45 -200 45 -200 45
2499591598.5998 -2.6055562 -50.814358 -200 45 -200 45 -200 45
2500591715.2859 -2.5952013 -50.925179 -200 45 -200 45 -200 45
2501591831.972 -2.5807431 -51.064587 -200 45 -200 45 -200 45
2502591948.6581 -2.5597262 -51.232777 -200 45 -200 45 -200 45
2503592065.3442 -2.538702 -51.428341 -200 45 -200 45 -200 45
2504592182.0303 -2.5435596 -51.522057 -200 45 -200 45 -200 45
2505592298.7165 -2.5690937 -51.537453 -200 45 -200 45 -200 45
2506592415.4026 -2.602001 -51.575851 -200 45 -200 45 -200 45
2507592532.0887 -2.6151116 -51.651424 -200 45 -200 45 -200 45
2508592648.7748 -2.6198287 -51.762779 -200 45 -200 45 -200 45
2509592765.4609 -2.6179547 -51.839031 -200 45 -200 45 -200 45
2510592882.147 -2.6224895 -51.954731 -200 45 -200 45 -200 45
2511592998.8331 -2.6270201 -52.04707 -200 45 -200 45 -200 45
2512593115.5193 -2.6287212 -52.138073 -200 45 -200 45 -200 45
2513593232.2054 -2.6226926 -52.233887 -200 45 -200 45 -200 45
2514593348.8915 -2.6092329 -52.318302 -200 45 -200 45 -200 45
2515593465.5776 -2.5957894 -52.411819 -200 45 -200 45 -200 45
2516593582.2637 -2.583729 -52.526894 -200 45 -200 45 -200 45
2517593698.9498 -2.5656097 -52.614193 -200 45 -200 45 -200 45
2518593815.6359 -2.5356061 -52.757359 -200 45 -200 45 -200 45
2519593932.3221 -2.513217 -52.897663 -200 45 -200 45 -200 45
2520594049.0082 -2.5145674 -52.933918 -200 45 -200 45 -200 45
2521594165.6943 -2.5368631 -52.889137 -200 45 -200 45 -200 45
2522594282.3804 -2.5611074 -52.864708 -200 45 -200 45 -200 45
2523594399.0665 -2.5725243 -52.908512 -200 45 -200 45 -200 45
2524594515.7526 -2.5700147 -52.937565 -200 45 -200 45 -200 45
2525594632.4387 -2.567723 -52.967384 -200 45 -200 45 -200 45
2526594749.1249 -2.5687816 -52.988117 -200 45 -200 45 -200 45
2527594865.811 -2.5711679 -53.011044 -200 45 -200 45 -200 45
2528594982.4971 -2.5731454 -53.014431 -200 45 -200 45 -200 45
2529595099.1832 -2.563098 -53.02438 -200 45 -200 45 -200 45
2530595215.8693 -2.5474739 -53.036083 -200 45 -200 45 -200 45
2531595332.5554 -2.5372345 -53.06105 -200 45 -200 45 -200 45
2532595449.2415 -2.5257416 -53.052418 -200 45 -200 45 -200 45
2533595565.9277 -2.5074935 -53.075073 -200 45 -200 45 -200 45
2534595682.6138 -2.4799047 -53.134537 -200 45 -200 45 -200 45
2535595799.2999 -2.4606762 -53.176464 -200 45 -200 45 -200 45
2536595915.986 -2.4628873 -53.126549 -200 45 -200 45 -200 45
2537596032.6721 -2.4932034 -53.000469 -200 45 -200 45 -200 45
2538596149.3582 -2.5177481 -52.929417 -200 45 -200 45 -200 45
2539596266.0443 -2.5278642 -52.859425 -200 45 -200 45 -200 45
2540596382.7305 -2.5333641 -52.830807 -200 45 -200 45 -200 45
2541596499.4166 -2.535291 -52.805054 -200 45 -200 45 -200 45
2542596616.1027 -2.5416517 -52.745533 -200 45 -200 45 -200 45
2543596732.7888 -2.5497983 -52.697369 -200 45 -200 45 -200 45
2544596849.4749 -2.5530875 -52.679829 -200 45 -200 45 -200 45
2545596966.161 -2.552619 -52.631592 -200 45 -200 45 -200 45
2546597082.8471 -2.5452929 -52.585884 -200 45 -200 45 -200 45
2547597199.5333 -2.5419116 -52.553699 -200 45 -200 45 -200 45
2548597316.2194 -2.5360281 -52.554592 -200 45 -200 45 -200 45
2549597432.9055 -2.5252109 -52.546043 -200 45 -200 45 -200 45
2550597549.5916 -2.5070455 -52.604267 -200 45 -200 45 -200 45
2551597666.2777 -2.4977455 -52.632305 -200 45 -200 45 -200 45
2552597782.9638 -2.5100508 -52.60062 -200 45 -200 45 -200 45
2553597899.6499 -2.5471058 -52.478279 -200 45 -200 45 -200 45
2554598016.3361 -2.5822327 -52.390591 -200 45 -200 45 -200 45
2555598133.0222 -2.6017451 -52.362129 -200 45 -200 45 -200 45
2556598249.7083 -2.6166484 -52.380089 -200 45 -200 45 -200 45
2557598366.3944 -2.627142 -52.374691 -200 45 -200 45 -200 45
2558598483.0805 -2.6455033 -52.393806 -200 45 -200 45 -200 45
2559598599.7666 -2.665045 -52.410957 -200 45 -200 45 -200 45
2560598716.4527 -2.6808004 -52.475262 -200 45 -200 45 -200 45
2561598833.1389 -2.6893413 -52.516262 -200 45 -200 45 -200 45
2562598949.825 -2.6971231 -52.564896 -200 45 -200 45 -200 45
2563599066.5111 -2.7034972 -52.655632 -200 45 -200 45 -200 45
2564599183.1972 -2.716146 -52.761547 -200 45 -200 45 -200 45
2565599299.8833 -2.7238071 -52.895935 -200 45 -200 45 -200 45
2566599416.5694 -2.7205181 -53.093117 -200 45 -200 45 -200 45
2567599533.2555 -2.7308571 -53.265694 -200 45 -200 45 -200 45
2568599649.9417 -2.7654703 -53.382439 -200 45 -200 45 -200 45
2569599766.6278 -2.8353589 -53.449512 -200 45 -200 45 -200 45
2570599883.3139 -2.9018166 -53.579777 -200 45 -200 45 -200 45
2571600000 -2.9583881 -53.754974 -200 45 -200 45 -200 45
2572600116.6861 -3.020509 -53.959705 -200 45 -200 45 -200 45
2573600233.3722 -3.0927145 -54.184265 -200 45 -200 45 -200 45
2574600350.0583 -3.1846817 -54.381546 -200 45 -200 45 -200 45
2575600466.7445 -3.3071074 -54.50436 -200 45 -200 45 -200 45
2576600583.4306 -3.4531107 -54.480297 -200 45 -200 45 -200 45
2577600700.1167 -3.6055055 -54.142311 -200 45 -200 45 -200 45
2578600816.8028 -3.7589767 -53.354412 -200 45 -200 45 -200 45
2579600933.4889 -3.8631167 -52.17746 -200 45 -200 45 -200 45
2580601050.175 -3.8958526 -50.768543 -200 45 -200 45 -200 45
2581601166.8611 -3.8280492 -49.413738 -200 45 -200 45 -200 45
2582601283.5473 -3.6985395 -48.509583 -200 45 -200 45 -200 45
2583601400.2334 -3.577879 -47.84507 -200 45 -200 45 -200 45
2584601516.9195 -3.4621274 -47.209553 -200 45 -200 45 -200 45
2585601633.6056 -3.3477764 -46.668911 -200 45 -200 45 -200 45
2586601750.2917 -3.2068093 -46.585293 -200 45 -200 45 -200 45
2587601866.9778 -3.0798454 -46.85714 -200 45 -200 45 -200 45
2588601983.6639 -2.976655 -47.287781 -200 45 -200 45 -200 45
2589602100.3501 -2.9011979 -47.764931 -200 45 -200 45 -200 45
2590602217.0362 -2.8525171 -48.248337 -200 45 -200 45 -200 45
2591602333.7223 -2.8209198 -48.746422 -200 45 -200 45 -200 45
2592602450.4084 -2.8013573 -49.152218 -200 45 -200 45 -200 45
2593602567.0945 -2.781682 -49.509151 -200 45 -200 45 -200 45
2594602683.7806 -2.7635324 -49.818249 -200 45 -200 45 -200 45
2595602800.4667 -2.7470467 -50.102379 -200 45 -200 45 -200 45
2596602917.1529 -2.7298431 -50.387638 -200 45 -200 45 -200 45
2597603033.839 -2.7100852 -50.683235 -200 45 -200 45 -200 45
2598603150.5251 -2.683641 -50.970024 -200 45 -200 45 -200 45
2599603267.2112 -2.6810846 -51.162956 -200 45 -200 45 -200 45
2600603383.8973 -2.6969054 -51.228752 -200 45 -200 45 -200 45
2601603500.5834 -2.7347207 -51.099438 -200 45 -200 45 -200 45
2602603617.2695 -2.7519777 -51.07954 -200 45 -200 45 -200 45
2603603733.9557 -2.7413015 -51.086323 -200 45 -200 45 -200 45
2604603850.6418 -2.7306075 -51.211151 -200 45 -200 45 -200 45
2605603967.3279 -2.7256119 -51.298138 -200 45 -200 45 -200 45
2606604084.014 -2.735641 -51.318386 -200 45 -200 45 -200 45
2607604200.7001 -2.7497499 -51.282242 -200 45 -200 45 -200 45
2608604317.3862 -2.7480924 -51.122814 -200 45 -200 45 -200 45
2609604434.0723 -2.7139258 -50.924759 -200 45 -200 45 -200 45
2610604550.7585 -2.6634789 -50.784912 -200 45 -200 45 -200 45
2611604667.4446 -2.6026301 -50.753826 -200 45 -200 45 -200 45
2612604784.1307 -2.5422373 -50.868031 -200 45 -200 45 -200 45
2613604900.8168 -2.4868031 -51.027332 -200 45 -200 45 -200 45
2614605017.5029 -2.4269691 -51.293736 -200 45 -200 45 -200 45
2615605134.189 -2.4005628 -51.477615 -200 45 -200 45 -200 45
2616605250.8751 -2.3924866 -51.587505 -200 45 -200 45 -200 45
2617605367.5613 -2.4198349 -51.581841 -200 45 -200 45 -200 45
2618605484.2474 -2.4345653 -51.627857 -200 45 -200 45 -200 45
2619605600.9335 -2.4371407 -51.700474 -200 45 -200 45 -200 45
2620605717.6196 -2.4362969 -51.746208 -200 45 -200 45 -200 45
2621605834.3057 -2.4318225 -51.798985 -200 45 -200 45 -200 45
2622605950.9918 -2.4374707 -51.816528 -200 45 -200 45 -200 45
2623606067.6779 -2.4401498 -51.82753 -200 45 -200 45 -200 45
2624606184.3641 -2.440727 -51.839897 -200 45 -200 45 -200 45
2625606301.0502 -2.4308293 -51.82513 -200 45 -200 45 -200 45
2626606417.7363 -2.4244902 -51.838619 -200 45 -200 45 -200 45
2627606534.4224 -2.4167423 -51.835777 -200 45 -200 45 -200 45
2628606651.1085 -2.405961 -51.836407 -200 45 -200 45 -200 45
2629606767.7946 -2.3877649 -51.843063 -200 45 -200 45 -200 45
2630606884.4807 -2.363445 -51.910168 -200 45 -200 45 -200 45
2631607001.1669 -2.357878 -51.904613 -200 45 -200 45 -200 45
2632607117.853 -2.3666017 -51.852558 -200 45 -200 45 -200 45
2633607234.5391 -2.4083312 -51.687733 -200 45 -200 45 -200 45
2634607351.2252 -2.4326246 -51.611881 -200 45 -200 45 -200 45
2635607467.9113 -2.4407697 -51.571445 -200 45 -200 45 -200 45
2636607584.5974 -2.4459803 -51.527287 -200 45 -200 45 -200 45
2637607701.2835 -2.4505947 -51.517384 -200 45 -200 45 -200 45
2638607817.9697 -2.4628172 -51.473103 -200 45 -200 45 -200 45
2639607934.6558 -2.4711969 -51.448879 -200 45 -200 45 -200 45
2640608051.3419 -2.4806139 -51.402637 -200 45 -200 45 -200 45
2641608168.028 -2.4760573 -51.399822 -200 45 -200 45 -200 45
2642608284.7141 -2.4721313 -51.379818 -200 45 -200 45 -200 45
2643608401.4002 -2.4712751 -51.389423 -200 45 -200 45 -200 45
2644608518.0863 -2.4691484 -51.377949 -200 45 -200 45 -200 45
2645608634.7725 -2.4561634 -51.430359 -200 45 -200 45 -200 45
2646608751.4586 -2.4354124 -51.524551 -200 45 -200 45 -200 45
2647608868.1447 -2.4355712 -51.550858 -200 45 -200 45 -200 45
2648608984.8308 -2.4495537 -51.526585 -200 45 -200 45 -200 45
2649609101.5169 -2.4951582 -51.431252 -200 45 -200 45 -200 45
2650609218.203 -2.5203192 -51.40271 -200 45 -200 45 -200 45
2651609334.8891 -2.5366404 -51.427856 -200 45 -200 45 -200 45
2652609451.5753 -2.5451941 -51.440296 -200 45 -200 45 -200 45
2653609568.2614 -2.5543225 -51.48848 -200 45 -200 45 -200 45
2654609684.9475 -2.5680335 -51.541142 -200 45 -200 45 -200 45
2655609801.6336 -2.580477 -51.581284 -200 45 -200 45 -200 45
2656609918.3197 -2.5872133 -51.643387 -200 45 -200 45 -200 45
2657610035.0058 -2.5856948 -51.697891 -200 45 -200 45 -200 45
2658610151.6919 -2.5818493 -51.771095 -200 45 -200 45 -200 45
2659610268.3781 -2.5828919 -51.849812 -200 45 -200 45 -200 45
2660610385.0642 -2.5731795 -51.972073 -200 45 -200 45 -200 45
2661610501.7503 -2.5594382 -52.099689 -200 45 -200 45 -200 45
2662610618.4364 -2.5395584 -52.286591 -200 45 -200 45 -200 45
2663610735.1225 -2.5426366 -52.368797 -200 45 -200 45 -200 45
2664610851.8086 -2.5542357 -52.434601 -200 45 -200 45 -200 45
2665610968.4947 -2.5968611 -52.42564 -200 45 -200 45 -200 45
2666611085.1809 -2.618808 -52.487007 -200 45 -200 45 -200 45
2667611201.867 -2.6309547 -52.580173 -200 45 -200 45 -200 45
2668611318.5531 -2.6372192 -52.693901 -200 45 -200 45 -200 45
2669611435.2392 -2.6363261 -52.804409 -200 45 -200 45 -200 45
2670611551.9253 -2.648036 -52.918625 -200 45 -200 45 -200 45
2671611668.6114 -2.6564867 -53.026489 -200 45 -200 45 -200 45
2672611785.2975 -2.6596417 -53.135128 -200 45 -200 45 -200 45
2673611901.9837 -2.6479135 -53.235504 -200 45 -200 45 -200 45
2674612018.6698 -2.6399946 -53.384819 -200 45 -200 45 -200 45
2675612135.3559 -2.6297755 -53.480255 -200 45 -200 45 -200 45
2676612252.042 -2.6178224 -53.631523 -200 45 -200 45 -200 45
2677612368.7281 -2.5959861 -53.776196 -200 45 -200 45 -200 45
2678612485.4142 -2.5665543 -53.992104 -200 45 -200 45 -200 45
2679612602.1004 -2.5608096 -54.08852 -200 45 -200 45 -200 45
2680612718.7865 -2.5710378 -54.148628 -200 45 -200 45 -200 45
2681612835.4726 -2.6063807 -54.119434 -200 45 -200 45 -200 45
2682612952.1587 -2.6221621 -54.189327 -200 45 -200 45 -200 45
2683613068.8448 -2.624819 -54.275398 -200 45 -200 45 -200 45
2684613185.5309 -2.6228938 -54.336342 -200 45 -200 45 -200 45
2685613302.217 -2.6198282 -54.411568 -200 45 -200 45 -200 45
2686613418.9032 -2.6230288 -54.498875 -200 45 -200 45 -200 45
2687613535.5893 -2.6210833 -54.540775 -200 45 -200 45 -200 45
2688613652.2754 -2.6183095 -54.607422 -200 45 -200 45 -200 45
2689613768.9615 -2.6020806 -54.66375 -200 45 -200 45 -200 45
2690613885.6476 -2.5860484 -54.710701 -200 45 -200 45 -200 45
2691614002.3337 -2.5758142 -54.767666 -200 45 -200 45 -200 45
2692614119.0198 -2.5582573 -54.802605 -200 45 -200 45 -200 45
2693614235.706 -2.5324244 -54.89061 -200 45 -200 45 -200 45
2694614352.3921 -2.5008314 -54.985317 -200 45 -200 45 -200 45
2695614469.0782 -2.4961727 -55.006218 -200 45 -200 45 -200 45
2696614585.7643 -2.5022473 -54.987137 -200 45 -200 45 -200 45
2697614702.4504 -2.5347281 -54.893814 -200 45 -200 45 -200 45
2698614819.1365 -2.5467415 -54.831448 -200 45 -200 45 -200 45
2699614935.8226 -2.5509136 -54.805241 -200 45 -200 45 -200 45
2700615052.5088 -2.5458109 -54.804081 -200 45 -200 45 -200 45
2701615169.1949 -2.5441158 -54.785847 -200 45 -200 45 -200 45
2702615285.881 -2.5459385 -54.741402 -200 45 -200 45 -200 45
2703615402.5671 -2.5487168 -54.699089 -200 45 -200 45 -200 45
2704615519.2532 -2.5420361 -54.658562 -200 45 -200 45 -200 45
2705615635.9393 -2.5304756 -54.633316 -200 45 -200 45 -200 45
2706615752.6254 -2.5175295 -54.596649 -200 45 -200 45 -200 45
2707615869.3116 -2.5067379 -54.550129 -200 45 -200 45 -200 45
2708615985.9977 -2.4963911 -54.515751 -200 45 -200 45 -200 45
2709616102.6838 -2.4739048 -54.514671 -200 45 -200 45 -200 45
2710616219.3699 -2.446666 -54.526211 -200 45 -200 45 -200 45
2711616336.056 -2.4486759 -54.454136 -200 45 -200 45 -200 45
2712616452.7421 -2.4609084 -54.36932 -200 45 -200 45 -200 45
2713616569.4282 -2.4941673 -54.201702 -200 45 -200 45 -200 45
2714616686.1144 -2.5139036 -54.10186 -200 45 -200 45 -200 45
2715616802.8005 -2.5205894 -54.030579 -200 45 -200 45 -200 45
2716616919.4866 -2.5212851 -53.960033 -200 45 -200 45 -200 45
2717617036.1727 -2.5244033 -53.89716 -200 45 -200 45 -200 45
2718617152.8588 -2.5383327 -53.83305 -200 45 -200 45 -200 45
2719617269.5449 -2.5437939 -53.773438 -200 45 -200 45 -200 45
2720617386.231 -2.5466104 -53.719593 -200 45 -200 45 -200 45
2721617502.9172 -2.5413442 -53.659534 -200 45 -200 45 -200 45
2722617619.6033 -2.5369198 -53.613342 -200 45 -200 45 -200 45
2723617736.2894 -2.531651 -53.572289 -200 45 -200 45 -200 45
2724617852.9755 -2.5266838 -53.56749 -200 45 -200 45 -200 45
2725617969.6616 -2.5098829 -53.585884 -200 45 -200 45 -200 45
2726618086.3477 -2.4905663 -53.634884 -200 45 -200 45 -200 45
2727618203.0338 -2.5024786 -53.606266 -200 45 -200 45 -200 45
2728618319.72 -2.5210319 -53.522873 -200 45 -200 45 -200 45
2729618436.4061 -2.5621443 -53.400085 -200 45 -200 45 -200 45
2730618553.0922 -2.5853224 -53.34766 -200 45 -200 45 -200 45
2731618669.7783 -2.5959339 -53.340881 -200 45 -200 45 -200 45
2732618786.4644 -2.6042655 -53.341366 -200 45 -200 45 -200 45
2733618903.1505 -2.6129825 -53.358509 -200 45 -200 45 -200 45
2734619019.8366 -2.6271336 -53.354095 -200 45 -200 45 -200 45
2735619136.5228 -2.6409826 -53.356358 -200 45 -200 45 -200 45
2736619253.2089 -2.6449068 -53.389091 -200 45 -200 45 -200 45
2737619369.895 -2.6433628 -53.420433 -200 45 -200 45 -200 45
2738619486.5811 -2.6382506 -53.452915 -200 45 -200 45 -200 45
2739619603.2672 -2.6394403 -53.533344 -200 45 -200 45 -200 45
2740619719.9533 -2.6345489 -53.603901 -200 45 -200 45 -200 45
2741619836.6394 -2.6192348 -53.729664 -200 45 -200 45 -200 45
2742619953.3256 -2.5998218 -53.881523 -200 45 -200 45 -200 45
2743620070.0117 -2.6142216 -53.944817 -200 45 -200 45 -200 45
2744620186.6978 -2.635891 -53.959644 -200 45 -200 45 -200 45
2745620303.3839 -2.6717103 -53.934635 -200 45 -200 45 -200 45
2746620420.07 -2.6960826 -54.01144 -200 45 -200 45 -200 45
2747620536.7561 -2.7040558 -54.08551 -200 45 -200 45 -200 45
2748620653.4422 -2.7089803 -54.199993 -200 45 -200 45 -200 45
2749620770.1284 -2.7189467 -54.283878 -200 45 -200 45 -200 45
2750620886.8145 -2.7273598 -54.372616 -200 45 -200 45 -200 45
2751621003.5006 -2.7383513 -54.476078 -200 45 -200 45 -200 45
2752621120.1867 -2.7388 -54.607399 -200 45 -200 45 -200 45
2753621236.8728 -2.7298498 -54.691738 -200 45 -200 45 -200 45
2754621353.5589 -2.7216582 -54.843311 -200 45 -200 45 -200 45
2755621470.245 -2.7186005 -54.969009 -200 45 -200 45 -200 45
2756621586.9312 -2.7063327 -55.110714 -200 45 -200 45 -200 45
2757621703.6173 -2.6824498 -55.285851 -200 45 -200 45 -200 45
2758621820.3034 -2.6617579 -55.497772 -200 45 -200 45 -200 45
2759621936.9895 -2.6646495 -55.598351 -200 45 -200 45 -200 45
2760622053.6756 -2.6854749 -55.639099 -200 45 -200 45 -200 45
2761622170.3617 -2.7160802 -55.665115 -200 45 -200 45 -200 45
2762622287.0478 -2.7279565 -55.760925 -200 45 -200 45 -200 45
2763622403.734 -2.7320504 -55.839725 -200 45 -200 45 -200 45
2764622520.4201 -2.7322826 -55.946678 -200 45 -200 45 -200 45
2765622637.1062 -2.7329879 -56.074142 -200 45 -200 45 -200 45
2766622753.7923 -2.7378542 -56.142208 -200 45 -200 45 -200 45
2767622870.4784 -2.739176 -56.259823 -200 45 -200 45 -200 45
2768622987.1645 -2.730933 -56.334484 -200 45 -200 45 -200 45
2769623103.8506 -2.7220051 -56.420261 -200 45 -200 45 -200 45
2770623220.5368 -2.7072182 -56.515373 -200 45 -200 45 -200 45
2771623337.2229 -2.6960735 -56.609966 -200 45 -200 45 -200 45
2772623453.909 -2.6779702 -56.714962 -200 45 -200 45 -200 45
2773623570.5951 -2.6550577 -56.83009 -200 45 -200 45 -200 45
2774623687.2812 -2.6302257 -56.964367 -200 45 -200 45 -200 45
2775623803.9673 -2.6333835 -56.99102 -200 45 -200 45 -200 45
2776623920.6534 -2.6543827 -56.978813 -200 45 -200 45 -200 45
2777624037.3396 -2.6850116 -56.942623 -200 45 -200 45 -200 45
2778624154.0257 -2.6974435 -56.944344 -200 45 -200 45 -200 45
2779624270.7118 -2.7014861 -56.968983 -200 45 -200 45 -200 45
2780624387.3979 -2.7047899 -56.993778 -200 45 -200 45 -200 45
2781624504.084 -2.7107267 -56.986767 -200 45 -200 45 -200 45
2782624620.7701 -2.7265551 -57.00605 -200 45 -200 45 -200 45
2783624737.4562 -2.738003 -56.984467 -200 45 -200 45 -200 45
2784624854.1424 -2.7450659 -56.943523 -200 45 -200 45 -200 45
2785624970.8285 -2.7482104 -56.904102 -200 45 -200 45 -200 45
2786625087.5146 -2.7542346 -56.810955 -200 45 -200 45 -200 45
2787625204.2007 -2.7583117 -56.698509 -200 45 -200 45 -200 45
2788625320.8868 -2.7596769 -56.561714 -200 45 -200 45 -200 45
2789625437.5729 -2.7445199 -56.444736 -200 45 -200 45 -200 45
2790625554.259 -2.7306061 -56.305061 -200 45 -200 45 -200 45
2791625670.9452 -2.7365611 -56.05341 -200 45 -200 45 -200 45
2792625787.6313 -2.7568371 -55.741051 -200 45 -200 45 -200 45
2793625904.3174 -2.7789745 -55.440376 -200 45 -200 45 -200 45
2794626021.0035 -2.7817163 -55.192585 -200 45 -200 45 -200 45
2795626137.6896 -2.7703321 -54.980877 -200 45 -200 45 -200 45
2796626254.3757 -2.7573755 -54.780193 -200 45 -200 45 -200 45
2797626371.0618 -2.7422245 -54.590694 -200 45 -200 45 -200 45
2798626487.748 -2.7308722 -54.421165 -200 45 -200 45 -200 45
2799626604.4341 -2.7135632 -54.28083 -200 45 -200 45 -200 45
2800626721.1202 -2.6873882 -54.16927 -200 45 -200 45 -200 45
2801626837.8063 -2.6567302 -54.078686 -200 45 -200 45 -200 45
2802626954.4924 -2.629895 -54.048031 -200 45 -200 45 -200 45
2803627071.1785 -2.6033928 -54.034107 -200 45 -200 45 -200 45
2804627187.8646 -2.5789022 -54.068321 -200 45 -200 45 -200 45
2805627304.5508 -2.5442495 -54.139931 -200 45 -200 45 -200 45
2806627421.2369 -2.5200083 -54.223286 -200 45 -200 45 -200 45
2807627537.923 -2.5212522 -54.210049 -200 45 -200 45 -200 45
2808627654.6091 -2.5476453 -54.114548 -200 45 -200 45 -200 45
2809627771.2952 -2.5733552 -54.073551 -200 45 -200 45 -200 45
2810627887.9813 -2.5891907 -54.0634 -200 45 -200 45 -200 45
2811628004.6674 -2.5977993 -54.072071 -200 45 -200 45 -200 45
2812628121.3536 -2.602524 -54.075886 -200 45 -200 45 -200 45
2813628238.0397 -2.6099534 -54.087727 -200 45 -200 45 -200 45
2814628354.7258 -2.6230812 -54.099049 -200 45 -200 45 -200 45
2815628471.4119 -2.6329701 -54.132458 -200 45 -200 45 -200 45
2816628588.098 -2.6342678 -54.144787 -200 45 -200 45 -200 45
2817628704.7841 -2.6334939 -54.194988 -200 45 -200 45 -200 45
2818628821.4702 -2.6305571 -54.217312 -200 45 -200 45 -200 45
2819628938.1564 -2.6312535 -54.29015 -200 45 -200 45 -200 45
2820629054.8425 -2.6199627 -54.364708 -200 45 -200 45 -200 45
2821629171.5286 -2.6036441 -54.483742 -200 45 -200 45 -200 45
2822629288.2147 -2.5933924 -54.600468 -200 45 -200 45 -200 45
2823629404.9008 -2.6060684 -54.660343 -200 45 -200 45 -200 45
2824629521.5869 -2.642199 -54.592194 -200 45 -200 45 -200 45
2825629638.273 -2.6760168 -54.613647 -200 45 -200 45 -200 45
2826629754.9592 -2.6926639 -54.672104 -200 45 -200 45 -200 45
2827629871.6453 -2.7002423 -54.742138 -200 45 -200 45 -200 45
2828629988.3314 -2.7071047 -54.845287 -200 45 -200 45 -200 45
2829630105.0175 -2.7201045 -54.918091 -200 45 -200 45 -200 45
2830630221.7036 -2.7356799 -55.021839 -200 45 -200 45 -200 45
2831630338.3897 -2.7404661 -55.110832 -200 45 -200 45 -200 45
2832630455.0758 -2.7395482 -55.208931 -200 45 -200 45 -200 45
2833630571.762 -2.7328057 -55.332653 -200 45 -200 45 -200 45
2834630688.4481 -2.728287 -55.465462 -200 45 -200 45 -200 45
2835630805.1342 -2.7224667 -55.60265 -200 45 -200 45 -200 45
2836630921.8203 -2.7084982 -55.72987 -200 45 -200 45 -200 45
2837631038.5064 -2.685564 -55.928753 -200 45 -200 45 -200 45
2838631155.1925 -2.6737456 -56.112827 -200 45 -200 45 -200 45
2839631271.8786 -2.6789379 -56.193539 -200 45 -200 45 -200 45
2840631388.5648 -2.7101445 -56.23822 -200 45 -200 45 -200 45
2841631505.2509 -2.7349339 -56.298141 -200 45 -200 45 -200 45
2842631621.937 -2.7461481 -56.39983 -200 45 -200 45 -200 45
2843631738.6231 -2.7505062 -56.505955 -200 45 -200 45 -200 45
2844631855.3092 -2.7480524 -56.614548 -200 45 -200 45 -200 45
2845631971.9953 -2.7496309 -56.740868 -200 45 -200 45 -200 45
2846632088.6814 -2.7546406 -56.827427 -200 45 -200 45 -200 45
2847632205.3676 -2.7547815 -56.948704 -200 45 -200 45 -200 45
2848632322.0537 -2.7423484 -57.03447 -200 45 -200 45 -200 45
2849632438.7398 -2.7294912 -57.145992 -200 45 -200 45 -200 45
2850632555.4259 -2.7175415 -57.257618 -200 45 -200 45 -200 45
2851632672.112 -2.7048092 -57.347992 -200 45 -200 45 -200 45
2852632788.7981 -2.6860964 -57.490173 -200 45 -200 45 -200 45
2853632905.4842 -2.6532071 -57.624504 -200 45 -200 45 -200 45
2854633022.1704 -2.6348462 -57.750057 -200 45 -200 45 -200 45
2855633138.8565 -2.6368229 -57.787506 -200 45 -200 45 -200 45
2856633255.5426 -2.6607199 -57.747269 -200 45 -200 45 -200 45
2857633372.2287 -2.6776066 -57.733444 -200 45 -200 45 -200 45
2858633488.9148 -2.6822591 -57.764652 -200 45 -200 45 -200 45
2859633605.6009 -2.6791711 -57.812531 -200 45 -200 45 -200 45
2860633722.287 -2.6724713 -57.818752 -200 45 -200 45 -200 45
2861633838.9732 -2.6738036 -57.862141 -200 45 -200 45 -200 45
2862633955.6593 -2.6723042 -57.859592 -200 45 -200 45 -200 45
2863634072.3454 -2.6700499 -57.872978 -200 45 -200 45 -200 45
2864634189.0315 -2.6562066 -57.885239 -200 45 -200 45 -200 45
2865634305.7176 -2.6396143 -57.873936 -200 45 -200 45 -200 45
2866634422.4037 -2.625066 -57.8769 -200 45 -200 45 -200 45
2867634539.0898 -2.6127746 -57.865082 -200 45 -200 45 -200 45
2868634655.776 -2.5914912 -57.875076 -200 45 -200 45 -200 45
2869634772.4621 -2.560739 -57.915581 -200 45 -200 45 -200 45
2870634889.1482 -2.5460334 -57.914909 -200 45 -200 45 -200 45
2871635005.8343 -2.5475926 -57.848118 -200 45 -200 45 -200 45
2872635122.5204 -2.5778482 -57.714333 -200 45 -200 45 -200 45
2873635239.2065 -2.59534 -57.611485 -200 45 -200 45 -200 45
2874635355.8926 -2.6028852 -57.542957 -200 45 -200 45 -200 45
2875635472.5788 -2.6028433 -57.485481 -200 45 -200 45 -200 45
2876635589.2649 -2.6011655 -57.408337 -200 45 -200 45 -200 45
2877635705.951 -2.6035483 -57.355736 -200 45 -200 45 -200 45
2878635822.6371 -2.6076665 -57.275345 -200 45 -200 45 -200 45
2879635939.3232 -2.611634 -57.19693 -200 45 -200 45 -200 45
2880636056.0093 -2.6055655 -57.125923 -200 45 -200 45 -200 45
2881636172.6954 -2.595355 -57.060661 -200 45 -200 45 -200 45
2882636289.3816 -2.5872576 -56.976971 -200 45 -200 45 -200 45
2883636406.0677 -2.5787616 -56.93618 -200 45 -200 45 -200 45
2884636522.7538 -2.5630472 -56.908756 -200 45 -200 45 -200 45
2885636639.4399 -2.5422351 -56.918304 -200 45 -200 45 -200 45
2886636756.126 -2.536984 -56.879078 -200 45 -200 45 -200 45
2887636872.8121 -2.5452151 -56.796417 -200 45 -200 45 -200 45
2888636989.4983 -2.5821605 -56.608646 -200 45 -200 45 -200 45
2889637106.1844 -2.60759 -56.50172 -200 45 -200 45 -200 45
2890637222.8705 -2.6182067 -56.438259 -200 45 -200 45 -200 45
2891637339.5566 -2.6285548 -56.382805 -200 45 -200 45 -200 45
2892637456.2427 -2.6332591 -56.342773 -200 45 -200 45 -200 45
2893637572.9288 -2.6445627 -56.279018 -200 45 -200 45 -200 45
2894637689.6149 -2.6577277 -56.232422 -200 45 -200 45 -200 45
2895637806.3011 -2.666883 -56.208065 -200 45 -200 45 -200 45
2896637922.9872 -2.6656976 -56.174183 -200 45 -200 45 -200 45
2897638039.6733 -2.6603668 -56.146698 -200 45 -200 45 -200 45
2898638156.3594 -2.662751 -56.136375 -200 45 -200 45 -200 45
2899638273.0455 -2.6582906 -56.14576 -200 45 -200 45 -200 45
2900638389.7316 -2.649193 -56.200146 -200 45 -200 45 -200 45
2901638506.4177 -2.6304424 -56.2994 -200 45 -200 45 -200 45
2902638623.1039 -2.6324255 -56.336372 -200 45 -200 45 -200 45
2903638739.79 -2.6457493 -56.325027 -200 45 -200 45 -200 45
2904638856.4761 -2.6894741 -56.227287 -200 45 -200 45 -200 45
2905638973.1622 -2.7181001 -56.223232 -200 45 -200 45 -200 45
2906639089.8483 -2.7330718 -56.256527 -200 45 -200 45 -200 45
2907639206.5344 -2.7437582 -56.291931 -200 45 -200 45 -200 45
2908639323.2205 -2.7490313 -56.351688 -200 45 -200 45 -200 45
2909639439.9067 -2.7613549 -56.390785 -200 45 -200 45 -200 45
2910639556.5928 -2.7781947 -56.461948 -200 45 -200 45 -200 45
2911639673.2789 -2.786303 -56.543846 -200 45 -200 45 -200 45
2912639789.965 -2.7822208 -56.618523 -200 45 -200 45 -200 45
2913639906.6511 -2.7785156 -56.712322 -200 45 -200 45 -200 45
2914640023.3372 -2.7763474 -56.825817 -200 45 -200 45 -200 45
2915640140.0233 -2.7714465 -56.938751 -200 45 -200 45 -200 45
2916640256.7095 -2.7587719 -57.079613 -200 45 -200 45 -200 45
2917640373.3956 -2.7352896 -57.29248 -200 45 -200 45 -200 45
2918640490.0817 -2.7346768 -57.402161 -200 45 -200 45 -200 45
2919640606.7678 -2.7451332 -57.499184 -200 45 -200 45 -200 45
2920640723.4539 -2.7841046 -57.483459 -200 45 -200 45 -200 45
2921640840.14 -2.8080633 -57.562649 -200 45 -200 45 -200 45
2922640956.8261 -2.8155909 -57.648663 -200 45 -200 45 -200 45
2923641073.5123 -2.8190823 -57.7939 -200 45 -200 45 -200 45
2924641190.1984 -2.8206971 -57.914902 -200 45 -200 45 -200 45
2925641306.8845 -2.8259037 -58.040134 -200 45 -200 45 -200 45
2926641423.5706 -2.8314233 -58.140728 -200 45 -200 45 -200 45
2927641540.2567 -2.8318624 -58.24881 -200 45 -200 45 -200 45
2928641656.9428 -2.8212521 -58.385994 -200 45 -200 45 -200 45
2929641773.6289 -2.8114264 -58.483311 -200 45 -200 45 -200 45
2930641890.3151 -2.7986073 -58.62365 -200 45 -200 45 -200 45
2931642007.0012 -2.7841046 -58.740646 -200 45 -200 45 -200 45
2932642123.6873 -2.7649708 -58.898613 -200 45 -200 45 -200 45
2933642240.3734 -2.7301238 -59.098743 -200 45 -200 45 -200 45
2934642357.0595 -2.7256837 -59.199711 -200 45 -200 45 -200 45
2935642473.7456 -2.7266624 -59.256393 -200 45 -200 45 -200 45
2936642590.4317 -2.7572651 -59.205208 -200 45 -200 45 -200 45
2937642707.1179 -2.7721403 -59.259739 -200 45 -200 45 -200 45
2938642823.804 -2.7752206 -59.31324 -200 45 -200 45 -200 45
2939642940.4901 -2.7701695 -59.380081 -200 45 -200 45 -200 45
2940643057.1762 -2.7652197 -59.439709 -200 45 -200 45 -200 45
2941643173.8623 -2.7658682 -59.475998 -200 45 -200 45 -200 45
2942643290.5484 -2.7661996 -59.52829 -200 45 -200 45 -200 45
2943643407.2345 -2.7568176 -59.561321 -200 45 -200 45 -200 45
2944643523.9207 -2.7427437 -59.5769 -200 45 -200 45 -200 45
2945643640.6068 -2.726289 -59.621056 -200 45 -200 45 -200 45
2946643757.2929 -2.713748 -59.663704 -200 45 -200 45 -200 45
2947643873.979 -2.6960282 -59.684849 -200 45 -200 45 -200 45
2948643990.6651 -2.6706023 -59.73542 -200 45 -200 45 -200 45
2949644107.3512 -2.6410697 -59.812759 -200 45 -200 45 -200 45
2950644224.0373 -2.6328409 -59.796249 -200 45 -200 45 -200 45
2951644340.7235 -2.63622 -59.75742 -200 45 -200 45 -200 45
2952644457.4096 -2.6690371 -59.640121 -200 45 -200 45 -200 45
2953644574.0957 -2.6812205 -59.54686 -200 45 -200 45 -200 45
2954644690.7818 -2.6811178 -59.524654 -200 45 -200 45 -200 45
2955644807.4679 -2.6806943 -59.477928 -200 45 -200 45 -200 45
2956644924.154 -2.6755729 -59.415432 -200 45 -200 45 -200 45
2957645040.8401 -2.6810596 -59.369568 -200 45 -200 45 -200 45
2958645157.5263 -2.6825101 -59.308765 -200 45 -200 45 -200 45
2959645274.2124 -2.6778901 -59.260517 -200 45 -200 45 -200 45
2960645390.8985 -2.6689959 -59.19408 -200 45 -200 45 -200 45
2961645507.5846 -2.6579821 -59.114777 -200 45 -200 45 -200 45
2962645624.2707 -2.6496618 -59.065556 -200 45 -200 45 -200 45
2963645740.9568 -2.6383386 -59.032444 -200 45 -200 45 -200 45
2964645857.6429 -2.6196327 -59.006599 -200 45 -200 45 -200 45
2965645974.3291 -2.5964916 -58.997486 -200 45 -200 45 -200 45
2966646091.0152 -2.597553 -58.937416 -200 45 -200 45 -200 45
2967646207.7013 -2.6096539 -58.828323 -200 45 -200 45 -200 45
2968646324.3874 -2.6441355 -58.653999 -200 45 -200 45 -200 45
2969646441.0735 -2.664834 -58.556194 -200 45 -200 45 -200 45
2970646557.7596 -2.6725111 -58.470531 -200 45 -200 45 -200 45
2971646674.4457 -2.6793938 -58.409355 -200 45 -200 45 -200 45
2972646791.1319 -2.6813974 -58.331585 -200 45 -200 45 -200 45
2973646907.818 -2.6963072 -58.282307 -200 45 -200 45 -200 45
2974647024.5041 -2.7038088 -58.212322 -200 45 -200 45 -200 45
2975647141.1902 -2.7112527 -58.164886 -200 45 -200 45 -200 45
2976647257.8763 -2.7078831 -58.10989 -200 45 -200 45 -200 45
2977647374.5624 -2.7045472 -58.067776 -200 45 -200 45 -200 45
2978647491.2485 -2.7043743 -58.048496 -200 45 -200 45 -200 45
2979647607.9347 -2.7001159 -58.03133 -200 45 -200 45 -200 45
2980647724.6208 -2.6888323 -58.065449 -200 45 -200 45 -200 45
2981647841.3069 -2.6728425 -58.140232 -200 45 -200 45 -200 45
2982647957.993 -2.6836131 -58.113251 -200 45 -200 45 -200 45
2983648074.6791 -2.6986651 -58.077168 -200 45 -200 45 -200 45
2984648191.3652 -2.7426236 -57.970154 -200 45 -200 45 -200 45
2985648308.0513 -2.7658632 -57.942444 -200 45 -200 45 -200 45
2986648424.7375 -2.7806385 -57.941116 -200 45 -200 45 -200 45
2987648541.4236 -2.7921581 -57.966587 -200 45 -200 45 -200 45
2988648658.1097 -2.8010099 -57.991306 -200 45 -200 45 -200 45
2989648774.7958 -2.8188176 -58.033085 -200 45 -200 45 -200 45
2990648891.4819 -2.8312669 -58.079536 -200 45 -200 45 -200 45
2991649008.168 -2.8375103 -58.123764 -200 45 -200 45 -200 45
2992649124.8541 -2.8370476 -58.208138 -200 45 -200 45 -200 45
2993649241.5403 -2.8346438 -58.278645 -200 45 -200 45 -200 45
2994649358.2264 -2.8378983 -58.369888 -200 45 -200 45 -200 45
2995649474.9125 -2.8330727 -58.490162 -200 45 -200 45 -200 45
2996649591.5986 -2.8238041 -58.614048 -200 45 -200 45 -200 45
2997649708.2847 -2.8032784 -58.806885 -200 45 -200 45 -200 45
2998649824.9708 -2.8130274 -58.905422 -200 45 -200 45 -200 45
2999649941.6569 -2.8325696 -58.962921 -200 45 -200 45 -200 45
3000650058.3431 -2.8710563 -58.96727 -200 45 -200 45 -200 45
3001650175.0292 -2.894491 -59.044186 -200 45 -200 45 -200 45
3002650291.7153 -2.9040935 -59.174767 -200 45 -200 45 -200 45
3003650408.4014 -2.9099016 -59.30695 -200 45 -200 45 -200 45
3004650525.0875 -2.9140823 -59.419231 -200 45 -200 45 -200 45
3005650641.7736 -2.9277847 -59.547829 -200 45 -200 45 -200 45
3006650758.4597 -2.9367871 -59.694653 -200 45 -200 45 -200 45
3007650875.1459 -2.935672 -59.817417 -200 45 -200 45 -200 45
3008650991.832 -2.9303985 -59.957882 -200 45 -200 45 -200 45
3009651108.5181 -2.9212592 -60.103561 -200 45 -200 45 -200 45
3010651225.2042 -2.914957 -60.258053 -200 45 -200 45 -200 45
3011651341.8903 -2.9065757 -60.43124 -200 45 -200 45 -200 45
3012651458.5764 -2.8843105 -60.621284 -200 45 -200 45 -200 45
3013651575.2625 -2.8619356 -60.837631 -200 45 -200 45 -200 45
3014651691.9487 -2.8652477 -60.959724 -200 45 -200 45 -200 45
3015651808.6348 -2.8780241 -61.037045 -200 45 -200 45 -200 45
3016651925.3209 -2.911114 -61.058311 -200 45 -200 45 -200 45
3017652042.007 -2.9282312 -61.148636 -200 45 -200 45 -200 45
3018652158.6931 -2.9313049 -61.259979 -200 45 -200 45 -200 45
3019652275.3792 -2.9370916 -61.377201 -200 45 -200 45 -200 45
3020652392.0653 -2.9364588 -61.481567 -200 45 -200 45 -200 45
3021652508.7515 -2.9449649 -61.590733 -200 45 -200 45 -200 45
3022652625.4376 -2.9529853 -61.688145 -200 45 -200 45 -200 45
3023652742.1237 -2.9507203 -61.778687 -200 45 -200 45 -200 45
3024652858.8098 -2.9455273 -61.873695 -200 45 -200 45 -200 45
3025652975.4959 -2.9437604 -61.947529 -200 45 -200 45 -200 45
3026653092.182 -2.9429283 -62.012711 -200 45 -200 45 -200 45
3027653208.8681 -2.9427612 -62.083347 -200 45 -200 45 -200 45
3028653325.5543 -2.9326477 -62.163265 -200 45 -200 45 -200 45
3029653442.2404 -2.9223425 -62.206474 -200 45 -200 45 -200 45
3030653558.9265 -2.9413342 -62.10812 -200 45 -200 45 -200 45
3031653675.6126 -2.9644041 -61.939163 -200 45 -200 45 -200 45
3032653792.2987 -3.0028791 -61.68885 -200 45 -200 45 -200 45
3033653908.9848 -3.0114925 -61.48925 -200 45 -200 45 -200 45
3034654025.6709 -3.0053327 -61.32 -200 45 -200 45 -200 45
3035654142.3571 -2.9915781 -61.194847 -200 45 -200 45 -200 45
3036654259.0432 -2.9771762 -61.071579 -200 45 -200 45 -200 45
3037654375.7293 -2.9683914 -60.989643 -200 45 -200 45 -200 45
3038654492.4154 -2.9565878 -60.909584 -200 45 -200 45 -200 45
3039654609.1015 -2.9348924 -60.840683 -200 45 -200 45 -200 45
3040654725.7876 -2.9106767 -60.790638 -200 45 -200 45 -200 45
3041654842.4737 -2.8877645 -60.76165 -200 45 -200 45 -200 45
3042654959.1599 -2.869339 -60.756508 -200 45 -200 45 -200 45
3043655075.846 -2.8498929 -60.790501 -200 45 -200 45 -200 45
3044655192.5321 -2.8260975 -60.83535 -200 45 -200 45 -200 45
3045655309.2182 -2.8012724 -60.912617 -200 45 -200 45 -200 45
3046655425.9043 -2.8065908 -60.898556 -200 45 -200 45 -200 45
3047655542.5904 -2.8292563 -60.821987 -200 45 -200 45 -200 45
3048655659.2765 -2.862447 -60.743057 -200 45 -200 45 -200 45
3049655775.9627 -2.8812277 -60.714352 -200 45 -200 45 -200 45
3050655892.6488 -2.8983884 -60.706436 -200 45 -200 45 -200 45
3051656009.3349 -2.9123616 -60.701832 -200 45 -200 45 -200 45
3052656126.021 -2.9315591 -60.696537 -200 45 -200 45 -200 45
3053656242.7071 -2.9569461 -60.69207 -200 45 -200 45 -200 45
3054656359.3932 -2.9845588 -60.701546 -200 45 -200 45 -200 45
3055656476.0793 -3.0062373 -60.708115 -200 45 -200 45 -200 45
3056656592.7655 -3.0274444 -60.690212 -200 45 -200 45 -200 45
3057656709.4516 -3.0579004 -60.691845 -200 45 -200 45 -200 45
3058656826.1377 -3.0951297 -60.694401 -200 45 -200 45 -200 45
3059656942.8238 -3.1348085 -60.658516 -200 45 -200 45 -200 45
3060657059.5099 -3.1744323 -60.629467 -200 45 -200 45 -200 45
3061657176.196 -3.2192919 -60.507282 -200 45 -200 45 -200 45
3062657292.8821 -3.2870994 -60.209171 -200 45 -200 45 -200 45
3063657409.5683 -3.3675666 -59.770145 -200 45 -200 45 -200 45
3064657526.2544 -3.4471662 -59.268536 -200 45 -200 45 -200 45
3065657642.9405 -3.500205 -58.747974 -200 45 -200 45 -200 45
3066657759.6266 -3.536135 -58.203083 -200 45 -200 45 -200 45
3067657876.3127 -3.5485539 -57.629475 -200 45 -200 45 -200 45
3068657992.9988 -3.554074 -57.051643 -200 45 -200 45 -200 45
3069658109.6849 -3.5410726 -56.508865 -200 45 -200 45 -200 45
3070658226.3711 -3.5148115 -56.03157 -200 45 -200 45 -200 45
3071658343.0572 -3.4668939 -55.623222 -200 45 -200 45 -200 45
3072658459.7433 -3.4053075 -55.306183 -200 45 -200 45 -200 45
3073658576.4294 -3.3481369 -55.089653 -200 45 -200 45 -200 45
3074658693.1155 -3.2876134 -54.907486 -200 45 -200 45 -200 45
3075658809.8016 -3.2148428 -54.805241 -200 45 -200 45 -200 45
3076658926.4877 -3.1187508 -54.822296 -200 45 -200 45 -200 45
3077659043.1739 -3.0337417 -54.984142 -200 45 -200 45 -200 45
3078659159.86 -2.9811931 -55.173992 -200 45 -200 45 -200 45
3079659276.5461 -2.9601891 -55.372616 -200 45 -200 45 -200 45
3080659393.2322 -2.9541779 -55.612789 -200 45 -200 45 -200 45
3081659509.9183 -2.9469931 -55.893036 -200 45 -200 45 -200 45
3082659626.6044 -2.9381943 -56.171543 -200 45 -200 45 -200 45
3083659743.2905 -2.926188 -56.448463 -200 45 -200 45 -200 45
3084659859.9767 -2.9222593 -56.683628 -200 45 -200 45 -200 45
3085659976.6628 -2.9240055 -56.936291 -200 45 -200 45 -200 45
3086660093.3489 -2.9236031 -57.166542 -200 45 -200 45 -200 45
3087660210.035 -2.9164097 -57.408669 -200 45 -200 45 -200 45
3088660326.7211 -2.9076693 -57.650566 -200 45 -200 45 -200 45
3089660443.4072 -2.8998971 -57.879044 -200 45 -200 45 -200 45
3090660560.0933 -2.896024 -58.074627 -200 45 -200 45 -200 45
3091660676.7795 -2.8878791 -58.273323 -200 45 -200 45 -200 45
3092660793.4656 -2.8680656 -58.505222 -200 45 -200 45 -200 45
3093660910.1517 -2.8567023 -58.674843 -200 45 -200 45 -200 45
3094661026.8378 -2.8639715 -58.753799 -200 45 -200 45 -200 45
3095661143.5239 -2.8800032 -58.714314 -200 45 -200 45 -200 45
3096661260.21 -2.892931 -58.691605 -200 45 -200 45 -200 45
3097661376.8961 -2.8792155 -58.770035 -200 45 -200 45 -200 45
3098661493.5823 -2.8578589 -58.903038 -200 45 -200 45 -200 45
3099661610.2684 -2.8381326 -59.084572 -200 45 -200 45 -200 45
3100661726.9545 -2.8204057 -59.292053 -200 45 -200 45 -200 45
3101661843.6406 -2.8125248 -59.489841 -200 45 -200 45 -200 45
3102661960.3267 -2.8075082 -59.688 -200 45 -200 45 -200 45
3103662077.0128 -2.7898304 -59.863056 -200 45 -200 45 -200 45
3104662193.6989 -2.7718537 -60.021095 -200 45 -200 45 -200 45
3105662310.3851 -2.7576039 -60.199158 -200 45 -200 45 -200 45
3106662427.0712 -2.7411711 -60.356312 -200 45 -200 45 -200 45
3107662543.7573 -2.7183285 -60.514065 -200 45 -200 45 -200 45
3108662660.4434 -2.690944 -60.69249 -200 45 -200 45 -200 45
3109662777.1295 -2.6692121 -60.855476 -200 45 -200 45 -200 45
3110662893.8156 -2.6657612 -60.934364 -200 45 -200 45 -200 45
3111663010.5018 -2.6898136 -60.916901 -200 45 -200 45 -200 45
3112663127.1879 -2.7090113 -60.935795 -200 45 -200 45 -200 45
3113663243.874 -2.7112927 -60.962624 -200 45 -200 45 -200 45
3114663360.5601 -2.7095397 -61.015221 -200 45 -200 45 -200 45
3115663477.2462 -2.7041645 -61.041191 -200 45 -200 45 -200 45
3116663593.9323 -2.7021394 -61.083183 -200 45 -200 45 -200 45
3117663710.6184 -2.7019224 -61.082893 -200 45 -200 45 -200 45
3118663827.3046 -2.7026112 -61.10788 -200 45 -200 45 -200 45
3119663943.9907 -2.6901109 -61.097366 -200 45 -200 45 -200 45
3120664060.6768 -2.6771548 -61.115517 -200 45 -200 45 -200 45
3121664177.3629 -2.6650836 -61.112312 -200 45 -200 45 -200 45
3122664294.049 -2.6516547 -61.080635 -200 45 -200 45 -200 45
3123664410.7351 -2.6338177 -61.110332 -200 45 -200 45 -200 45
3124664527.4212 -2.6054308 -61.141258 -200 45 -200 45 -200 45
3125664644.1074 -2.589155 -61.167782 -200 45 -200 45 -200 45
3126664760.7935 -2.592417 -61.094006 -200 45 -200 45 -200 45
3127664877.4796 -2.6200559 -60.941257 -200 45 -200 45 -200 45
3128664994.1657 -2.6381998 -60.833797 -200 45 -200 45 -200 45
3129665110.8518 -2.6477458 -60.772278 -200 45 -200 45 -200 45
3130665227.5379 -2.6481054 -60.704285 -200 45 -200 45 -200 45
3131665344.224 -2.6485565 -60.628681 -200 45 -200 45 -200 45
3132665460.9102 -2.6533339 -60.594879 -200 45 -200 45 -200 45
3133665577.5963 -2.6592875 -60.514488 -200 45 -200 45 -200 45
3134665694.2824 -2.6662099 -60.452866 -200 45 -200 45 -200 45
3135665810.9685 -2.6591949 -60.376408 -200 45 -200 45 -200 45
3136665927.6546 -2.6552429 -60.314205 -200 45 -200 45 -200 45
3137666044.3407 -2.6501415 -60.264496 -200 45 -200 45 -200 45
3138666161.0268 -2.6433828 -60.213745 -200 45 -200 45 -200 45
3139666277.713 -2.632653 -60.184711 -200 45 -200 45 -200 45
3140666394.3991 -2.6145542 -60.210583 -200 45 -200 45 -200 45
3141666511.0852 -2.6107559 -60.199608 -200 45 -200 45 -200 45
3142666627.7713 -2.6182806 -60.126621 -200 45 -200 45 -200 45
3143666744.4574 -2.6550443 -59.967442 -200 45 -200 45 -200 45
3144666861.1435 -2.683255 -59.888493 -200 45 -200 45 -200 45
3145666977.8296 -2.6977484 -59.830109 -200 45 -200 45 -200 45
3146667094.5158 -2.7087572 -59.778378 -200 45 -200 45 -200 45
3147667211.2019 -2.7146633 -59.75423 -200 45 -200 45 -200 45
3148667327.888 -2.7312925 -59.706455 -200 45 -200 45 -200 45
3149667444.5741 -2.7432349 -59.708714 -200 45 -200 45 -200 45
3150667561.2602 -2.7527554 -59.688217 -200 45 -200 45 -200 45
3151667677.9463 -2.7530305 -59.69173 -200 45 -200 45 -200 45
3152667794.6324 -2.7537694 -59.69492 -200 45 -200 45 -200 45
3153667911.3186 -2.7544727 -59.712528 -200 45 -200 45 -200 45
3154668028.0047 -2.7541354 -59.761852 -200 45 -200 45 -200 45
3155668144.6908 -2.7470243 -59.832745 -200 45 -200 45 -200 45
3156668261.3769 -2.7336974 -59.944233 -200 45 -200 45 -200 45
3157668378.063 -2.7318971 -60.020508 -200 45 -200 45 -200 45
3158668494.7491 -2.746516 -60.039097 -200 45 -200 45 -200 45
3159668611.4352 -2.7852333 -59.978199 -200 45 -200 45 -200 45
3160668728.1214 -2.8148825 -59.985222 -200 45 -200 45 -200 45
3161668844.8075 -2.8320251 -60.048225 -200 45 -200 45 -200 45
3162668961.4936 -2.8423953 -60.13134 -200 45 -200 45 -200 45
3163669078.1797 -2.8503354 -60.191868 -200 45 -200 45 -200 45
3164669194.8658 -2.8623219 -60.299225 -200 45 -200 45 -200 45
3165669311.5519 -2.8758039 -60.384781 -200 45 -200 45 -200 45
3166669428.238 -2.8834691 -60.475506 -200 45 -200 45 -200 45
3167669544.9242 -2.8820732 -60.578197 -200 45 -200 45 -200 45
3168669661.6103 -2.8773813 -60.70718 -200 45 -200 45 -200 45
3169669778.2964 -2.8764997 -60.81031 -200 45 -200 45 -200 45
3170669894.9825 -2.8710332 -60.953026 -200 45 -200 45 -200 45
3171670011.6686 -2.8587048 -61.123314 -200 45 -200 45 -200 45
3172670128.3547 -2.8324409 -61.317299 -200 45 -200 45 -200 45
3173670245.0408 -2.8320837 -61.496109 -200 45 -200 45 -200 45
3174670361.727 -2.8373146 -61.589245 -200 45 -200 45 -200 45
3175670478.4131 -2.8717623 -61.613014 -200 45 -200 45 -200 45
3176670595.0992 -2.8928528 -61.685162 -200 45 -200 45 -200 45
3177670711.7853 -2.9004886 -61.813457 -200 45 -200 45 -200 45
3178670828.4714 -2.9028194 -61.916676 -200 45 -200 45 -200 45
3179670945.1575 -2.9022484 -62.04953 -200 45 -200 45 -200 45
3180671061.8436 -2.906224 -62.165638 -200 45 -200 45 -200 45
3181671178.5298 -2.9099963 -62.300343 -200 45 -200 45 -200 45
3182671295.2159 -2.9078033 -62.417999 -200 45 -200 45 -200 45
3183671411.902 -2.899338 -62.540588 -200 45 -200 45 -200 45
3184671528.5881 -2.8835406 -62.632843 -200 45 -200 45 -200 45
3185671645.2742 -2.87343 -62.748161 -200 45 -200 45 -200 45
3186671761.9603 -2.8548028 -62.85429 -200 45 -200 45 -200 45
3187671878.6464 -2.8359885 -62.999767 -200 45 -200 45 -200 45
3188671995.3326 -2.8046854 -63.178295 -200 45 -200 45 -200 45
3189672112.0187 -2.7933006 -63.273468 -200 45 -200 45 -200 45
3190672228.7048 -2.7923644 -63.326012 -200 45 -200 45 -200 45
3191672345.3909 -2.8228486 -63.291893 -200 45 -200 45 -200 45
3192672462.077 -2.8344302 -63.308067 -200 45 -200 45 -200 45
3193672578.7631 -2.835099 -63.346748 -200 45 -200 45 -200 45
3194672695.4492 -2.8314452 -63.410439 -200 45 -200 45 -200 45
3195672812.1354 -2.8207109 -63.449352 -200 45 -200 45 -200 45
3196672928.8215 -2.8244395 -63.456753 -200 45 -200 45 -200 45
3197673045.5076 -2.8214297 -63.484234 -200 45 -200 45 -200 45
3198673162.1937 -2.8162007 -63.486378 -200 45 -200 45 -200 45
3199673278.8798 -2.8010266 -63.48098 -200 45 -200 45 -200 45
3200673395.5659 -2.7837756 -63.503738 -200 45 -200 45 -200 45
3201673512.252 -2.7708917 -63.507675 -200 45 -200 45 -200 45
3202673628.9382 -2.7545977 -63.514591 -200 45 -200 45 -200 45
3203673745.6243 -2.7309771 -63.549522 -200 45 -200 45 -200 45
3204673862.3104 -2.7048705 -63.58588 -200 45 -200 45 -200 45
3205673978.9965 -2.6943686 -63.561794 -200 45 -200 45 -200 45
3206674095.6826 -2.694952 -63.51223 -200 45 -200 45 -200 45
3207674212.3687 -2.7233222 -63.356773 -200 45 -200 45 -200 45
3208674329.0548 -2.7399266 -63.280071 -200 45 -200 45 -200 45
3209674445.741 -2.7414987 -63.207233 -200 45 -200 45 -200 45
3210674562.4271 -2.7395678 -63.155148 -200 45 -200 45 -200 45
3211674679.1132 -2.7385123 -63.076046 -200 45 -200 45 -200 45
3212674795.7993 -2.7445817 -63.011036 -200 45 -200 45 -200 45
3213674912.4854 -2.7447677 -62.938835 -200 45 -200 45 -200 45
3214675029.1715 -2.7470987 -62.87244 -200 45 -200 45 -200 45
3215675145.8576 -2.7358081 -62.783108 -200 45 -200 45 -200 45
3216675262.5438 -2.727777 -62.71804 -200 45 -200 45 -200 45
3217675379.2299 -2.7220545 -62.66032 -200 45 -200 45 -200 45
3218675495.916 -2.7123492 -62.597843 -200 45 -200 45 -200 45
3219675612.6021 -2.698312 -62.562859 -200 45 -200 45 -200 45
3220675729.2882 -2.6756232 -62.583241 -200 45 -200 45 -200 45
3221675845.9743 -2.6756778 -62.50671 -200 45 -200 45 -200 45
3222675962.6604 -2.6877429 -62.403259 -200 45 -200 45 -200 45
3223676079.3466 -2.7249382 -62.218624 -200 45 -200 45 -200 45
3224676196.0327 -2.745327 -62.122906 -200 45 -200 45 -200 45
3225676312.7188 -2.7591238 -62.053764 -200 45 -200 45 -200 45
3226676429.4049 -2.7661521 -61.981358 -200 45 -200 45 -200 45
3227676546.091 -2.7707965 -61.922565 -200 45 -200 45 -200 45
3228676662.7771 -2.7830477 -61.865288 -200 45 -200 45 -200 45
3229676779.4632 -2.7969613 -61.822529 -200 45 -200 45 -200 45
3230676896.1494 -2.8049028 -61.769371 -200 45 -200 45 -200 45
3231677012.8355 -2.8030322 -61.7519 -200 45 -200 45 -200 45
3232677129.5216 -2.7992632 -61.747108 -200 45 -200 45 -200 45
3233677246.2077 -2.8030775 -61.715187 -200 45 -200 45 -200 45
3234677362.8938 -2.8020549 -61.726967 -200 45 -200 45 -200 45
3235677479.5799 -2.7910657 -61.757751 -200 45 -200 45 -200 45
3236677596.266 -2.7764046 -61.862354 -200 45 -200 45 -200 45
3237677712.9522 -2.7829368 -61.847691 -200 45 -200 45 -200 45
3238677829.6383 -2.8010731 -61.83884 -200 45 -200 45 -200 45
3239677946.3244 -2.8418081 -61.740807 -200 45 -200 45 -200 45
3240678063.0105 -2.8700094 -61.742874 -200 45 -200 45 -200 45
3241678179.6966 -2.8834531 -61.766636 -200 45 -200 45 -200 45
3242678296.3827 -2.8937681 -61.814976 -200 45 -200 45 -200 45
3243678413.0688 -2.9041049 -61.851604 -200 45 -200 45 -200 45
3244678529.755 -2.9190097 -61.906799 -200 45 -200 45 -200 45
3245678646.4411 -2.9322257 -61.972363 -200 45 -200 45 -200 45
3246678763.1272 -2.9392271 -62.064972 -200 45 -200 45 -200 45
3247678879.8133 -2.9369054 -62.141354 -200 45 -200 45 -200 45
3248678996.4994 -2.9376078 -62.239212 -200 45 -200 45 -200 45
3249679113.1855 -2.9367566 -62.342033 -200 45 -200 45 -200 45
3250679229.8716 -2.9314096 -62.457806 -200 45 -200 45 -200 45
3251679346.5578 -2.9183872 -62.616074 -200 45 -200 45 -200 45
3252679463.2439 -2.8999205 -62.814545 -200 45 -200 45 -200 45
3253679579.93 -2.9053228 -62.927338 -200 45 -200 45 -200 45
3254679696.6161 -2.9201128 -63.007839 -200 45 -200 45 -200 45
3255679813.3022 -2.9570832 -63.027573 -200 45 -200 45 -200 45
3256679929.9883 -2.9775069 -63.123825 -200 45 -200 45 -200 45
3257680046.6744 -2.9863954 -63.234882 -200 45 -200 45 -200 45
3258680163.3606 -2.9862678 -63.373692 -200 45 -200 45 -200 45
3259680280.0467 -2.9933348 -63.49939 -200 45 -200 45 -200 45
3260680396.7328 -2.9969256 -63.631313 -200 45 -200 45 -200 45
3261680513.4189 -3.0051563 -63.760532 -200 45 -200 45 -200 45
3262680630.105 -3.0037878 -63.885418 -200 45 -200 45 -200 45
3263680746.7911 -2.9942648 -63.995811 -200 45 -200 45 -200 45
3264680863.4772 -2.9824302 -64.137093 -200 45 -200 45 -200 45
3265680980.1634 -2.9739964 -64.277733 -200 45 -200 45 -200 45
3266681096.8495 -2.9590015 -64.404358 -200 45 -200 45 -200 45
3267681213.5356 -2.9360619 -64.585861 -200 45 -200 45 -200 45
3268681330.2217 -2.9098971 -64.773323 -200 45 -200 45 -200 45
3269681446.9078 -2.9071825 -64.882233 -200 45 -200 45 -200 45
3270681563.5939 -2.9123495 -64.948174 -200 45 -200 45 -200 45
3271681680.28 -2.9418499 -64.928093 -200 45 -200 45 -200 45
3272681796.9662 -2.9506283 -65.003098 -200 45 -200 45 -200 45
3273681913.6523 -2.9502771 -65.088768 -200 45 -200 45 -200 45
3274682030.3384 -2.9452152 -65.156273 -200 45 -200 45 -200 45
3275682147.0245 -2.9413571 -65.231926 -200 45 -200 45 -200 45
3276682263.7106 -2.9425991 -65.289612 -200 45 -200 45 -200 45
3277682380.3967 -2.939271 -65.349594 -200 45 -200 45 -200 45
3278682497.0828 -2.9330382 -65.395699 -200 45 -200 45 -200 45
3279682613.769 -2.9206657 -65.442162 -200 45 -200 45 -200 45
3280682730.4551 -2.9029028 -65.482597 -200 45 -200 45 -200 45
3281682847.1412 -2.8894126 -65.508362 -200 45 -200 45 -200 45
3282682963.8273 -2.871515 -65.576088 -200 45 -200 45 -200 45
3283683080.5134 -2.8463309 -65.618279 -200 45 -200 45 -200 45
3284683197.1995 -2.8213985 -65.709557 -200 45 -200 45 -200 45
3285683313.8856 -2.8177116 -65.698341 -200 45 -200 45 -200 45
3286683430.5718 -2.827116 -65.627098 -200 45 -200 45 -200 45
3287683547.2579 -2.8546126 -65.529358 -200 45 -200 45 -200 45
3288683663.944 -2.8635931 -65.467308 -200 45 -200 45 -200 45
3289683780.6301 -2.865555 -65.434059 -200 45 -200 45 -200 45
3290683897.3162 -2.8640492 -65.374382 -200 45 -200 45 -200 45
3291684014.0023 -2.864341 -65.326408 -200 45 -200 45 -200 45
3292684130.6884 -2.8661044 -65.246986 -200 45 -200 45 -200 45
3293684247.3746 -2.8682384 -65.190552 -200 45 -200 45 -200 45
3294684364.0607 -2.8630381 -65.123421 -200 45 -200 45 -200 45
3295684480.7468 -2.8512657 -65.056511 -200 45 -200 45 -200 45
3296684597.4329 -2.8386691 -64.995514 -200 45 -200 45 -200 45
3297684714.119 -2.8292794 -64.922813 -200 45 -200 45 -200 45
3298684830.8051 -2.8177598 -64.882957 -200 45 -200 45 -200 45
3299684947.4912 -2.796874 -64.8619 -200 45 -200 45 -200 45
3300685064.1774 -2.7759857 -64.866417 -200 45 -200 45 -200 45
3301685180.8635 -2.7812126 -64.792915 -200 45 -200 45 -200 45
3302685297.5496 -2.7958953 -64.650383 -200 45 -200 45 -200 45
3303685414.2357 -2.8262103 -64.507286 -200 45 -200 45 -200 45
3304685530.9218 -2.8437274 -64.410851 -200 45 -200 45 -200 45
3305685647.6079 -2.8518822 -64.345276 -200 45 -200 45 -200 45
3306685764.294 -2.8583317 -64.26976 -200 45 -200 45 -200 45
3307685880.9802 -2.8639185 -64.206902 -200 45 -200 45 -200 45
3308685997.6663 -2.8762407 -64.136696 -200 45 -200 45 -200 45
3309686114.3524 -2.8889699 -64.081833 -200 45 -200 45 -200 45
3310686231.0385 -2.8911555 -64.034523 -200 45 -200 45 -200 45
3311686347.7246 -2.890523 -63.998032 -200 45 -200 45 -200 45
3312686464.4107 -2.8896685 -63.947163 -200 45 -200 45 -200 45
3313686581.0968 -2.8890138 -63.937073 -200 45 -200 45 -200 45
3314686697.783 -2.8840902 -63.912453 -200 45 -200 45 -200 45
3315686814.4691 -2.8735991 -63.956486 -200 45 -200 45 -200 45
3316686931.1552 -2.8645062 -64.031776 -200 45 -200 45 -200 45
3317687047.8413 -2.8773186 -64.01899 -200 45 -200 45 -200 45
3318687164.5274 -2.9038606 -63.947407 -200 45 -200 45 -200 45
3319687281.2135 -2.9434316 -63.881962 -200 45 -200 45 -200 45
3320687397.8997 -2.9673984 -63.873322 -200 45 -200 45 -200 45
3321687514.5858 -2.9806845 -63.887028 -200 45 -200 45 -200 45
3322687631.2719 -2.9915102 -63.929211 -200 45 -200 45 -200 45
3323687747.958 -3.0081069 -63.970222 -200 45 -200 45 -200 45
3324687864.6441 -3.0258958 -64.007362 -200 45 -200 45 -200 45
3325687981.3302 -3.0456436 -64.073303 -200 45 -200 45 -200 45
3326688098.0163 -3.0519195 -64.136703 -200 45 -200 45 -200 45
3327688214.7025 -3.0562818 -64.222382 -200 45 -200 45 -200 45
3328688331.3886 -3.061621 -64.304321 -200 45 -200 45 -200 45
3329688448.0747 -3.0646794 -64.418297 -200 45 -200 45 -200 45
3330688564.7608 -3.0671532 -64.5448 -200 45 -200 45 -200 45
3331688681.4469 -3.0589299 -64.728523 -200 45 -200 45 -200 45
3332688798.133 -3.0507448 -64.912651 -200 45 -200 45 -200 45
3333688914.8191 -3.0713358 -65.011734 -200 45 -200 45 -200 45
3334689031.5053 -3.0985332 -65.080505 -200 45 -200 45 -200 45
3335689148.1914 -3.1434538 -65.126938 -200 45 -200 45 -200 45
3336689264.8775 -3.1678765 -65.275459 -200 45 -200 45 -200 45
3337689381.5636 -3.1865764 -65.419235 -200 45 -200 45 -200 45
3338689498.2497 -3.2005155 -65.557732 -200 45 -200 45 -200 45
3339689614.9358 -3.2171566 -65.703674 -200 45 -200 45 -200 45
3340689731.6219 -3.2403352 -65.880348 -200 45 -200 45 -200 45
3341689848.3081 -3.2587624 -66.038658 -200 45 -200 45 -200 45
3342689964.9942 -3.2719162 -66.177406 -200 45 -200 45 -200 45
3343690081.6803 -3.281924 -66.33847 -200 45 -200 45 -200 45
3344690198.3664 -3.293252 -66.490761 -200 45 -200 45 -200 45
3345690315.0525 -3.3066695 -66.608139 -200 45 -200 45 -200 45
3346690431.7386 -3.3149159 -66.725372 -200 45 -200 45 -200 45
3347690548.4247 -3.3165212 -66.868622 -200 45 -200 45 -200 45
3348690665.1109 -3.3143091 -66.965912 -200 45 -200 45 -200 45
3349690781.797 -3.3345654 -66.939453 -200 45 -200 45 -200 45
3350690898.4831 -3.3632519 -66.828934 -200 45 -200 45 -200 45
3351691015.1692 -3.3920083 -66.75235 -200 45 -200 45 -200 45
3352691131.8553 -3.3997355 -66.712975 -200 45 -200 45 -200 45
3353691248.5414 -3.3950641 -66.676514 -200 45 -200 45 -200 45
3354691365.2275 -3.3844886 -66.700592 -200 45 -200 45 -200 45
3355691481.9137 -3.374321 -66.736015 -200 45 -200 45 -200 45
3356691598.5998 -3.3702388 -66.773987 -200 45 -200 45 -200 45
3357691715.2859 -3.3640406 -66.857529 -200 45 -200 45 -200 45
3358691831.972 -3.3446217 -66.911575 -200 45 -200 45 -200 45
3359691948.6581 -3.3274281 -67.02005 -200 45 -200 45 -200 45
3360692065.3442 -3.3063538 -67.105484 -200 45 -200 45 -200 45
3361692182.0303 -3.2916138 -67.214424 -200 45 -200 45 -200 45
3362692298.7165 -3.272372 -67.353203 -200 45 -200 45 -200 45
3363692415.4026 -3.2504027 -67.530884 -200 45 -200 45 -200 45
3364692532.0887 -3.2307847 -67.693909 -200 45 -200 45 -200 45
3365692648.7748 -3.2405698 -67.799065 -200 45 -200 45 -200 45
3366692765.4609 -3.2709446 -67.807373 -200 45 -200 45 -200 45
3367692882.147 -3.3078985 -67.84166 -200 45 -200 45 -200 45
3368692998.8331 -3.3347464 -67.897896 -200 45 -200 45 -200 45
3369693115.5193 -3.356848 -67.967186 -200 45 -200 45 -200 45
3370693232.2054 -3.3838639 -68.020729 -200 45 -200 45 -200 45
3371693348.8915 -3.4169271 -68.031342 -200 45 -200 45 -200 45
3372693465.5776 -3.4585907 -68.043182 -200 45 -200 45 -200 45
3373693582.2637 -3.5054967 -67.978539 -200 45 -200 45 -200 45
3374693698.9498 -3.5473251 -67.903381 -200 45 -200 45 -200 45
3375693815.6359 -3.5973675 -67.761116 -200 45 -200 45 -200 45
3376693932.3221 -3.6528113 -67.542305 -200 45 -200 45 -200 45
3377694049.0082 -3.7077131 -67.188179 -200 45 -200 45 -200 45
3378694165.6943 -3.7509925 -66.781761 -200 45 -200 45 -200 45
3379694282.3804 -3.7822859 -66.285904 -200 45 -200 45 -200 45
3380694399.0665 -3.8057609 -65.672295 -200 45 -200 45 -200 45
3381694515.7526 -3.8350306 -64.952118 -200 45 -200 45 -200 45
3382694632.4387 -3.8651712 -64.133163 -200 45 -200 45 -200 45
3383694749.1249 -3.8724816 -63.32449 -200 45 -200 45 -200 45
3384694865.811 -3.8484058 -62.60947 -200 45 -200 45 -200 45
3385694982.4971 -3.8048213 -61.998993 -200 45 -200 45 -200 45
3386695099.1832 -3.7486506 -61.489174 -200 45 -200 45 -200 45
3387695215.8693 -3.6956255 -61.057602 -200 45 -200 45 -200 45
3388695332.5554 -3.6458697 -60.757717 -200 45 -200 45 -200 45
3389695449.2415 -3.6020849 -60.513824 -200 45 -200 45 -200 45
3390695565.9277 -3.5567179 -60.277699 -200 45 -200 45 -200 45
3391695682.6138 -3.5137186 -60.0681 -200 45 -200 45 -200 45
3392695799.2999 -3.4791644 -59.835068 -200 45 -200 45 -200 45
3393695915.986 -3.4419687 -59.597889 -200 45 -200 45 -200 45
3394696032.6721 -3.3998857 -59.339272 -200 45 -200 45 -200 45
3395696149.3582 -3.342479 -59.134911 -200 45 -200 45 -200 45
3396696266.0443 -3.281991 -58.879845 -200 45 -200 45 -200 45
3397696382.7305 -3.2348497 -58.617279 -200 45 -200 45 -200 45
3398696499.4166 -3.2001743 -58.340172 -200 45 -200 45 -200 45
3399696616.1027 -3.1581032 -58.184128 -200 45 -200 45 -200 45
3400696732.7888 -3.1064925 -58.160599 -200 45 -200 45 -200 45
3401696849.4749 -3.0487094 -58.248871 -200 45 -200 45 -200 45
3402696966.161 -2.9958172 -58.38747 -200 45 -200 45 -200 45
3403697082.8471 -2.9578459 -58.589569 -200 45 -200 45 -200 45
3404697199.5333 -2.9279325 -58.828091 -200 45 -200 45 -200 45
3405697316.2194 -2.9086766 -59.071636 -200 45 -200 45 -200 45
3406697432.9055 -2.884665 -59.309414 -200 45 -200 45 -200 45
3407697549.5916 -2.8642154 -59.542995 -200 45 -200 45 -200 45
3408697666.2777 -2.8452153 -59.770596 -200 45 -200 45 -200 45
3409697782.9638 -2.8362198 -60.01416 -200 45 -200 45 -200 45
3410697899.6499 -2.8204062 -60.275723 -200 45 -200 45 -200 45
3411698016.3361 -2.7974443 -60.562248 -200 45 -200 45 -200 45
3412698133.0222 -2.7884655 -60.805069 -200 45 -200 45 -200 45
3413698249.7083 -2.7922852 -60.985859 -200 45 -200 45 -200 45
3414698366.3944 -2.825007 -61.078873 -200 45 -200 45 -200 45
3415698483.0805 -2.8459315 -61.222252 -200 45 -200 45 -200 45
3416698599.7666 -2.8607051 -61.409153 -200 45 -200 45 -200 45
3417698716.4527 -2.8686914 -61.623661 -200 45 -200 45 -200 45
3418698833.1389 -2.868566 -61.806278 -200 45 -200 45 -200 45
3419698949.825 -2.8802142 -62.016159 -200 45 -200 45 -200 45
3420699066.5111 -2.8914502 -62.212185 -200 45 -200 45 -200 45
3421699183.1972 -2.8953676 -62.400959 -200 45 -200 45 -200 45
3422699299.8833 -2.8938084 -62.609169 -200 45 -200 45 -200 45
3423699416.5694 -2.8855247 -62.808643 -200 45 -200 45 -200 45
3424699533.2555 -2.8822093 -63.037045 -200 45 -200 45 -200 45
3425699649.9417 -2.8714108 -63.245346 -200 45 -200 45 -200 45
3426699766.6278 -2.8604815 -63.484322 -200 45 -200 45 -200 45
3427699883.3139 -2.8378253 -63.744778 -200 45 -200 45 -200 45
3428700000 -2.8284502 -63.980499 -200 45 -200 45 -200 45
3429700116.6861 -2.8380721 -64.161919 -200 45 -200 45 -200 45
3430700233.3722 -2.8702011 -64.235954 -200 45 -200 45 -200 45
3431700350.0583 -2.8902011 -64.355858 -200 45 -200 45 -200 45
3432700466.7445 -2.8982298 -64.537407 -200 45 -200 45 -200 45
3433700583.4306 -2.8988833 -64.697731 -200 45 -200 45 -200 45
3434700700.1167 -2.898138 -64.872185 -200 45 -200 45 -200 45
3435700816.8028 -2.9020691 -65.026909 -200 45 -200 45 -200 45
3436700933.4889 -2.908282 -65.172638 -200 45 -200 45 -200 45
3437701050.175 -2.9048917 -65.330414 -200 45 -200 45 -200 45
3438701166.8611 -2.8934088 -65.482132 -200 45 -200 45 -200 45
3439701283.5473 -2.8815839 -65.600449 -200 45 -200 45 -200 45
3440701400.2334 -2.8716781 -65.750793 -200 45 -200 45 -200 45
3441701516.9195 -2.8546798 -65.88015 -200 45 -200 45 -200 45
3442701633.6056 -2.8383183 -66.024498 -200 45 -200 45 -200 45
3443701750.2917 -2.8069613 -66.206429 -200 45 -200 45 -200 45
3444701866.9778 -2.7943876 -66.320267 -200 45 -200 45 -200 45
3445701983.6639 -2.7918022 -66.394913 -200 45 -200 45 -200 45
3446702100.3501 -2.8201029 -66.380363 -200 45 -200 45 -200 45
3447702217.0362 -2.8322124 -66.409996 -200 45 -200 45 -200 45
3448702333.7223 -2.8348746 -66.445808 -200 45 -200 45 -200 45
3449702450.4084 -2.8335667 -66.489128 -200 45 -200 45 -200 45
3450702567.0945 -2.8260598 -66.547363 -200 45 -200 45 -200 45
3451702683.7806 -2.8292563 -66.556885 -200 45 -200 45 -200 45
3452702800.4667 -2.8279386 -66.598152 -200 45 -200 45 -200 45
3453702917.1529 -2.8238914 -66.60257 -200 45 -200 45 -200 45
3454703033.839 -2.8105936 -66.59948 -200 45 -200 45 -200 45
3455703150.5251 -2.7959316 -66.639687 -200 45 -200 45 -200 45
3456703267.2112 -2.7875633 -66.620773 -200 45 -200 45 -200 45
3457703383.8973 -2.7724392 -66.614136 -200 45 -200 45 -200 45
3458703500.5834 -2.7553313 -66.628479 -200 45 -200 45 -200 45
3459703617.2695 -2.7268457 -66.69593 -200 45 -200 45 -200 45
3460703733.9557 -2.7203214 -66.674011 -200 45 -200 45 -200 45
3461703850.6418 -2.7195196 -66.621483 -200 45 -200 45 -200 45
3462703967.3279 -2.7494998 -66.470955 -200 45 -200 45 -200 45
3463704084.014 -2.7694721 -66.386169 -200 45 -200 45 -200 45
3464704200.7001 -2.7728682 -66.316917 -200 45 -200 45 -200 45
3465704317.3862 -2.772383 -66.262878 -200 45 -200 45 -200 45
3466704434.0723 -2.7756345 -66.191544 -200 45 -200 45 -200 45
3467704550.7585 -2.7809818 -66.117424 -200 45 -200 45 -200 45
3468704667.4446 -2.7864406 -66.047714 -200 45 -200 45 -200 45
3469704784.1307 -2.7897098 -65.978088 -200 45 -200 45 -200 45
3470704900.8168 -2.7838094 -65.923836 -200 45 -200 45 -200 45
3471705017.5029 -2.7784493 -65.851578 -200 45 -200 45 -200 45
3472705134.189 -2.7732255 -65.79248 -200 45 -200 45 -200 45
3473705250.8751 -2.7683716 -65.74707 -200 45 -200 45 -200 45
3474705367.5613 -2.7576239 -65.710251 -200 45 -200 45 -200 45
3475705484.2474 -2.7408535 -65.74176 -200 45 -200 45 -200 45
3476705600.9335 -2.7438221 -65.683754 -200 45 -200 45 -200 45
3477705717.6196 -2.7542076 -65.615707 -200 45 -200 45 -200 45
3478705834.3057 -2.7930825 -65.447601 -200 45 -200 45 -200 45
3479705950.9918 -2.8179708 -65.345085 -200 45 -200 45 -200 45
3480706067.6779 -2.8322845 -65.292854 -200 45 -200 45 -200 45
3481706184.3641 -2.8425183 -65.263763 -200 45 -200 45 -200 45
3482706301.0502 -2.8525271 -65.218033 -200 45 -200 45 -200 45
3483706417.7363 -2.8670762 -65.202065 -200 45 -200 45 -200 45
3484706534.4224 -2.8830111 -65.156548 -200 45 -200 45 -200 45
3485706651.1085 -2.8925691 -65.141945 -200 45 -200 45 -200 45
3486706767.7946 -2.8961718 -65.145493 -200 45 -200 45 -200 45
3487706884.4807 -2.8981435 -65.146416 -200 45 -200 45 -200 45
3488707001.1669 -2.9019306 -65.154434 -200 45 -200 45 -200 45
3489707117.853 -2.9031982 -65.177002 -200 45 -200 45 -200 45
3490707234.5391 -2.8986709 -65.244469 -200 45 -200 45 -200 45
3491707351.2252 -2.8841314 -65.363548 -200 45 -200 45 -200 45
3492707467.9113 -2.8933618 -65.42263 -200 45 -200 45 -200 45
3493707584.5974 -2.9113979 -65.417549 -200 45 -200 45 -200 45
3494707701.2835 -2.9544723 -65.378769 -200 45 -200 45 -200 45
3495707817.9697 -2.9832866 -65.392632 -200 45 -200 45 -200 45
3496707934.6558 -2.9994042 -65.455406 -200 45 -200 45 -200 45
3497708051.3419 -3.0137789 -65.512596 -200 45 -200 45 -200 45
3498708168.028 -3.021739 -65.611259 -200 45 -200 45 -200 45
3499708284.7141 -3.0424912 -65.696037 -200 45 -200 45 -200 45
3500708401.4002 -3.0571556 -65.802719 -200 45 -200 45 -200 45
3501708518.0863 -3.0679138 -65.921593 -200 45 -200 45 -200 45
3502708634.7725 -3.0656517 -66.017426 -200 45 -200 45 -200 45
3503708751.4586 -3.0688496 -66.155167 -200 45 -200 45 -200 45
3504708868.1447 -3.0710902 -66.286819 -200 45 -200 45 -200 45
3505708984.8308 -3.0705142 -66.447998 -200 45 -200 45 -200 45
3506709101.5169 -3.0633712 -66.639725 -200 45 -200 45 -200 45
3507709218.203 -3.0498254 -66.844955 -200 45 -200 45 -200 45
3508709334.8891 -3.058326 -67.001419 -200 45 -200 45 -200 45
3509709451.5753 -3.0721066 -67.110107 -200 45 -200 45 -200 45
3510709568.2614 -3.1156609 -67.157196 -200 45 -200 45 -200 45
3511709684.9475 -3.1423721 -67.267548 -200 45 -200 45 -200 45
3512709801.6336 -3.1587038 -67.412048 -200 45 -200 45 -200 45
3513709918.3197 -3.1703064 -67.557343 -200 45 -200 45 -200 45
3514710035.0058 -3.1815321 -67.701103 -200 45 -200 45 -200 45
3515710151.6919 -3.2009408 -67.819244 -200 45 -200 45 -200 45
3516710268.3781 -3.2177401 -67.957588 -200 45 -200 45 -200 45
3517710385.0642 -3.2322125 -68.044212 -200 45 -200 45 -200 45
3518710501.7503 -3.2375433 -68.148285 -200 45 -200 45 -200 45
3519710618.4364 -3.2432885 -68.189301 -200 45 -200 45 -200 45
3520710735.1225 -3.2496212 -68.242783 -200 45 -200 45 -200 45
3521710851.8086 -3.2493372 -68.269501 -200 45 -200 45 -200 45
3522710968.4947 -3.2397904 -68.272377 -200 45 -200 45 -200 45
3523711085.1809 -3.222579 -68.300835 -200 45 -200 45 -200 45
3524711201.867 -3.2246015 -68.229996 -200 45 -200 45 -200 45
3525711318.5531 -3.2284448 -68.114761 -200 45 -200 45 -200 45
3526711435.2392 -3.2547312 -67.922722 -200 45 -200 45 -200 45
3527711551.9253 -3.2564383 -67.793594 -200 45 -200 45 -200 45
3528711668.6114 -3.242888 -67.696236 -200 45 -200 45 -200 45
3529711785.2975 -3.2243643 -67.610756 -200 45 -200 45 -200 45
3530711901.9837 -3.2033896 -67.555901 -200 45 -200 45 -200 45
3531712018.6698 -3.1858189 -67.484306 -200 45 -200 45 -200 45
3532712135.3559 -3.1650953 -67.447128 -200 45 -200 45 -200 45
3533712252.042 -3.1416647 -67.447533 -200 45 -200 45 -200 45
3534712368.7281 -3.1126869 -67.413216 -200 45 -200 45 -200 45
3535712485.4142 -3.080781 -67.392067 -200 45 -200 45 -200 45
3536712602.1004 -3.0526383 -67.386726 -200 45 -200 45 -200 45
3537712718.7865 -3.0168202 -67.386841 -200 45 -200 45 -200 45
3538712835.4726 -2.9831679 -67.414444 -200 45 -200 45 -200 45
3539712952.1587 -2.937145 -67.457855 -200 45 -200 45 -200 45
3540713068.8448 -2.9238527 -67.437569 -200 45 -200 45 -200 45
3541713185.5309 -2.9155638 -67.383331 -200 45 -200 45 -200 45
3542713302.217 -2.9281769 -67.267326 -200 45 -200 45 -200 45
3543713418.9032 -2.9282074 -67.205902 -200 45 -200 45 -200 45
3544713535.5893 -2.9212103 -67.17749 -200 45 -200 45 -200 45
3545713652.2754 -2.9115558 -67.138931 -200 45 -200 45 -200 45
3546713768.9615 -2.9014106 -67.096207 -200 45 -200 45 -200 45
3547713885.6476 -2.9009976 -67.044472 -200 45 -200 45 -200 45
3548714002.3337 -2.8954093 -66.990959 -200 45 -200 45 -200 45
3549714119.0198 -2.8864448 -66.940155 -200 45 -200 45 -200 45
3550714235.706 -2.8727136 -66.877434 -200 45 -200 45 -200 45
3551714352.3921 -2.8579144 -66.839401 -200 45 -200 45 -200 45
3552714469.0782 -2.8462894 -66.786636 -200 45 -200 45 -200 45
3553714585.7643 -2.8312867 -66.753731 -200 45 -200 45 -200 45
3554714702.4504 -2.8147931 -66.743904 -200 45 -200 45 -200 45
3555714819.1365 -2.7964265 -66.744705 -200 45 -200 45 -200 45
3556714935.8226 -2.796911 -66.680199 -200 45 -200 45 -200 45
3557715052.5088 -2.811769 -66.564949 -200 45 -200 45 -200 45
3558715169.1949 -2.8422368 -66.368912 -200 45 -200 45 -200 45
3559715285.881 -2.8584847 -66.265892 -200 45 -200 45 -200 45
3560715402.5671 -2.8663859 -66.160736 -200 45 -200 45 -200 45
3561715519.2532 -2.8692312 -66.053993 -200 45 -200 45 -200 45
3562715635.9393 -2.8709972 -65.981804 -200 45 -200 45 -200 45
3563715752.6254 -2.8790572 -65.89016 -200 45 -200 45 -200 45
3564715869.3116 -2.8834505 -65.834282 -200 45 -200 45 -200 45
3565715985.9977 -2.8811076 -65.784233 -200 45 -200 45 -200 45
3566716102.6838 -2.8733873 -65.773033 -200 45 -200 45 -200 45
3567716219.3699 -2.8666294 -65.728645 -200 45 -200 45 -200 45
3568716336.056 -2.8633633 -65.702347 -200 45 -200 45 -200 45
3569716452.7421 -2.8590138 -65.712265 -200 45 -200 45 -200 45
3570716569.4282 -2.8441243 -65.759796 -200 45 -200 45 -200 45
3571716686.1144 -2.8267403 -65.864563 -200 45 -200 45 -200 45
3572716802.8005 -2.8342764 -65.84082 -200 45 -200 45 -200 45
3573716919.4866 -2.8509963 -65.803421 -200 45 -200 45 -200 45
3574717036.1727 -2.8890314 -65.737396 -200 45 -200 45 -200 45
3575717152.8588 -2.9088426 -65.763763 -200 45 -200 45 -200 45
3576717269.5449 -2.9206774 -65.783669 -200 45 -200 45 -200 45
3577717386.231 -2.9267962 -65.838463 -200 45 -200 45 -200 45
3578717502.9172 -2.9359703 -65.910141 -200 45 -200 45 -200 45
3579717619.6033 -2.9526072 -65.982063 -200 45 -200 45 -200 45
3580717736.2894 -2.9629357 -66.053398 -200 45 -200 45 -200 45
3581717852.9755 -2.9689863 -66.128288 -200 45 -200 45 -200 45
3582717969.6616 -2.9688334 -66.23008 -200 45 -200 45 -200 45
3583718086.3477 -2.9657645 -66.309799 -200 45 -200 45 -200 45
3584718203.0338 -2.9661458 -66.447159 -200 45 -200 45 -200 45
3585718319.72 -2.9634597 -66.571266 -200 45 -200 45 -200 45
3586718436.4061 -2.9509149 -66.737495 -200 45 -200 45 -200 45
3587718553.0922 -2.9363372 -66.942329 -200 45 -200 45 -200 45
3588718669.7783 -2.9462197 -67.050545 -200 45 -200 45 -200 45
3589718786.4644 -2.9666936 -67.131638 -200 45 -200 45 -200 45
3590718903.1505 -3.0035696 -67.169846 -200 45 -200 45 -200 45
3591719019.8366 -3.0189312 -67.28315 -200 45 -200 45 -200 45
3592719136.5228 -3.0302866 -67.408546 -200 45 -200 45 -200 45
3593719253.2089 -3.0317085 -67.54882 -200 45 -200 45 -200 45
3594719369.895 -3.0383646 -67.699547 -200 45 -200 45 -200 45
3595719486.5811 -3.0471542 -67.827621 -200 45 -200 45 -200 45
3596719603.2672 -3.0547409 -67.975418 -200 45 -200 45 -200 45
3597719719.9533 -3.0476065 -68.113014 -200 45 -200 45 -200 45
3598719836.6394 -3.041929 -68.263634 -200 45 -200 45 -200 45
3599719953.3256 -3.0334809 -68.402039 -200 45 -200 45 -200 45
3600720070.0117 -3.0235224 -68.559998 -200 45 -200 45 -200 45
3601720186.6978 -3.0093846 -68.714447 -200 45 -200 45 -200 45
3602720303.3839 -2.9888945 -68.908028 -200 45 -200 45 -200 45
3603720420.07 -2.9649169 -69.114975 -200 45 -200 45 -200 45
3604720536.7561 -2.9655852 -69.224739 -200 45 -200 45 -200 45
3605720653.4422 -2.9807746 -69.295456 -200 45 -200 45 -200 45
3606720770.1284 -3.0036404 -69.323486 -200 45 -200 45 -200 45
3607720886.8145 -3.0091493 -69.418259 -200 45 -200 45 -200 45
3608721003.5006 -3.0101633 -69.519173 -200 45 -200 45 -200 45
3609721120.1867 -3.0039067 -69.596634 -200 45 -200 45 -200 45
3610721236.8728 -2.9985516 -69.706436 -200 45 -200 45 -200 45
3611721353.5589 -3.0028021 -69.790771 -200 45 -200 45 -200 45
3612721470.245 -2.9967239 -69.864479 -200 45 -200 45 -200 45
3613721586.9312 -2.9869876 -69.930428 -200 45 -200 45 -200 45
3614721703.6173 -2.9703839 -69.996628 -200 45 -200 45 -200 45
3615721820.3034 -2.9563587 -70.046852 -200 45 -200 45 -200 45
3616721936.9895 -2.9431262 -70.120621 -200 45 -200 45 -200 45
3617722053.6756 -2.9215615 -70.178688 -200 45 -200 45 -200 45
3618722170.3617 -2.894453 -70.257187 -200 45 -200 45 -200 45
3619722287.0478 -2.8720322 -70.357544 -200 45 -200 45 -200 45
3620722403.734 -2.8699548 -70.352928 -200 45 -200 45 -200 45
3621722520.4201 -2.8795509 -70.293671 -200 45 -200 45 -200 45
3622722637.1062 -2.8998415 -70.226875 -200 45 -200 45 -200 45
3623722753.7923 -2.9037266 -70.176826 -200 45 -200 45 -200 45
3624722870.4784 -2.9023135 -70.159164 -200 45 -200 45 -200 45
3625722987.1645 -2.8978872 -70.126266 -200 45 -200 45 -200 45
3626723103.8506 -2.893259 -70.099579 -200 45 -200 45 -200 45
3627723220.5368 -2.8938115 -70.061012 -200 45 -200 45 -200 45
3628723337.2229 -2.8959279 -69.996529 -200 45 -200 45 -200 45
3629723453.909 -2.8871937 -69.970695 -200 45 -200 45 -200 45
3630723570.5951 -2.8749216 -69.911369 -200 45 -200 45 -200 45
3631723687.2812 -2.8632262 -69.852341 -200 45 -200 45 -200 45
3632723803.9673 -2.8543658 -69.805435 -200 45 -200 45 -200 45
3633723920.6534 -2.8406773 -69.767548 -200 45 -200 45 -200 45
3634724037.3396 -2.8184319 -69.760643 -200 45 -200 45 -200 45
3635724154.0257 -2.8001711 -69.749886 -200 45 -200 45 -200 45
3636724270.7118 -2.8059561 -69.657112 -200 45 -200 45 -200 45
3637724387.3979 -2.8245387 -69.509583 -200 45 -200 45 -200 45
3638724504.084 -2.8519924 -69.356529 -200 45 -200 45 -200 45
3639724620.7701 -2.8627572 -69.24604 -200 45 -200 45 -200 45
3640724737.4562 -2.8712928 -69.170959 -200 45 -200 45 -200 45
3641724854.1424 -2.87203 -69.089546 -200 45 -200 45 -200 45
3642724970.8285 -2.8770018 -69.003799 -200 45 -200 45 -200 45
3643725087.5146 -2.8873854 -68.931694 -200 45 -200 45 -200 45
3644725204.2007 -2.8983753 -68.867767 -200 45 -200 45 -200 45
3645725320.8868 -2.8994465 -68.776627 -200 45 -200 45 -200 45
3646725437.5729 -2.8940618 -68.705788 -200 45 -200 45 -200 45
3647725554.259 -2.8940096 -68.672905 -200 45 -200 45 -200 45
3648725670.9452 -2.8902767 -68.610031 -200 45 -200 45 -200 45
3649725787.6313 -2.8852832 -68.588303 -200 45 -200 45 -200 45
3650725904.3174 -2.8727057 -68.594666 -200 45 -200 45 -200 45
3651726021.0035 -2.8658431 -68.627632 -200 45 -200 45 -200 45
3652726137.6896 -2.8776305 -68.570198 -200 45 -200 45 -200 45
3653726254.3757 -2.9089432 -68.4645 -200 45 -200 45 -200 45
3654726371.0618 -2.9428515 -68.389908 -200 45 -200 45 -200 45
3655726487.748 -2.9608452 -68.330284 -200 45 -200 45 -200 45
3656726604.4341 -2.9747851 -68.320808 -200 45 -200 45 -200 45
3657726721.1202 -2.9824791 -68.312874 -200 45 -200 45 -200 45
3658726837.8063 -2.996038 -68.319687 -200 45 -200 45 -200 45
3659726954.4924 -3.0113862 -68.317848 -200 45 -200 45 -200 45
3660727071.1785 -3.0246499 -68.347725 -200 45 -200 45 -200 45
3661727187.8646 -3.0275326 -68.383102 -200 45 -200 45 -200 45
3662727304.5508 -3.0311468 -68.419823 -200 45 -200 45 -200 45
3663727421.2369 -3.0316985 -68.465103 -200 45 -200 45 -200 45
3664727537.923 -3.0324287 -68.538162 -200 45 -200 45 -200 45
3665727654.6091 -3.0299091 -68.633705 -200 45 -200 45 -200 45
3666727771.2952 -3.0176713 -68.776909 -200 45 -200 45 -200 45
3667727887.9813 -3.0131383 -68.902863 -200 45 -200 45 -200 45
3668728004.6674 -3.0246477 -68.955078 -200 45 -200 45 -200 45
3669728121.3536 -3.0581038 -68.960831 -200 45 -200 45 -200 45
3670728238.0397 -3.0876353 -68.985619 -200 45 -200 45 -200 45
3671728354.7258 -3.1055465 -69.076614 -200 45 -200 45 -200 45
3672728471.4119 -3.117856 -69.181992 -200 45 -200 45 -200 45
3673728588.098 -3.1232302 -69.289352 -200 45 -200 45 -200 45
3674728704.7841 -3.1325412 -69.396194 -200 45 -200 45 -200 45
3675728821.4702 -3.1440368 -69.519409 -200 45 -200 45 -200 45
3676728938.1564 -3.1534059 -69.621468 -200 45 -200 45 -200 45
3677729054.8425 -3.1491539 -69.774635 -200 45 -200 45 -200 45
3678729171.5286 -3.1407309 -69.900803 -200 45 -200 45 -200 45
3679729288.2147 -3.1365802 -70.046051 -200 45 -200 45 -200 45
3680729404.9008 -3.1304901 -70.185982 -200 45 -200 45 -200 45
3681729521.5869 -3.1185305 -70.358536 -200 45 -200 45 -200 45
3682729638.273 -3.0972207 -70.559464 -200 45 -200 45 -200 45
3683729754.9592 -3.0863585 -70.759079 -200 45 -200 45 -200 45
3684729871.6453 -3.0863376 -70.862152 -200 45 -200 45 -200 45
3685729988.3314 -3.1143305 -70.890625 -200 45 -200 45 -200 45
3686730105.0175 -3.1334534 -70.978188 -200 45 -200 45 -200 45
3687730221.7036 -3.1405711 -71.0765 -200 45 -200 45 -200 45
3688730338.3897 -3.1408744 -71.200539 -200 45 -200 45 -200 45
3689730455.0758 -3.1356893 -71.304794 -200 45 -200 45 -200 45
3690730571.762 -3.1379313 -71.429665 -200 45 -200 45 -200 45
3691730688.4481 -3.139879 -71.520233 -200 45 -200 45 -200 45
3692730805.1342 -3.1363742 -71.615746 -200 45 -200 45 -200 45
3693730921.8203 -3.1237607 -71.727798 -200 45 -200 45 -200 45
3694731038.5064 -3.1114588 -71.81321 -200 45 -200 45 -200 45
3695731155.1925 -3.0954652 -71.892326 -200 45 -200 45 -200 45
3696731271.8786 -3.0803654 -71.99015 -200 45 -200 45 -200 45
3697731388.5648 -3.0617092 -72.084427 -200 45 -200 45 -200 45
3698731505.2509 -3.03392 -72.223053 -200 45 -200 45 -200 45
3699731621.937 -3.0171671 -72.3032 -200 45 -200 45 -200 45
3700731738.6231 -3.0134902 -72.355873 -200 45 -200 45 -200 45
3701731855.3092 -3.0343969 -72.262306 -200 45 -200 45 -200 45
3702731971.9953 -3.0510921 -72.251884 -200 45 -200 45 -200 45
3703732088.6814 -3.0539505 -72.266624 -200 45 -200 45 -200 45
3704732205.3676 -3.0512645 -72.271591 -200 45 -200 45 -200 45
3705732322.0537 -3.0459642 -72.282379 -200 45 -200 45 -200 45
3706732438.7398 -3.0410969 -72.261955 -200 45 -200 45 -200 45
3707732555.4259 -3.0400763 -72.241676 -200 45 -200 45 -200 45
3708732672.112 -3.0402637 -72.226219 -200 45 -200 45 -200 45
3709732788.7981 -3.0277994 -72.18602 -200 45 -200 45 -200 45
3710732905.4842 -3.0175726 -72.167694 -200 45 -200 45 -200 45
3711733022.1704 -3.0034142 -72.143036 -200 45 -200 45 -200 45
3712733138.8565 -2.9895797 -72.113518 -200 45 -200 45 -200 45
3713733255.5426 -2.9735723 -72.083382 -200 45 -200 45 -200 45
3714733372.2287 -2.9497163 -72.109055 -200 45 -200 45 -200 45
3715733488.9148 -2.9380565 -72.074478 -200 45 -200 45 -200 45
3716733605.6009 -2.9388115 -71.988129 -200 45 -200 45 -200 45
3717733722.287 -2.9668951 -71.829903 -200 45 -200 45 -200 45
3718733838.9732 -2.9863024 -71.71698 -200 45 -200 45 -200 45
3719733955.6593 -2.9932683 -71.622307 -200 45 -200 45 -200 45
3720734072.3454 -2.9964385 -71.544495 -200 45 -200 45 -200 45
3721734189.0315 -2.9983881 -71.475754 -200 45 -200 45 -200 45
3722734305.7176 -3.0027742 -71.390648 -200 45 -200 45 -200 45
3723734422.4037 -3.0124424 -71.301239 -200 45 -200 45 -200 45
3724734539.0898 -3.0198359 -71.222221 -200 45 -200 45 -200 45
3725734655.776 -3.0150068 -71.138527 -200 45 -200 45 -200 45
3726734772.4621 -3.0102172 -71.065384 -200 45 -200 45 -200 45
3727734889.1482 -3.0100899 -70.99099 -200 45 -200 45 -200 45
3728735005.8343 -3.0042541 -70.943687 -200 45 -200 45 -200 45
3729735122.5204 -2.9959099 -70.908195 -200 45 -200 45 -200 45
3730735239.2065 -2.9821565 -70.920837 -200 45 -200 45 -200 45
3731735355.8926 -2.9848533 -70.897011 -200 45 -200 45 -200 45
3732735472.5788 -2.9924984 -70.818283 -200 45 -200 45 -200 45
3733735589.2649 -3.0315568 -70.668167 -200 45 -200 45 -200 45
3734735705.951 -3.0588932 -70.556381 -200 45 -200 45 -200 45
3735735822.6371 -3.0754681 -70.527878 -200 45 -200 45 -200 45
3736735939.3232 -3.0854247 -70.477417 -200 45 -200 45 -200 45
3737736056.0093 -3.0957491 -70.463104 -200 45 -200 45 -200 45
3738736172.6954 -3.1116109 -70.437843 -200 45 -200 45 -200 45
3739736289.3816 -3.1282659 -70.439682 -200 45 -200 45 -200 45
3740736406.0677 -3.1413436 -70.437065 -200 45 -200 45 -200 45
3741736522.7538 -3.1442478 -70.432892 -200 45 -200 45 -200 45
3742736639.4399 -3.1488395 -70.443871 -200 45 -200 45 -200 45
3743736756.126 -3.1547031 -70.467941 -200 45 -200 45 -200 45
3744736872.8121 -3.1554697 -70.532883 -200 45 -200 45 -200 45
3745736989.4983 -3.1528955 -70.608246 -200 45 -200 45 -200 45
3746737106.1844 -3.1424987 -70.735718 -200 45 -200 45 -200 45
3747737222.8705 -3.1506765 -70.829811 -200 45 -200 45 -200 45
3748737339.5566 -3.1656389 -70.874405 -200 45 -200 45 -200 45
3749737456.2427 -3.2093117 -70.828102 -200 45 -200 45 -200 45
3750737572.9288 -3.2399395 -70.888977 -200 45 -200 45 -200 45
3751737689.6149 -3.2594872 -70.940163 -200 45 -200 45 -200 45
3752737806.3011 -3.2698739 -71.03019 -200 45 -200 45 -200 45
3753737922.9872 -3.2831635 -71.147171 -200 45 -200 45 -200 45
3754738039.6733 -3.3025639 -71.257835 -200 45 -200 45 -200 45
3755738156.3594 -3.3213382 -71.380043 -200 45 -200 45 -200 45
3756738273.0455 -3.3334568 -71.520561 -200 45 -200 45 -200 45
3757738389.7316 -3.3373282 -71.637794 -200 45 -200 45 -200 45
3758738506.4177 -3.3396215 -71.786697 -200 45 -200 45 -200 45
3759738623.1039 -3.3432026 -71.909386 -200 45 -200 45 -200 45
3760738739.79 -3.3445616 -72.089394 -200 45 -200 45 -200 45
3761738856.4761 -3.3403013 -72.297592 -200 45 -200 45 -200 45
3762738973.1622 -3.3286529 -72.514465 -200 45 -200 45 -200 45
3763739089.8483 -3.3386295 -72.685341 -200 45 -200 45 -200 45
3764739206.5344 -3.3526068 -72.8237 -200 45 -200 45 -200 45
3765739323.2205 -3.3953836 -72.866852 -200 45 -200 45 -200 45
3766739439.9067 -3.4254496 -72.984299 -200 45 -200 45 -200 45
3767739556.5928 -3.4423487 -73.107697 -200 45 -200 45 -200 45
3768739673.2789 -3.4598517 -73.235199 -200 45 -200 45 -200 45
3769739789.965 -3.4749749 -73.365822 -200 45 -200 45 -200 45
3770739906.6511 -3.4951341 -73.465843 -200 45 -200 45 -200 45
3771740023.3372 -3.5125542 -73.548668 -200 45 -200 45 -200 45
3772740140.0233 -3.5262244 -73.598824 -200 45 -200 45 -200 45
3773740256.7095 -3.5338984 -73.63562 -200 45 -200 45 -200 45
3774740373.3956 -3.5298588 -73.666893 -200 45 -200 45 -200 45
3775740490.0817 -3.527149 -73.676704 -200 45 -200 45 -200 45
3776740606.7678 -3.5211418 -73.672592 -200 45 -200 45 -200 45
3777740723.4539 -3.5056295 -73.691299 -200 45 -200 45 -200 45
3778740840.14 -3.4795325 -73.751259 -200 45 -200 45 -200 45
3779740956.8261 -3.468971 -73.719963 -200 45 -200 45 -200 45
3780741073.5123 -3.4662435 -73.694412 -200 45 -200 45 -200 45
3781741190.1984 -3.4865379 -73.570854 -200 45 -200 45 -200 45
3782741306.8845 -3.4917777 -73.538193 -200 45 -200 45 -200 45
3783741423.5706 -3.487453 -73.521576 -200 45 -200 45 -200 45
3784741540.2567 -3.4801505 -73.520638 -200 45 -200 45 -200 45
3785741656.9428 -3.4716341 -73.499176 -200 45 -200 45 -200 45
3786741773.6289 -3.4689486 -73.476326 -200 45 -200 45 -200 45
3787741890.3151 -3.4626038 -73.474762 -200 45 -200 45 -200 45
3788742007.0012 -3.4556203 -73.413704 -200 45 -200 45 -200 45
3789742123.6873 -3.434376 -73.373703 -200 45 -200 45 -200 45
3790742240.3734 -3.4157093 -73.338928 -200 45 -200 45 -200 45
3791742357.0595 -3.3980703 -73.302101 -200 45 -200 45 -200 45
3792742473.7456 -3.3800027 -73.287849 -200 45 -200 45 -200 45
3793742590.4317 -3.3523183 -73.307846 -200 45 -200 45 -200 45
3794742707.1179 -3.3270249 -73.321175 -200 45 -200 45 -200 45
3795742823.804 -3.317467 -73.266533 -200 45 -200 45 -200 45
3796742940.4901 -3.3206999 -73.191727 -200 45 -200 45 -200 45
3797743057.1762 -3.3466127 -73.02787 -200 45 -200 45 -200 45
3798743173.8623 -3.3579504 -72.934929 -200 45 -200 45 -200 45
3799743290.5484 -3.3622136 -72.847435 -200 45 -200 45 -200 45
3800743407.2345 -3.3617027 -72.763191 -200 45 -200 45 -200 45
3801743523.9207 -3.3652089 -72.700706 -200 45 -200 45 -200 45
3802743640.6068 -3.3632827 -72.624832 -200 45 -200 45 -200 45
3803743757.2929 -3.3721116 -72.549454 -200 45 -200 45 -200 45
3804743873.979 -3.3766856 -72.464767 -200 45 -200 45 -200 45
3805743990.6651 -3.3729115 -72.390312 -200 45 -200 45 -200 45
3806744107.3512 -3.3676405 -72.332443 -200 45 -200 45 -200 45
3807744224.0373 -3.3733244 -72.276016 -200 45 -200 45 -200 45
3808744340.7235 -3.3743832 -72.2117 -200 45 -200 45 -200 45
3809744457.4096 -3.3734729 -72.1754 -200 45 -200 45 -200 45
3810744574.0957 -3.3667474 -72.1763 -200 45 -200 45 -200 45
3811744690.7818 -3.3840723 -72.061401 -200 45 -200 45 -200 45
3812744807.4679 -3.4097652 -71.943802 -200 45 -200 45 -200 45
3813744924.154 -3.4598875 -71.73951 -200 45 -200 45 -200 45
3814745040.8401 -3.4979277 -71.608772 -200 45 -200 45 -200 45
3815745157.5263 -3.5296397 -71.49955 -200 45 -200 45 -200 45
3816745274.2124 -3.5538373 -71.381943 -200 45 -200 45 -200 45
3817745390.8985 -3.5833316 -71.248924 -200 45 -200 45 -200 45
3818745507.5846 -3.6188381 -71.082222 -200 45 -200 45 -200 45
3819745624.2707 -3.6508892 -70.910843 -200 45 -200 45 -200 45
3820745740.9568 -3.676605 -70.720245 -200 45 -200 45 -200 45
3821745857.6429 -3.692575 -70.502213 -200 45 -200 45 -200 45
3822745974.3291 -3.7037625 -70.332954 -200 45 -200 45 -200 45
3823746091.0152 -3.7167513 -70.172508 -200 45 -200 45 -200 45
3824746207.7013 -3.7241163 -70.016846 -200 45 -200 45 -200 45
3825746324.3874 -3.7260032 -69.886482 -200 45 -200 45 -200 45
3826746441.0735 -3.7228377 -69.822708 -200 45 -200 45 -200 45
3827746557.7596 -3.7440085 -69.648071 -200 45 -200 45 -200 45
3828746674.4457 -3.7703753 -69.464798 -200 45 -200 45 -200 45
3829746791.1319 -3.8172421 -69.208237 -200 45 -200 45 -200 45
3830746907.818 -3.8484674 -69.018059 -200 45 -200 45 -200 45
3831747024.5041 -3.868516 -68.857689 -200 45 -200 45 -200 45
3832747141.1902 -3.8835602 -68.700806 -200 45 -200 45 -200 45
3833747257.8763 -3.8963196 -68.551498 -200 45 -200 45 -200 45
3834747374.5624 -3.9156497 -68.349014 -200 45 -200 45 -200 45
3835747491.2485 -3.9277778 -68.178459 -200 45 -200 45 -200 45
3836747607.9347 -3.9309683 -67.96582 -200 45 -200 45 -200 45
3837747724.6208 -3.9198208 -67.756752 -200 45 -200 45 -200 45
3838747841.3069 -3.9008439 -67.548813 -200 45 -200 45 -200 45
3839747957.993 -3.8737619 -67.37693 -200 45 -200 45 -200 45
3840748074.6791 -3.8356168 -67.246498 -200 45 -200 45 -200 45
3841748191.3652 -3.7835922 -67.202782 -200 45 -200 45 -200 45
3842748308.0513 -3.7270739 -67.251625 -200 45 -200 45 -200 45
3843748424.7375 -3.6909652 -67.260803 -200 45 -200 45 -200 45
3844748541.4236 -3.6668255 -67.298439 -200 45 -200 45 -200 45
3845748658.1097 -3.6671324 -67.3088 -200 45 -200 45 -200 45
3846748774.7958 -3.6533875 -67.435234 -200 45 -200 45 -200 45
3847748891.4819 -3.6298914 -67.526878 -200 45 -200 45 -200 45
3848749008.168 -3.6045532 -67.653542 -200 45 -200 45 -200 45
3849749124.8541 -3.5791473 -67.811111 -200 45 -200 45 -200 45
3850749241.5403 -3.5591402 -67.962982 -200 45 -200 45 -200 45
3851749358.2264 -3.536855 -68.128105 -200 45 -200 45 -200 45
3852749474.9125 -3.5070069 -68.31749 -200 45 -200 45 -200 45
3853749591.5986 -3.4734468 -68.541382 -200 45 -200 45 -200 45
3854749708.2847 -3.4421365 -68.757973 -200 45 -200 45 -200 45
3855749824.9708 -3.4161804 -68.983627 -200 45 -200 45 -200 45
3856749941.6569 -3.3872905 -69.221642 -200 45 -200 45 -200 45
3857750058.3431 -3.3567762 -69.481087 -200 45 -200 45 -200 45
3858750175.0292 -3.3241773 -69.738037 -200 45 -200 45 -200 45
3859750291.7153 -3.3161023 -69.870346 -200 45 -200 45 -200 45
3860750408.4014 -3.3182609 -70.003235 -200 45 -200 45 -200 45
3861750525.0875 -3.3348517 -70.067322 -200 45 -200 45 -200 45
3862750641.7736 -3.3412776 -70.181793 -200 45 -200 45 -200 45
3863750758.4597 -3.3362331 -70.289146 -200 45 -200 45 -200 45
3864750875.1459 -3.3283782 -70.375061 -200 45 -200 45 -200 45
3865750991.832 -3.321173 -70.409401 -200 45 -200 45 -200 45
3866751108.5181 -3.3169515 -70.430916 -200 45 -200 45 -200 45
3867751225.2042 -3.3071938 -70.465561 -200 45 -200 45 -200 45
3868751341.8903 -3.2871797 -70.467606 -200 45 -200 45 -200 45
3869751458.5764 -3.261281 -70.467957 -200 45 -200 45 -200 45
3870751575.2625 -3.2309434 -70.479256 -200 45 -200 45 -200 45
3871751691.9487 -3.2065811 -70.465553 -200 45 -200 45 -200 45
3872751808.6348 -3.1725497 -70.46994 -200 45 -200 45 -200 45
3873751925.3209 -3.1339655 -70.491119 -200 45 -200 45 -200 45
3874752042.007 -3.0893614 -70.530006 -200 45 -200 45 -200 45
3875752158.6931 -3.0677545 -70.446106 -200 45 -200 45 -200 45
3876752275.3792 -3.0534325 -70.383949 -200 45 -200 45 -200 45
3877752392.0653 -3.0482447 -70.279854 -200 45 -200 45 -200 45
3878752508.7515 -3.0329716 -70.25264 -200 45 -200 45 -200 45
3879752625.4376 -3.0110865 -70.255379 -200 45 -200 45 -200 45
3880752742.1237 -2.9850173 -70.269295 -200 45 -200 45 -200 45
3881752858.8098 -2.9650221 -70.288834 -200 45 -200 45 -200 45
3882752975.4959 -2.9459374 -70.324265 -200 45 -200 45 -200 45
3883753092.182 -2.9336803 -70.352608 -200 45 -200 45 -200 45
3884753208.8681 -2.9116549 -70.356972 -200 45 -200 45 -200 45
3885753325.5543 -2.8914971 -70.40274 -200 45 -200 45 -200 45
3886753442.2404 -2.8730521 -70.418236 -200 45 -200 45 -200 45
3887753558.9265 -2.8555887 -70.429214 -200 45 -200 45 -200 45
3888753675.6126 -2.8381162 -70.469368 -200 45 -200 45 -200 45
3889753792.2987 -2.8133581 -70.509476 -200 45 -200 45 -200 45
3890753908.9848 -2.7884789 -70.555748 -200 45 -200 45 -200 45
3891754025.6709 -2.7917953 -70.528137 -200 45 -200 45 -200 45
3892754142.3571 -2.804498 -70.447586 -200 45 -200 45 -200 45
3893754259.0432 -2.8288281 -70.345039 -200 45 -200 45 -200 45
3894754375.7293 -2.8413384 -70.27771 -200 45 -200 45 -200 45
3895754492.4154 -2.8456988 -70.233658 -200 45 -200 45 -200 45
3896754609.1015 -2.850091 -70.207626 -200 45 -200 45 -200 45
3897754725.7876 -2.8536251 -70.16906 -200 45 -200 45 -200 45
3898754842.4737 -2.8623235 -70.13002 -200 45 -200 45 -200 45
3899754959.1599 -2.8694997 -70.105492 -200 45 -200 45 -200 45
3900755075.846 -2.870013 -70.055717 -200 45 -200 45 -200 45
3901755192.5321 -2.8655159 -70.039421 -200 45 -200 45 -200 45
3902755309.2182 -2.8617096 -70.028458 -200 45 -200 45 -200 45
3903755425.9043 -2.8595753 -70.022011 -200 45 -200 45 -200 45
3904755542.5904 -2.8541484 -70.037186 -200 45 -200 45 -200 45
3905755659.2765 -2.8438568 -70.094666 -200 45 -200 45 -200 45
3906755775.9627 -2.8355892 -70.1511 -200 45 -200 45 -200 45
3907755892.6488 -2.8478138 -70.149773 -200 45 -200 45 -200 45
3908756009.3349 -2.8758702 -70.104256 -200 45 -200 45 -200 45
3909756126.021 -2.9086988 -70.040565 -200 45 -200 45 -200 45
3910756242.7071 -2.9316444 -70.042709 -200 45 -200 45 -200 45
3911756359.3932 -2.9443197 -70.062965 -200 45 -200 45 -200 45
3912756476.0793 -2.9558969 -70.102745 -200 45 -200 45 -200 45
3913756592.7655 -2.9706247 -70.131516 -200 45 -200 45 -200 45
3914756709.4516 -2.9864166 -70.163574 -200 45 -200 45 -200 45
3915756826.1377 -3.0001783 -70.218079 -200 45 -200 45 -200 45
3916756942.8238 -3.0080376 -70.276489 -200 45 -200 45 -200 45
3917757059.5099 -3.0093889 -70.352531 -200 45 -200 45 -200 45
3918757176.196 -3.0098624 -70.43203 -200 45 -200 45 -200 45
3919757292.8821 -3.0091617 -70.524773 -200 45 -200 45 -200 45
3920757409.5683 -3.0080354 -70.641159 -200 45 -200 45 -200 45
3921757526.2544 -2.9961958 -70.824547 -200 45 -200 45 -200 45
3922757642.9405 -2.9895709 -70.992851 -200 45 -200 45 -200 45
3923757759.6266 -3.0016279 -71.0905 -200 45 -200 45 -200 45
3924757876.3127 -3.0270832 -71.132645 -200 45 -200 45 -200 45
3925757992.9988 -3.0617485 -71.182121 -200 45 -200 45 -200 45
3926758109.6849 -3.0804539 -71.29377 -200 45 -200 45 -200 45
3927758226.3711 -3.0891836 -71.427711 -200 45 -200 45 -200 45
3928758343.0572 -3.0956669 -71.580971 -200 45 -200 45 -200 45
3929758459.7433 -3.1033556 -71.717072 -200 45 -200 45 -200 45
3930758576.4294 -3.1133218 -71.866119 -200 45 -200 45 -200 45
3931758693.1155 -3.1222124 -72.025162 -200 45 -200 45 -200 45
3932758809.8016 -3.1187866 -72.182167 -200 45 -200 45 -200 45
3933758926.4877 -3.1104865 -72.350037 -200 45 -200 45 -200 45
3934759043.1739 -3.1073928 -72.497261 -200 45 -200 45 -200 45
3935759159.86 -3.0996587 -72.677498 -200 45 -200 45 -200 45
3936759276.5461 -3.0881665 -72.854164 -200 45 -200 45 -200 45
3937759393.2322 -3.0682914 -73.074059 -200 45 -200 45 -200 45
3938759509.9183 -3.0506604 -73.299576 -200 45 -200 45 -200 45
3939759626.6044 -3.0533869 -73.408554 -200 45 -200 45 -200 45
3940759743.2905 -3.0742564 -73.474968 -200 45 -200 45 -200 45
3941759859.9767 -3.0936861 -73.575371 -200 45 -200 45 -200 45
3942759976.6628 -3.1026928 -73.673866 -200 45 -200 45 -200 45
3943760093.3489 -3.1018889 -73.808998 -200 45 -200 45 -200 45
3944760210.035 -3.09745 -73.950722 -200 45 -200 45 -200 45
3945760326.7211 -3.0960703 -74.05854 -200 45 -200 45 -200 45
3946760443.4072 -3.0967722 -74.171669 -200 45 -200 45 -200 45
3947760560.0933 -3.0960221 -74.283577 -200 45 -200 45 -200 45
3948760676.7795 -3.084682 -74.384186 -200 45 -200 45 -200 45
3949760793.4656 -3.0710559 -74.476471 -200 45 -200 45 -200 45
3950760910.1517 -3.056067 -74.557518 -200 45 -200 45 -200 45
3951761026.8378 -3.0421305 -74.638306 -200 45 -200 45 -200 45
3952761143.5239 -3.019762 -74.74633 -200 45 -200 45 -200 45
3953761260.21 -2.9943066 -74.865669 -200 45 -200 45 -200 45
3954761376.8961 -2.9770446 -74.967644 -200 45 -200 45 -200 45
3955761493.5823 -2.9724801 -74.981514 -200 45 -200 45 -200 45
3956761610.2684 -2.9899681 -74.92086 -200 45 -200 45 -200 45
3957761726.9545 -3.0049882 -74.901642 -200 45 -200 45 -200 45
3958761843.6406 -3.0072718 -74.879532 -200 45 -200 45 -200 45
3959761960.3267 -3.003212 -74.89003 -200 45 -200 45 -200 45
3960762077.0128 -2.9967687 -74.853577 -200 45 -200 45 -200 45
3961762193.6989 -2.9951413 -74.851112 -200 45 -200 45 -200 45
3962762310.3851 -2.9944794 -74.834351 -200 45 -200 45 -200 45
3963762427.0712 -2.992547 -74.803299 -200 45 -200 45 -200 45
3964762543.7573 -2.9822609 -74.756844 -200 45 -200 45 -200 45
3965762660.4434 -2.9659305 -74.708015 -200 45 -200 45 -200 45
3966762777.1295 -2.9572787 -74.679131 -200 45 -200 45 -200 45
3967762893.8156 -2.943007 -74.6119 -200 45 -200 45 -200 45
3968763010.5018 -2.9256039 -74.587654 -200 45 -200 45 -200 45
3969763127.1879 -2.9017015 -74.571274 -200 45 -200 45 -200 45
3970763243.874 -2.8916905 -74.563866 -200 45 -200 45 -200 45
3971763360.5601 -2.8925133 -74.469345 -200 45 -200 45 -200 45
3972763477.2462 -2.9148986 -74.294174 -200 45 -200 45 -200 45
3973763593.9323 -2.9318545 -74.143913 -200 45 -200 45 -200 45
3974763710.6184 -2.9402847 -74.042892 -200 45 -200 45 -200 45
3975763827.3046 -2.9438069 -73.949875 -200 45 -200 45 -200 45
3976763943.9907 -2.9466231 -73.855591 -200 45 -200 45 -200 45
3977764060.6768 -2.9488783 -73.781281 -200 45 -200 45 -200 45
3978764177.3629 -2.962822 -73.680145 -200 45 -200 45 -200 45
3979764294.049 -2.9660048 -73.589218 -200 45 -200 45 -200 45
3980764410.7351 -2.9622231 -73.499527 -200 45 -200 45 -200 45
3981764527.4212 -2.9575169 -73.41713 -200 45 -200 45 -200 45
3982764644.1074 -2.9572146 -73.316261 -200 45 -200 45 -200 45
3983764760.7935 -2.9500916 -73.276749 -200 45 -200 45 -200 45
3984764877.4796 -2.945585 -73.219872 -200 45 -200 45 -200 45
3985764994.1657 -2.9273479 -73.222755 -200 45 -200 45 -200 45
3986765110.8518 -2.9272645 -73.166359 -200 45 -200 45 -200 45
3987765227.5379 -2.9352777 -73.090889 -200 45 -200 45 -200 45
3988765344.224 -2.9678609 -72.926918 -200 45 -200 45 -200 45
3989765460.9102 -2.9940557 -72.812561 -200 45 -200 45 -200 45
3990765577.5963 -3.0092723 -72.762688 -200 45 -200 45 -200 45
3991765694.2824 -3.0191727 -72.725327 -200 45 -200 45 -200 45
3992765810.9685 -3.0260549 -72.687744 -200 45 -200 45 -200 45
3993765927.6546 -3.0421174 -72.676971 -200 45 -200 45 -200 45
3994766044.3407 -3.055315 -72.669174 -200 45 -200 45 -200 45
3995766161.0268 -3.0669708 -72.644661 -200 45 -200 45 -200 45
3996766277.713 -3.071656 -72.648605 -200 45 -200 45 -200 45
3997766394.3991 -3.0703845 -72.66925 -200 45 -200 45 -200 45
3998766511.0852 -3.0739849 -72.702904 -200 45 -200 45 -200 45
3999766627.7713 -3.0727952 -72.74308 -200 45 -200 45 -200 45
4000766744.4574 -3.0681221 -72.821503 -200 45 -200 45 -200 45
4001766861.1435 -3.0560172 -72.942131 -200 45 -200 45 -200 45
4002766977.8296 -3.059978 -73.035019 -200 45 -200 45 -200 45
4003767094.5158 -3.0737073 -73.073311 -200 45 -200 45 -200 45
4004767211.2019 -3.1063502 -73.03347 -200 45 -200 45 -200 45
4005767327.888 -3.1364841 -73.068848 -200 45 -200 45 -200 45
4006767444.5741 -3.1536014 -73.138107 -200 45 -200 45 -200 45
4007767561.2602 -3.1630888 -73.217201 -200 45 -200 45 -200 45
4008767677.9463 -3.1686623 -73.304649 -200 45 -200 45 -200 45
4009767794.6324 -3.180449 -73.415291 -200 45 -200 45 -200 45
4010767911.3186 -3.1930475 -73.530525 -200 45 -200 45 -200 45
4011768028.0047 -3.1986282 -73.667336 -200 45 -200 45 -200 45
4012768144.6908 -3.1968017 -73.792152 -200 45 -200 45 -200 45
4013768261.3769 -3.1924133 -73.927856 -200 45 -200 45 -200 45
4014768378.063 -3.188343 -74.065422 -200 45 -200 45 -200 45
4015768494.7491 -3.1824391 -74.205688 -200 45 -200 45 -200 45
4016768611.4352 -3.1692662 -74.39286 -200 45 -200 45 -200 45
4017768728.1214 -3.1469915 -74.620743 -200 45 -200 45 -200 45
4018768844.8075 -3.146291 -74.791969 -200 45 -200 45 -200 45
4019768961.4936 -3.1492791 -74.921745 -200 45 -200 45 -200 45
4020769078.1797 -3.1797125 -74.960396 -200 45 -200 45 -200 45
4021769194.8658 -3.1995914 -75.056648 -200 45 -200 45 -200 45
4022769311.5519 -3.2038848 -75.171844 -200 45 -200 45 -200 45
4023769428.238 -3.2045591 -75.315536 -200 45 -200 45 -200 45
4024769544.9242 -3.1998072 -75.452095 -200 45 -200 45 -200 45
4025769661.6103 -3.2034061 -75.582741 -200 45 -200 45 -200 45
4026769778.2964 -3.2038779 -75.705383 -200 45 -200 45 -200 45
4027769894.9825 -3.202311 -75.83239 -200 45 -200 45 -200 45
4028770011.6686 -3.191551 -75.942841 -200 45 -200 45 -200 45
4029770128.3547 -3.1757622 -76.048355 -200 45 -200 45 -200 45
4030770245.0408 -3.1638181 -76.163422 -200 45 -200 45 -200 45
4031770361.727 -3.1478329 -76.295563 -200 45 -200 45 -200 45
4032770478.4131 -3.1250572 -76.403381 -200 45 -200 45 -200 45
4033770595.0992 -3.0955732 -76.593651 -200 45 -200 45 -200 45
4034770711.7853 -3.0846019 -76.65744 -200 45 -200 45 -200 45
4035770828.4714 -3.083622 -76.712967 -200 45 -200 45 -200 45
4036770945.1575 -3.1048698 -76.674911 -200 45 -200 45 -200 45
4037771061.8436 -3.1133859 -76.676125 -200 45 -200 45 -200 45
4038771178.5298 -3.1143093 -76.714729 -200 45 -200 45 -200 45
4039771295.2159 -3.1067374 -76.750488 -200 45 -200 45 -200 45
4040771411.902 -3.0981698 -76.744995 -200 45 -200 45 -200 45
4041771528.5881 -3.0951803 -76.771652 -200 45 -200 45 -200 45
4042771645.2742 -3.0933104 -76.759422 -200 45 -200 45 -200 45
4043771761.9603 -3.0863507 -76.786263 -200 45 -200 45 -200 45
4044771878.6464 -3.072861 -76.779182 -200 45 -200 45 -200 45
4045771995.3326 -3.0543573 -76.758827 -200 45 -200 45 -200 45
4046772112.0187 -3.0423222 -76.720505 -200 45 -200 45 -200 45
4047772228.7048 -3.0254681 -76.69809 -200 45 -200 45 -200 45
4048772345.3909 -3.0047531 -76.718857 -200 45 -200 45 -200 45
4049772462.077 -2.9792688 -76.743553 -200 45 -200 45 -200 45
4050772578.7631 -2.971405 -76.676971 -200 45 -200 45 -200 45
4051772695.4492 -2.9710658 -76.602608 -200 45 -200 45 -200 45
4052772812.1354 -2.9962893 -76.444435 -200 45 -200 45 -200 45
4053772928.8215 -3.008512 -76.335526 -200 45 -200 45 -200 45
4054773045.5076 -3.0118575 -76.251022 -200 45 -200 45 -200 45
4055773162.1937 -3.0100131 -76.1754 -200 45 -200 45 -200 45
4056773278.8798 -3.0070391 -76.099724 -200 45 -200 45 -200 45
4057773395.5659 -3.0113046 -76.00666 -200 45 -200 45 -200 45
4058773512.252 -3.0175178 -75.908592 -200 45 -200 45 -200 45
4059773628.9382 -3.0215678 -75.827431 -200 45 -200 45 -200 45
4060773745.6243 -3.012049 -75.75032 -200 45 -200 45 -200 45
4061773862.3104 -3.0045385 -75.651703 -200 45 -200 45 -200 45
4062773978.9965 -2.9996598 -75.558228 -200 45 -200 45 -200 45
4063774095.6826 -2.9911385 -75.509056 -200 45 -200 45 -200 45
4064774212.3687 -2.9830093 -75.458511 -200 45 -200 45 -200 45
4065774329.0548 -2.9648499 -75.459641 -200 45 -200 45 -200 45
4066774445.741 -2.9706929 -75.362816 -200 45 -200 45 -200 45
4067774562.4271 -2.9796672 -75.264687 -200 45 -200 45 -200 45
4068774679.1132 -3.0153861 -75.089439 -200 45 -200 45 -200 45
4069774795.7993 -3.0351167 -74.979088 -200 45 -200 45 -200 45
4070774912.4854 -3.0476539 -74.911247 -200 45 -200 45 -200 45
4071775029.1715 -3.0572007 -74.837898 -200 45 -200 45 -200 45
4072775145.8576 -3.0669401 -74.776245 -200 45 -200 45 -200 45
4073775262.5438 -3.0812793 -74.713356 -200 45 -200 45 -200 45
4074775379.2299 -3.0936861 -74.674545 -200 45 -200 45 -200 45
4075775495.916 -3.1041279 -74.649673 -200 45 -200 45 -200 45
4076775612.6021 -3.1057222 -74.604904 -200 45 -200 45 -200 45
4077775729.2882 -3.1076052 -74.595383 -200 45 -200 45 -200 45
4078775845.9743 -3.1112182 -74.591469 -200 45 -200 45 -200 45
4079775962.6604 -3.1122329 -74.606796 -200 45 -200 45 -200 45
4080776079.3466 -3.1057746 -74.651337 -200 45 -200 45 -200 45
4081776196.0327 -3.0976658 -74.755661 -200 45 -200 45 -200 45
4082776312.7188 -3.1068861 -74.775116 -200 45 -200 45 -200 45
4083776429.4049 -3.1243417 -74.789703 -200 45 -200 45 -200 45
4084776546.091 -3.1637661 -74.71553 -200 45 -200 45 -200 45
4085776662.7771 -3.1902859 -74.720619 -200 45 -200 45 -200 45
4086776779.4632 -3.2091613 -74.791176 -200 45 -200 45 -200 45
4087776896.1494 -3.2194433 -74.835526 -200 45 -200 45 -200 45
4088777012.8355 -3.2306507 -74.922943 -200 45 -200 45 -200 45
4089777129.5216 -3.2463472 -74.992859 -200 45 -200 45 -200 45
4090777246.2077 -3.2600653 -75.077873 -200 45 -200 45 -200 45
4091777362.8938 -3.2702549 -75.175018 -200 45 -200 45 -200 45
4092777479.5799 -3.2724035 -75.276222 -200 45 -200 45 -200 45
4093777596.266 -3.2715943 -75.403221 -200 45 -200 45 -200 45
4094777712.9522 -3.2723889 -75.514069 -200 45 -200 45 -200 45
4095777829.6383 -3.2685766 -75.672951 -200 45 -200 45 -200 45
4096777946.3244 -3.258395 -75.851662 -200 45 -200 45 -200 45
4097778063.0105 -3.2463663 -76.047112 -200 45 -200 45 -200 45
4098778179.6966 -3.250515 -76.194557 -200 45 -200 45 -200 45
4099778296.3827 -3.2620685 -76.304337 -200 45 -200 45 -200 45
4100778413.0688 -3.2955091 -76.348969 -200 45 -200 45 -200 45
4101778529.755 -3.3137362 -76.470894 -200 45 -200 45 -200 45
4102778646.4411 -3.3215444 -76.600304 -200 45 -200 45 -200 45
4103778763.1272 -3.3243494 -76.750786 -200 45 -200 45 -200 45
4104778879.8133 -3.3271842 -76.906044 -200 45 -200 45 -200 45
4105778996.4994 -3.3333788 -77.047279 -200 45 -200 45 -200 45
4106779113.1855 -3.3381979 -77.205841 -200 45 -200 45 -200 45
4107779229.8716 -3.3359625 -77.336487 -200 45 -200 45 -200 45
4108779346.5578 -3.3250742 -77.489777 -200 45 -200 45 -200 45
4109779463.2439 -3.3147533 -77.629814 -200 45 -200 45 -200 45
4110779579.93 -3.3065512 -77.762337 -200 45 -200 45 -200 45
4111779696.6161 -3.2912197 -77.913139 -200 45 -200 45 -200 45
4112779813.3022 -3.2698307 -78.087074 -200 45 -200 45 -200 45
4113779929.9883 -3.242979 -78.28154 -200 45 -200 45 -200 45
4114780046.6744 -3.2397063 -78.389908 -200 45 -200 45 -200 45
4115780163.3606 -3.2440026 -78.456512 -200 45 -200 45 -200 45
4116780280.0467 -3.2681253 -78.467201 -200 45 -200 45 -200 45
4117780396.7328 -3.2765319 -78.545052 -200 45 -200 45 -200 45
4118780513.4189 -3.2731361 -78.587753 -200 45 -200 45 -200 45
4119780630.105 -3.2665665 -78.668518 -200 45 -200 45 -200 45
4120780746.7911 -3.2623186 -78.741943 -200 45 -200 45 -200 45
4121780863.4772 -3.2629964 -78.812202 -200 45 -200 45 -200 45
4122780980.1634 -3.2613928 -78.847427 -200 45 -200 45 -200 45
4123781096.8495 -3.2510984 -78.889801 -200 45 -200 45 -200 45
4124781213.5356 -3.2366612 -78.919304 -200 45 -200 45 -200 45
4125781330.2217 -3.2202899 -78.951103 -200 45 -200 45 -200 45
4126781446.9078 -3.2051966 -78.9674 -200 45 -200 45 -200 45
4127781563.5939 -3.1916835 -78.983131 -200 45 -200 45 -200 45
4128781680.28 -3.170161 -79.051453 -200 45 -200 45 -200 45
4129781796.9662 -3.1432214 -79.113441 -200 45 -200 45 -200 45
4130781913.6523 -3.1429844 -79.087807 -200 45 -200 45 -200 45
4131782030.3384 -3.1497159 -78.997787 -200 45 -200 45 -200 45
4132782147.0245 -3.1730502 -78.883942 -200 45 -200 45 -200 45
4133782263.7106 -3.1846163 -78.829475 -200 45 -200 45 -200 45
4134782380.3967 -3.1860762 -78.787651 -200 45 -200 45 -200 45
4135782497.0828 -3.1841819 -78.729614 -200 45 -200 45 -200 45
4136782613.769 -3.1862879 -78.662125 -200 45 -200 45 -200 45
4137782730.4551 -3.1909597 -78.609947 -200 45 -200 45 -200 45
4138782847.1412 -3.1974416 -78.530029 -200 45 -200 45 -200 45
4139782963.8273 -3.1990824 -78.466858 -200 45 -200 45 -200 45
4140783080.5134 -3.1917272 -78.3722 -200 45 -200 45 -200 45
4141783197.1995 -3.1894526 -78.315399 -200 45 -200 45 -200 45
4142783313.8856 -3.1862075 -78.244667 -200 45 -200 45 -200 45
4143783430.5718 -3.1841407 -78.190208 -200 45 -200 45 -200 45
4144783547.2579 -3.1725492 -78.160973 -200 45 -200 45 -200 45
4145783663.944 -3.1634209 -78.155373 -200 45 -200 45 -200 45
4146783780.6301 -3.17786 -78.039192 -200 45 -200 45 -200 45
4147783897.3162 -3.1986289 -77.938362 -200 45 -200 45 -200 45
4148784014.0023 -3.2388911 -77.767464 -200 45 -200 45 -200 45
4149784130.6884 -3.2677159 -77.665184 -200 45 -200 45 -200 45
4150784247.3746 -3.2871354 -77.584755 -200 45 -200 45 -200 45
4151784364.0607 -3.3064725 -77.511383 -200 45 -200 45 -200 45
4152784480.7468 -3.3299384 -77.436989 -200 45 -200 45 -200 45
4153784597.4329 -3.3551571 -77.356766 -200 45 -200 45 -200 45
4154784714.119 -3.3861523 -77.280838 -200 45 -200 45 -200 45
4155784830.8051 -3.4120424 -77.218773 -200 45 -200 45 -200 45
4156784947.4912 -3.4342082 -77.13884 -200 45 -200 45 -200 45
4157785064.1774 -3.4575181 -77.06176 -200 45 -200 45 -200 45
4158785180.8635 -3.4890535 -76.983932 -200 45 -200 45 -200 45
4159785297.5496 -3.5149887 -76.879837 -200 45 -200 45 -200 45
4160785414.2357 -3.5403144 -76.818436 -200 45 -200 45 -200 45
4161785530.9218 -3.5650935 -76.728874 -200 45 -200 45 -200 45
4162785647.6079 -3.6118786 -76.504784 -200 45 -200 45 -200 45
4163785764.294 -3.663048 -76.218239 -200 45 -200 45 -200 45
4164785880.9802 -3.7268956 -75.848091 -200 45 -200 45 -200 45
4165785997.6663 -3.7692823 -75.512543 -200 45 -200 45 -200 45
4166786114.3524 -3.7939503 -75.177109 -200 45 -200 45 -200 45
4167786231.0385 -3.8052537 -74.83844 -200 45 -200 45 -200 45
4168786347.7246 -3.8074567 -74.496078 -200 45 -200 45 -200 45
4169786464.4107 -3.8065348 -74.215858 -200 45 -200 45 -200 45
4170786581.0968 -3.7950082 -73.98082 -200 45 -200 45 -200 45
4171786697.783 -3.7694602 -73.81472 -200 45 -200 45 -200 45
4172786814.4691 -3.7380867 -73.694481 -200 45 -200 45 -200 45
4173786931.1552 -3.704031 -73.632278 -200 45 -200 45 -200 45
4174787047.8413 -3.6743643 -73.628067 -200 45 -200 45 -200 45
4175787164.5274 -3.6422105 -73.647331 -200 45 -200 45 -200 45
4176787281.2135 -3.6023238 -73.757141 -200 45 -200 45 -200 45
4177787397.8997 -3.5667148 -73.888466 -200 45 -200 45 -200 45
4178787514.5858 -3.552124 -73.961052 -200 45 -200 45 -200 45
4179787631.2719 -3.548888 -74.005402 -200 45 -200 45 -200 45
4180787747.958 -3.5563204 -74.032387 -200 45 -200 45 -200 45
4181787864.6441 -3.5513632 -74.1474 -200 45 -200 45 -200 45
4182787981.3302 -3.5355558 -74.293488 -200 45 -200 45 -200 45
4183788098.0163 -3.5193036 -74.459824 -200 45 -200 45 -200 45
4184788214.7025 -3.5030453 -74.639259 -200 45 -200 45 -200 45
4185788331.3886 -3.4944038 -74.835007 -200 45 -200 45 -200 45
4186788448.0747 -3.4839404 -75.044853 -200 45 -200 45 -200 45
4187788564.7608 -3.4700379 -75.265709 -200 45 -200 45 -200 45
4188788681.4469 -3.4427245 -75.455307 -200 45 -200 45 -200 45
4189788798.133 -3.4249771 -75.691597 -200 45 -200 45 -200 45
4190788914.8191 -3.4082725 -75.920593 -200 45 -200 45 -200 45
4191789031.5053 -3.388376 -76.170059 -200 45 -200 45 -200 45
4192789148.1914 -3.3582923 -76.437096 -200 45 -200 45 -200 45
4193789264.8775 -3.3356137 -76.681061 -200 45 -200 45 -200 45
4194789381.5636 -3.3312893 -76.843506 -200 45 -200 45 -200 45
4195789498.2497 -3.3448911 -76.943321 -200 45 -200 45 -200 45
4196789614.9358 -3.3597128 -77.033096 -200 45 -200 45 -200 45
4197789731.6219 -3.3609502 -77.170128 -200 45 -200 45 -200 45
4198789848.3081 -3.3570411 -77.302879 -200 45 -200 45 -200 45
4199789964.9942 -3.3493676 -77.400871 -200 45 -200 45 -200 45
4200790081.6803 -3.3410144 -77.534531 -200 45 -200 45 -200 45
4201790198.3664 -3.3342557 -77.641335 -200 45 -200 45 -200 45
4202790315.0525 -3.3247499 -77.735435 -200 45 -200 45 -200 45
4203790431.7386 -3.311075 -77.822838 -200 45 -200 45 -200 45
4204790548.4247 -3.2879133 -77.919144 -200 45 -200 45 -200 45
4205790665.1109 -3.2672701 -77.996262 -200 45 -200 45 -200 45
4206790781.797 -3.2470479 -78.06279 -200 45 -200 45 -200 45
4207790898.4831 -3.2260191 -78.13575 -200 45 -200 45 -200 45
4208791015.1692 -3.1915913 -78.240784 -200 45 -200 45 -200 45
4209791131.8553 -3.1675127 -78.31987 -200 45 -200 45 -200 45
4210791248.5414 -3.1555231 -78.350189 -200 45 -200 45 -200 45
4211791365.2275 -3.1643012 -78.269386 -200 45 -200 45 -200 45
4212791481.9137 -3.1768229 -78.20977 -200 45 -200 45 -200 45
4213791598.5998 -3.174387 -78.205269 -200 45 -200 45 -200 45
4214791715.2859 -3.1682765 -78.166748 -200 45 -200 45 -200 45
4215791831.972 -3.1559289 -78.151543 -200 45 -200 45 -200 45
4216791948.6581 -3.1520903 -78.11953 -200 45 -200 45 -200 45
4217792065.3442 -3.1482494 -78.059517 -200 45 -200 45 -200 45
4218792182.0303 -3.1446953 -78.023155 -200 45 -200 45 -200 45
4219792298.7165 -3.1328535 -77.954544 -200 45 -200 45 -200 45
4220792415.4026 -3.1155257 -77.876259 -200 45 -200 45 -200 45
4221792532.0887 -3.0998511 -77.79866 -200 45 -200 45 -200 45
4222792648.7748 -3.0891585 -77.722626 -200 45 -200 45 -200 45
4223792765.4609 -3.0675049 -77.65036 -200 45 -200 45 -200 45
4224792882.147 -3.0425575 -77.616539 -200 45 -200 45 -200 45
4225792998.8331 -3.020607 -77.566002 -200 45 -200 45 -200 45
4226793115.5193 -3.0185227 -77.443466 -200 45 -200 45 -200 45
4227793232.2054 -3.0310168 -77.268257 -200 45 -200 45 -200 45
4228793348.8915 -3.046849 -77.128548 -200 45 -200 45 -200 45
4229793465.5776 -3.0496459 -77.010307 -200 45 -200 45 -200 45
4230793582.2637 -3.0487278 -76.925735 -200 45 -200 45 -200 45
4231793698.9498 -3.0449517 -76.841621 -200 45 -200 45 -200 45
4232793815.6359 -3.0462611 -76.7798 -200 45 -200 45 -200 45
4233793932.3221 -3.0535977 -76.676514 -200 45 -200 45 -200 45
4234794049.0082 -3.0541213 -76.611671 -200 45 -200 45 -200 45
4235794165.6943 -3.0515866 -76.538383 -200 45 -200 45 -200 45
4236794282.3804 -3.0431049 -76.478111 -200 45 -200 45 -200 45
4237794399.0665 -3.0411603 -76.438278 -200 45 -200 45 -200 45
4238794515.7526 -3.0398872 -76.398102 -200 45 -200 45 -200 45
4239794632.4387 -3.0341575 -76.365692 -200 45 -200 45 -200 45
4240794749.1249 -3.0216725 -76.381828 -200 45 -200 45 -200 45
4241794865.811 -3.0162199 -76.378937 -200 45 -200 45 -200 45
4242794982.4971 -3.0290546 -76.318367 -200 45 -200 45 -200 45
4243795099.1832 -3.0611265 -76.203537 -200 45 -200 45 -200 45
4244795215.8693 -3.0919886 -76.124512 -200 45 -200 45 -200 45
4245795332.5554 -3.1109107 -76.081947 -200 45 -200 45 -200 45
4246795449.2415 -3.1251576 -76.08931 -200 45 -200 45 -200 45
4247795565.9277 -3.1344042 -76.059402 -200 45 -200 45 -200 45
4248795682.6138 -3.1505294 -76.055138 -200 45 -200 45 -200 45
4249795799.2999 -3.1681762 -76.080803 -200 45 -200 45 -200 45
4250795915.986 -3.1850755 -76.106285 -200 45 -200 45 -200 45
4251796032.6721 -3.1883676 -76.11956 -200 45 -200 45 -200 45
4252796149.3582 -3.1915627 -76.15094 -200 45 -200 45 -200 45
4253796266.0443 -3.1950235 -76.203735 -200 45 -200 45 -200 45
4254796382.7305 -3.1998219 -76.272057 -200 45 -200 45 -200 45
4255796499.4166 -3.1975391 -76.357483 -200 45 -200 45 -200 45
4256796616.1027 -3.1913669 -76.513138 -200 45 -200 45 -200 45
4257796732.7888 -3.1889114 -76.628265 -200 45 -200 45 -200 45
4258796849.4749 -3.2033291 -76.697701 -200 45 -200 45 -200 45
4259796966.161 -3.2378545 -76.710701 -200 45 -200 45 -200 45
4260797082.8471 -3.2684495 -76.762024 -200 45 -200 45 -200 45
4261797199.5333 -3.28529 -76.85984 -200 45 -200 45 -200 45
4262797316.2194 -3.2960908 -76.996635 -200 45 -200 45 -200 45
4263797432.9055 -3.3043718 -77.100388 -200 45 -200 45 -200 45
4264797549.5916 -3.3181925 -77.251801 -200 45 -200 45 -200 45
4265797666.2777 -3.3324635 -77.395119 -200 45 -200 45 -200 45
4266797782.9638 -3.3398578 -77.514427 -200 45 -200 45 -200 45
4267797899.6499 -3.3400111 -77.67868 -200 45 -200 45 -200 45
4268798016.3361 -3.3320575 -77.817871 -200 45 -200 45 -200 45
4269798133.0222 -3.3321655 -77.996948 -200 45 -200 45 -200 45
4270798249.7083 -3.3230765 -78.166023 -200 45 -200 45 -200 45
4271798366.3944 -3.3134613 -78.33062 -200 45 -200 45 -200 45
4272798483.0805 -3.2943127 -78.570007 -200 45 -200 45 -200 45
4273798599.7666 -3.2845583 -78.771141 -200 45 -200 45 -200 45
4274798716.4527 -3.2863269 -78.914124 -200 45 -200 45 -200 45
4275798833.1389 -3.3094261 -78.965294 -200 45 -200 45 -200 45
4276798949.825 -3.3287945 -79.068947 -200 45 -200 45 -200 45
4277799066.5111 -3.3357711 -79.21032 -200 45 -200 45 -200 45
4278799183.1972 -3.3353119 -79.357773 -200 45 -200 45 -200 45
4279799299.8833 -3.332232 -79.492859 -200 45 -200 45 -200 45
4280799416.5694 -3.3277674 -79.612976 -200 45 -200 45 -200 45
4281799533.2555 -3.3280609 -79.742523 -200 45 -200 45 -200 45
4282799649.9417 -3.3262966 -79.856857 -200 45 -200 45 -200 45
4283799766.6278 -3.3102088 -79.982742 -200 45 -200 45 -200 45
4284799883.3139 -3.2936273 -80.08567 -200 45 -200 45 -200 45
4285800000 -3.2810917 -80.179344 -200 45 -200 45 -200 45
4286800116.6861 -3.2630591 -80.280373 -200 45 -200 45 -200 45
4287800233.3722 -3.2387681 -80.401863 -200 45 -200 45 -200 45
4288800350.0583 -3.2120593 -80.534691 -200 45 -200 45 -200 45
4289800466.7445 -3.1932843 -80.650085 -200 45 -200 45 -200 45
4290800583.4306 -3.1886532 -80.694931 -200 45 -200 45 -200 45
4291800700.1167 -3.2072458 -80.618744 -200 45 -200 45 -200 45
4292800816.8028 -3.212321 -80.614525 -200 45 -200 45 -200 45
4293800933.4889 -3.2126911 -80.619949 -200 45 -200 45 -200 45
4294801050.175 -3.2077856 -80.640984 -200 45 -200 45 -200 45
4295801166.8611 -3.1977215 -80.632111 -200 45 -200 45 -200 45
4296801283.5473 -3.1924536 -80.628067 -200 45 -200 45 -200 45
4297801400.2334 -3.1923819 -80.60334 -200 45 -200 45 -200 45
4298801516.9195 -3.1831107 -80.581894 -200 45 -200 45 -200 45
4299801633.6056 -3.1658947 -80.575859 -200 45 -200 45 -200 45
4300801750.2917 -3.1497545 -80.495819 -200 45 -200 45 -200 45
4301801866.9778 -3.1373012 -80.47718 -200 45 -200 45 -200 45
4302801983.6639 -3.1223686 -80.410812 -200 45 -200 45 -200 45
4303802100.3501 -3.1026795 -80.389839 -200 45 -200 45 -200 45
4304802217.0362 -3.0781944 -80.374916 -200 45 -200 45 -200 45
4305802333.7223 -3.0621114 -80.320168 -200 45 -200 45 -200 45
4306802450.4084 -3.062829 -80.205078 -200 45 -200 45 -200 45
4307802567.0945 -3.0844073 -80.016685 -200 45 -200 45 -200 45
4308802683.7806 -3.0998943 -79.903267 -200 45 -200 45 -200 45
4309802800.4667 -3.105722 -79.787758 -200 45 -200 45 -200 45
4310802917.1529 -3.1047361 -79.686035 -200 45 -200 45 -200 45
4311803033.839 -3.1054406 -79.58181 -200 45 -200 45 -200 45
4312803150.5251 -3.1064579 -79.479034 -200 45 -200 45 -200 45
4313803267.2112 -3.1127541 -79.36895 -200 45 -200 45 -200 45
4314803383.8973 -3.1202011 -79.250626 -200 45 -200 45 -200 45
4315803500.5834 -3.1078424 -79.14566 -200 45 -200 45 -200 45
4316803617.2695 -3.1063313 -79.041679 -200 45 -200 45 -200 45
4317803733.9557 -3.1032782 -78.934143 -200 45 -200 45 -200 45
4318803850.6418 -3.0995111 -78.854607 -200 45 -200 45 -200 45
4319803967.3279 -3.0917947 -78.786842 -200 45 -200 45 -200 45
4320804084.014 -3.0776107 -78.763039 -200 45 -200 45 -200 45
4321804200.7001 -3.0821161 -78.67897 -200 45 -200 45 -200 45
4322804317.3862 -3.0922229 -78.570663 -200 45 -200 45 -200 45
4323804434.0723 -3.1288414 -78.38456 -200 45 -200 45 -200 45
4324804550.7585 -3.1543839 -78.253616 -200 45 -200 45 -200 45
4325804667.4446 -3.1727698 -78.162827 -200 45 -200 45 -200 45
4326804784.1307 -3.1851211 -78.101547 -200 45 -200 45 -200 45
4327804900.8168 -3.198667 -78.040802 -200 45 -200 45 -200 45
4328805017.5029 -3.2146566 -77.967934 -200 45 -200 45 -200 45
4329805134.189 -3.2336409 -77.896332 -200 45 -200 45 -200 45
4330805250.8751 -3.2491853 -77.849846 -200 45 -200 45 -200 45
4331805367.5613 -3.2522702 -77.799835 -200 45 -200 45 -200 45
4332805484.2474 -3.2562196 -77.756889 -200 45 -200 45 -200 45
4333805600.9335 -3.2625268 -77.758522 -200 45 -200 45 -200 45
4334805717.6196 -3.2653315 -77.749084 -200 45 -200 45 -200 45
4335805834.3057 -3.262141 -77.773552 -200 45 -200 45 -200 45
4336805950.9918 -3.2539172 -77.839615 -200 45 -200 45 -200 45
4337806067.6779 -3.2629275 -77.847816 -200 45 -200 45 -200 45
4338806184.3641 -3.2772107 -77.852547 -200 45 -200 45 -200 45
4339806301.0502 -3.3138955 -77.786102 -200 45 -200 45 -200 45
4340806417.7363 -3.3395612 -77.794708 -200 45 -200 45 -200 45
4341806534.4224 -3.3562605 -77.832558 -200 45 -200 45 -200 45
4342806651.1085 -3.3624771 -77.891396 -200 45 -200 45 -200 45
4343806767.7946 -3.3712537 -77.965958 -200 45 -200 45 -200 45
4344806884.4807 -3.3854883 -78.044907 -200 45 -200 45 -200 45
4345807001.1669 -3.3965368 -78.147957 -200 45 -200 45 -200 45
4346807117.853 -3.4036987 -78.237885 -200 45 -200 45 -200 45
4347807234.5391 -3.4026208 -78.365814 -200 45 -200 45 -200 45
4348807351.2252 -3.3965344 -78.502075 -200 45 -200 45 -200 45
4349807467.9113 -3.3937886 -78.611801 -200 45 -200 45 -200 45
4350807584.5974 -3.3886127 -78.766876 -200 45 -200 45 -200 45
4351807701.2835 -3.3739188 -78.956673 -200 45 -200 45 -200 45
4352807817.9697 -3.353472 -79.19352 -200 45 -200 45 -200 45
4353807934.6558 -3.3546791 -79.34288 -200 45 -200 45 -200 45
4354808051.3419 -3.3579891 -79.476563 -200 45 -200 45 -200 45
4355808168.028 -3.3877037 -79.538185 -200 45 -200 45 -200 45
4356808284.7141 -3.3995318 -79.671402 -200 45 -200 45 -200 45
4357808401.4002 -3.403739 -79.815483 -200 45 -200 45 -200 45
4358808518.0863 -3.4018383 -79.979546 -200 45 -200 45 -200 45
4359808634.7725 -3.3989327 -80.144684 -200 45 -200 45 -200 45
4360808751.4586 -3.3994598 -80.297943 -200 45 -200 45 -200 45
4361808868.1447 -3.4020324 -80.452774 -200 45 -200 45 -200 45
4362808984.8308 -3.3980846 -80.57843 -200 45 -200 45 -200 45
4363809101.5169 -3.3830926 -80.745483 -200 45 -200 45 -200 45
4364809218.203 -3.3666942 -80.870399 -200 45 -200 45 -200 45
4365809334.8891 -3.3530989 -81.017151 -200 45 -200 45 -200 45
4366809451.5753 -3.3345978 -81.175606 -200 45 -200 45 -200 45
4367809568.2614 -3.3079965 -81.316055 -200 45 -200 45 -200 45
4368809684.9475 -3.280112 -81.497429 -200 45 -200 45 -200 45
4369809801.6336 -3.2707944 -81.603539 -200 45 -200 45 -200 45
4370809918.3197 -3.2661991 -81.683304 -200 45 -200 45 -200 45
4371810035.0058 -3.2856865 -81.663719 -200 45 -200 45 -200 45
4372810151.6919 -3.2883213 -81.694458 -200 45 -200 45 -200 45
4373810268.3781 -3.2823269 -81.744965 -200 45 -200 45 -200 45
4374810385.0642 -3.2742391 -81.804962 -200 45 -200 45 -200 45
4375810501.7503 -3.2635078 -81.833633 -200 45 -200 45 -200 45
4376810618.4364 -3.2566419 -81.858231 -200 45 -200 45 -200 45
4377810735.1225 -3.2514408 -81.878151 -200 45 -200 45 -200 45
4378810851.8086 -3.2366128 -81.875305 -200 45 -200 45 -200 45
4379810968.4947 -3.2156634 -81.901009 -200 45 -200 45 -200 45
4380811085.1809 -3.1950526 -81.888161 -200 45 -200 45 -200 45
4381811201.867 -3.1806571 -81.885239 -200 45 -200 45 -200 45
4382811318.5531 -3.1555941 -81.882996 -200 45 -200 45 -200 45
4383811435.2392 -3.1312449 -81.863503 -200 45 -200 45 -200 45
4384811551.9253 -3.1024477 -81.918327 -200 45 -200 45 -200 45
4385811668.6114 -3.0898399 -81.877365 -200 45 -200 45 -200 45
4386811785.2976 -3.087451 -81.797188 -200 45 -200 45 -200 45
4387811901.9837 -3.109153 -81.634148 -200 45 -200 45 -200 45
4388812018.6698 -3.1149993 -81.539825 -200 45 -200 45 -200 45
4389812135.3559 -3.1146214 -81.470619 -200 45 -200 45 -200 45
4390812252.042 -3.1086974 -81.380302 -200 45 -200 45 -200 45
4391812368.7281 -3.1043518 -81.286224 -200 45 -200 45 -200 45
4392812485.4142 -3.1043231 -81.186623 -200 45 -200 45 -200 45
4393812602.1004 -3.10657 -81.09359 -200 45 -200 45 -200 45
4394812718.7865 -3.1029942 -80.998123 -200 45 -200 45 -200 45
4395812835.4726 -3.0926726 -80.880806 -200 45 -200 45 -200 45
4396812952.1587 -3.083318 -80.789352 -200 45 -200 45 -200 45
4397813068.8448 -3.0775633 -80.676582 -200 45 -200 45 -200 45
4398813185.5309 -3.0685916 -80.576164 -200 45 -200 45 -200 45
4399813302.217 -3.0535944 -80.518181 -200 45 -200 45 -200 45
4400813418.9032 -3.036097 -80.476601 -200 45 -200 45 -200 45
4401813535.5893 -3.0388467 -80.365982 -200 45 -200 45 -200 45
4402813652.2754 -3.0537467 -80.217857 -200 45 -200 45 -200 45
4403813768.9615 -3.0832772 -80.033394 -200 45 -200 45 -200 45
4404813885.6476 -3.1028683 -79.903297 -200 45 -200 45 -200 45
4405814002.3337 -3.1121328 -79.79908 -200 45 -200 45 -200 45
4406814119.0198 -3.122565 -79.687836 -200 45 -200 45 -200 45
4407814235.706 -3.1297143 -79.607803 -200 45 -200 45 -200 45
4408814352.3921 -3.1460185 -79.517967 -200 45 -200 45 -200 45
4409814469.0782 -3.1566842 -79.441856 -200 45 -200 45 -200 45
4410814585.7643 -3.167244 -79.372704 -200 45 -200 45 -200 45
4411814702.4504 -3.1660831 -79.311348 -200 45 -200 45 -200 45
4412814819.1365 -3.1687095 -79.272797 -200 45 -200 45 -200 45
4413814935.8226 -3.1718805 -79.223434 -200 45 -200 45 -200 45
4414815052.5088 -3.1739776 -79.238396 -200 45 -200 45 -200 45
4415815169.1949 -3.172147 -79.244492 -200 45 -200 45 -200 45
4416815285.881 -3.1619003 -79.305519 -200 45 -200 45 -200 45
4417815402.5671 -3.1788869 -79.289177 -200 45 -200 45 -200 45
4418815519.2532 -3.1965225 -79.248161 -200 45 -200 45 -200 45
4419815635.9393 -3.2367296 -79.165108 -200 45 -200 45 -200 45
4420815752.6254 -3.2629128 -79.159271 -200 45 -200 45 -200 45
4421815869.3116 -3.2793195 -79.197502 -200 45 -200 45 -200 45
4422815985.9977 -3.2937076 -79.243919 -200 45 -200 45 -200 45
4423816102.6838 -3.3072989 -79.296501 -200 45 -200 45 -200 45
4424816219.3699 -3.3259475 -79.352768 -200 45 -200 45 -200 45
4425816336.056 -3.3421841 -79.439888 -200 45 -200 45 -200 45
4426816452.7421 -3.3505797 -79.507645 -200 45 -200 45 -200 45
4427816569.4282 -3.3562448 -79.608047 -200 45 -200 45 -200 45
4428816686.1144 -3.3541567 -79.719116 -200 45 -200 45 -200 45
4429816802.8005 -3.3592341 -79.846733 -200 45 -200 45 -200 45
4430816919.4866 -3.3562231 -79.987129 -200 45 -200 45 -200 45
4431817036.1727 -3.3483856 -80.173676 -200 45 -200 45 -200 45
4432817152.8588 -3.3363478 -80.383667 -200 45 -200 45 -200 45
4433817269.5449 -3.3473403 -80.499763 -200 45 -200 45 -200 45
4434817386.231 -3.3644979 -80.605766 -200 45 -200 45 -200 45
4435817502.9172 -3.3961465 -80.687691 -200 45 -200 45 -200 45
4436817619.6033 -3.4147096 -80.822762 -200 45 -200 45 -200 45
4437817736.2894 -3.4240689 -80.989082 -200 45 -200 45 -200 45
4438817852.9755 -3.4251211 -81.13974 -200 45 -200 45 -200 45
4439817969.6616 -3.4307017 -81.312546 -200 45 -200 45 -200 45
4440818086.3477 -3.4388146 -81.489143 -200 45 -200 45 -200 45
4441818203.0338 -3.4424369 -81.636192 -200 45 -200 45 -200 45
4442818319.72 -3.4397466 -81.783737 -200 45 -200 45 -200 45
4443818436.4061 -3.4262855 -81.96788 -200 45 -200 45 -200 45
4444818553.0922 -3.4139223 -82.131241 -200 45 -200 45 -200 45
4445818669.7783 -3.4062259 -82.297867 -200 45 -200 45 -200 45
4446818786.4644 -3.3900771 -82.485954 -200 45 -200 45 -200 45
4447818903.1505 -3.364768 -82.669731 -200 45 -200 45 -200 45
4448819019.8366 -3.3436143 -82.894096 -200 45 -200 45 -200 45
4449819136.5228 -3.3398085 -83.008286 -200 45 -200 45 -200 45
4450819253.2089 -3.3455112 -83.102921 -200 45 -200 45 -200 45
4451819369.895 -3.3626254 -83.134071 -200 45 -200 45 -200 45
4452819486.5811 -3.3657763 -83.223969 -200 45 -200 45 -200 45
4453819603.2672 -3.3632619 -83.33799 -200 45 -200 45 -200 45
4454819719.9533 -3.3514643 -83.422409 -200 45 -200 45 -200 45
4455819836.6394 -3.3446007 -83.502419 -200 45 -200 45 -200 45
4456819953.3256 -3.3389294 -83.585373 -200 45 -200 45 -200 45
4457820070.0117 -3.3347957 -83.652206 -200 45 -200 45 -200 45
4458820186.6978 -3.32022 -83.693649 -200 45 -200 45 -200 45
4459820303.3839 -3.3016739 -83.758804 -200 45 -200 45 -200 45
4460820420.07 -3.2766111 -83.788757 -200 45 -200 45 -200 45
4461820536.7561 -3.2622964 -83.81636 -200 45 -200 45 -200 45
4462820653.4422 -3.2385495 -83.860336 -200 45 -200 45 -200 45
4463820770.1284 -3.2134435 -83.887955 -200 45 -200 45 -200 45
4464820886.8145 -3.1847315 -83.983688 -200 45 -200 45 -200 45
4465821003.5006 -3.1796808 -83.946503 -200 45 -200 45 -200 45
4466821120.1867 -3.1828973 -83.858711 -200 45 -200 45 -200 45
4467821236.8728 -3.1970491 -83.758537 -200 45 -200 45 -200 45
4468821353.5589 -3.1987486 -83.676765 -200 45 -200 45 -200 45
4469821470.245 -3.1923957 -83.61393 -200 45 -200 45 -200 45
4470821586.9312 -3.1837645 -83.562119 -200 45 -200 45 -200 45
4471821703.6173 -3.1802564 -83.48262 -200 45 -200 45 -200 45
4472821820.3034 -3.1765733 -83.412285 -200 45 -200 45 -200 45
4473821936.9895 -3.1750927 -83.327179 -200 45 -200 45 -200 45
4474822053.6756 -3.1667411 -83.223701 -200 45 -200 45 -200 45
4475822170.3617 -3.1516905 -83.106133 -200 45 -200 45 -200 45
4476822287.0478 -3.1390603 -83.025063 -200 45 -200 45 -200 45
4477822403.734 -3.1280384 -82.915031 -200 45 -200 45 -200 45
4478822520.4201 -3.1142642 -82.830696 -200 45 -200 45 -200 45
4479822637.1062 -3.0943782 -82.764999 -200 45 -200 45 -200 45
4480822753.7923 -3.0775728 -82.719116 -200 45 -200 45 -200 45
4481822870.4784 -3.0798693 -82.563042 -200 45 -200 45 -200 45
4482822987.1645 -3.0962934 -82.390541 -200 45 -200 45 -200 45
4483823103.8506 -3.120012 -82.191635 -200 45 -200 45 -200 45
4484823220.5368 -3.1317284 -82.06221 -200 45 -200 45 -200 45
4485823337.2229 -3.1372979 -81.941261 -200 45 -200 45 -200 45
4486823453.909 -3.1477628 -81.826401 -200 45 -200 45 -200 45
4487823570.5951 -3.1502497 -81.708145 -200 45 -200 45 -200 45
4488823687.2812 -3.1607358 -81.582176 -200 45 -200 45 -200 45
4489823803.9673 -3.1711447 -81.483398 -200 45 -200 45 -200 45
4490823920.6534 -3.1733592 -81.372269 -200 45 -200 45 -200 45
4491824037.3396 -3.1726635 -81.291588 -200 45 -200 45 -200 45
4492824154.0257 -3.1747563 -81.202148 -200 45 -200 45 -200 45
4493824270.7118 -3.1757674 -81.121323 -200 45 -200 45 -200 45
4494824387.3979 -3.1744263 -81.07077 -200 45 -200 45 -200 45
4495824504.084 -3.1673942 -81.068314 -200 45 -200 45 -200 45
4496824620.7701 -3.1637433 -81.073715 -200 45 -200 45 -200 45
4497824737.4562 -3.1763017 -80.997574 -200 45 -200 45 -200 45
4498824854.1424 -3.2071512 -80.872124 -200 45 -200 45 -200 45
4499824970.8285 -3.2419178 -80.78273 -200 45 -200 45 -200 45
4500825087.5146 -3.2633071 -80.753845 -200 45 -200 45 -200 45
4501825204.2007 -3.279974 -80.72216 -200 45 -200 45 -200 45
4502825320.8868 -3.2922678 -80.721336 -200 45 -200 45 -200 45
4503825437.5729 -3.3079784 -80.73259 -200 45 -200 45 -200 45
4504825554.259 -3.3308058 -80.765106 -200 45 -200 45 -200 45
4505825670.9452 -3.3462372 -80.774704 -200 45 -200 45 -200 45
4506825787.6313 -3.3532829 -80.833801 -200 45 -200 45 -200 45
4507825904.3174 -3.3606548 -80.886269 -200 45 -200 45 -200 45
4508826021.0035 -3.3650126 -80.979645 -200 45 -200 45 -200 45
4509826137.6896 -3.3689065 -81.054085 -200 45 -200 45 -200 45
4510826254.3757 -3.3702874 -81.18103 -200 45 -200 45 -200 45
4511826371.0618 -3.3624437 -81.329315 -200 45 -200 45 -200 45
4512826487.748 -3.360311 -81.489571 -200 45 -200 45 -200 45
4513826604.4341 -3.3748987 -81.592583 -200 45 -200 45 -200 45
4514826721.1202 -3.4051492 -81.64238 -200 45 -200 45 -200 45
4515826837.8063 -3.4354334 -81.72702 -200 45 -200 45 -200 45
4516826954.4924 -3.453485 -81.84304 -200 45 -200 45 -200 45
4517827071.1785 -3.4654818 -81.993652 -200 45 -200 45 -200 45
4518827187.8646 -3.4730022 -82.128571 -200 45 -200 45 -200 45
4519827304.5508 -3.4822652 -82.303101 -200 45 -200 45 -200 45
4520827421.2369 -3.4942632 -82.474281 -200 45 -200 45 -200 45
4521827537.923 -3.5005996 -82.615814 -200 45 -200 45 -200 45
4522827654.6091 -3.5010564 -82.776588 -200 45 -200 45 -200 45
4523827771.2952 -3.4943724 -82.967148 -200 45 -200 45 -200 45
4524827887.9813 -3.4866433 -83.158958 -200 45 -200 45 -200 45
4525828004.6674 -3.4811621 -83.325806 -200 45 -200 45 -200 45
4526828121.3536 -3.4672761 -83.526726 -200 45 -200 45 -200 45
4527828238.0397 -3.4468262 -83.763924 -200 45 -200 45 -200 45
4528828354.7258 -3.4325571 -83.978737 -200 45 -200 45 -200 45
4529828471.4119 -3.4317825 -84.143944 -200 45 -200 45 -200 45
4530828588.098 -3.4532981 -84.214203 -200 45 -200 45 -200 45
4531828704.7841 -3.4641769 -84.324768 -200 45 -200 45 -200 45
4532828821.4702 -3.4710841 -84.454353 -200 45 -200 45 -200 45
4533828938.1564 -3.4647126 -84.59639 -200 45 -200 45 -200 45
4534829054.8425 -3.4602563 -84.729057 -200 45 -200 45 -200 45
4535829171.5286 -3.4508882 -84.847046 -200 45 -200 45 -200 45
4536829288.2147 -3.4504101 -85.003922 -200 45 -200 45 -200 45
4537829404.9008 -3.4428732 -85.094551 -200 45 -200 45 -200 45
4538829521.5869 -3.4280157 -85.168442 -200 45 -200 45 -200 45
4539829638.273 -3.4103217 -85.274643 -200 45 -200 45 -200 45
4540829754.9592 -3.3920054 -85.374954 -200 45 -200 45 -200 45
4541829871.6453 -3.3717062 -85.454796 -200 45 -200 45 -200 45
4542829988.3314 -3.3458402 -85.544128 -200 45 -200 45 -200 45
4543830105.0175 -3.3155086 -85.639435 -200 45 -200 45 -200 45
4544830221.7036 -3.296622 -85.73127 -200 45 -200 45 -200 45
4545830338.3897 -3.2867839 -85.714592 -200 45 -200 45 -200 45
4546830455.0758 -3.2975986 -85.660294 -200 45 -200 45 -200 45
4547830571.762 -3.3071539 -85.619492 -200 45 -200 45 -200 45
4548830688.4481 -3.3020978 -85.601601 -200 45 -200 45 -200 45
4549830805.1342 -3.2956452 -85.584198 -200 45 -200 45 -200 45
4550830921.8203 -3.2833207 -85.551476 -200 45 -200 45 -200 45
4551831038.5064 -3.2802234 -85.504272 -200 45 -200 45 -200 45
4552831155.1925 -3.2723482 -85.447502 -200 45 -200 45 -200 45
4553831271.8786 -3.267338 -85.391792 -200 45 -200 45 -200 45
4554831388.5648 -3.2502432 -85.333893 -200 45 -200 45 -200 45
4555831505.2509 -3.234766 -85.242363 -200 45 -200 45 -200 45
4556831621.937 -3.2200606 -85.155922 -200 45 -200 45 -200 45
4557831738.6231 -3.2063863 -85.081924 -200 45 -200 45 -200 45
4558831855.3092 -3.188293 -85.007133 -200 45 -200 45 -200 45
4559831971.9953 -3.1663315 -84.968826 -200 45 -200 45 -200 45
4560832088.6814 -3.1529615 -84.868767 -200 45 -200 45 -200 45
4561832205.3676 -3.1503625 -84.740356 -200 45 -200 45 -200 45
4562832322.0537 -3.1711407 -84.517181 -200 45 -200 45 -200 45
4563832438.7398 -3.1866791 -84.358871 -200 45 -200 45 -200 45
4564832555.4259 -3.1925747 -84.197418 -200 45 -200 45 -200 45
4565832672.112 -3.1936238 -84.069244 -200 45 -200 45 -200 45
4566832788.7981 -3.1937473 -83.942413 -200 45 -200 45 -200 45
4567832905.4842 -3.20119 -83.790222 -200 45 -200 45 -200 45
4568833022.1704 -3.2078598 -83.666161 -200 45 -200 45 -200 45
4569833138.8565 -3.2108541 -83.504875 -200 45 -200 45 -200 45
4570833255.5426 -3.2079976 -83.38781 -200 45 -200 45 -200 45
4571833372.2287 -3.2028925 -83.248604 -200 45 -200 45 -200 45
4572833488.9148 -3.2045293 -83.140625 -200 45 -200 45 -200 45
4573833605.6009 -3.2015259 -83.020332 -200 45 -200 45 -200 45
4574833722.287 -3.1963954 -82.928619 -200 45 -200 45 -200 45
4575833838.9732 -3.1823082 -82.884697 -200 45 -200 45 -200 45
4576833955.6593 -3.1837888 -82.808235 -200 45 -200 45 -200 45
4577834072.3454 -3.1970162 -82.691498 -200 45 -200 45 -200 45
4578834189.0315 -3.232106 -82.491676 -200 45 -200 45 -200 45
4579834305.7176 -3.2555485 -82.388535 -200 45 -200 45 -200 45
4580834422.4037 -3.2734175 -82.291908 -200 45 -200 45 -200 45
4581834539.0898 -3.2859707 -82.222923 -200 45 -200 45 -200 45
4582834655.776 -3.2991462 -82.178429 -200 45 -200 45 -200 45
4583834772.4621 -3.3173606 -82.128983 -200 45 -200 45 -200 45
4584834889.1482 -3.3332481 -82.101738 -200 45 -200 45 -200 45
4585835005.8343 -3.3501596 -82.079842 -200 45 -200 45 -200 45
4586835122.5204 -3.35602 -82.057487 -200 45 -200 45 -200 45
4587835239.2065 -3.3615532 -82.073265 -200 45 -200 45 -200 45
4588835355.8926 -3.3691826 -82.08606 -200 45 -200 45 -200 45
4589835472.5788 -3.371871 -82.132019 -200 45 -200 45 -200 45
4590835589.2649 -3.3738329 -82.200668 -200 45 -200 45 -200 45
4591835705.951 -3.3660526 -82.311768 -200 45 -200 45 -200 45
4592835822.6371 -3.3761368 -82.419098 -200 45 -200 45 -200 45
4593835939.3232 -3.3921905 -82.468155 -200 45 -200 45 -200 45
4594836056.0093 -3.4297543 -82.45472 -200 45 -200 45 -200 45
4595836172.6954 -3.4614832 -82.514755 -200 45 -200 45 -200 45
4596836289.3816 -3.4783912 -82.60466 -200 45 -200 45 -200 45
4597836406.0677 -3.4895716 -82.706421 -200 45 -200 45 -200 45
4598836522.7538 -3.5028133 -82.836342 -200 45 -200 45 -200 45
4599836639.4399 -3.5180695 -82.958778 -200 45 -200 45 -200 45
4600836756.126 -3.5334084 -83.094475 -200 45 -200 45 -200 45
4601836872.8121 -3.5437 -83.228416 -200 45 -200 45 -200 45
4602836989.4983 -3.5432065 -83.374245 -200 45 -200 45 -200 45
4603837106.1844 -3.5408533 -83.551277 -200 45 -200 45 -200 45
4604837222.8705 -3.5390022 -83.699783 -200 45 -200 45 -200 45
4605837339.5566 -3.5373676 -83.903831 -200 45 -200 45 -200 45
4606837456.2427 -3.5246999 -84.09935 -200 45 -200 45 -200 45
4607837572.9288 -3.5066857 -84.369179 -200 45 -200 45 -200 45
4608837689.6149 -3.5044565 -84.556938 -200 45 -200 45 -200 45
4609837806.3011 -3.5089161 -84.728996 -200 45 -200 45 -200 45
4610837922.9872 -3.5361249 -84.80603 -200 45 -200 45 -200 45
4611838039.6733 -3.552408 -84.92514 -200 45 -200 45 -200 45
4612838156.3594 -3.5564408 -85.103546 -200 45 -200 45 -200 45
4613838273.0455 -3.5548134 -85.256355 -200 45 -200 45 -200 45
4614838389.7316 -3.5496056 -85.440788 -200 45 -200 45 -200 45
4615838506.4177 -3.5522554 -85.594345 -200 45 -200 45 -200 45
4616838623.1039 -3.5474813 -85.749687 -200 45 -200 45 -200 45
4617838739.79 -3.5455105 -85.903847 -200 45 -200 45 -200 45
4618838856.4761 -3.5267079 -86.04866 -200 45 -200 45 -200 45
4619838973.1622 -3.5062096 -86.198105 -200 45 -200 45 -200 45
4620839089.8483 -3.4922354 -86.332794 -200 45 -200 45 -200 45
4621839206.5344 -3.4730697 -86.454941 -200 45 -200 45 -200 45
4622839323.2205 -3.4480016 -86.605042 -200 45 -200 45 -200 45
4623839439.9067 -3.4170227 -86.774742 -200 45 -200 45 -200 45
4624839556.5928 -3.3999422 -86.847084 -200 45 -200 45 -200 45
4625839673.2789 -3.3932593 -86.904869 -200 45 -200 45 -200 45
4626839789.965 -3.4112911 -86.874565 -200 45 -200 45 -200 45
4627839906.6511 -3.4128873 -86.895386 -200 45 -200 45 -200 45
4628840023.3372 -3.4082112 -86.961708 -200 45 -200 45 -200 45
4629840140.0233 -3.3969338 -86.967804 -200 45 -200 45 -200 45
4630840256.7095 -3.3834817 -86.98661 -200 45 -200 45 -200 45
4631840373.3956 -3.3787429 -86.996414 -200 45 -200 45 -200 45
4632840490.0817 -3.3730085 -87.011055 -200 45 -200 45 -200 45
4633840606.7678 -3.3596153 -86.988098 -200 45 -200 45 -200 45
4634840723.4539 -3.3402219 -86.961075 -200 45 -200 45 -200 45
4635840840.14 -3.3223305 -86.914734 -200 45 -200 45 -200 45
4636840956.8261 -3.3049691 -86.870453 -200 45 -200 45 -200 45
4637841073.5123 -3.2818897 -86.844765 -200 45 -200 45 -200 45
4638841190.1984 -3.2598274 -86.79599 -200 45 -200 45 -200 45
4639841306.8845 -3.2318845 -86.792595 -200 45 -200 45 -200 45
4640841423.5706 -3.2208812 -86.738258 -200 45 -200 45 -200 45
4641841540.2567 -3.217262 -86.611427 -200 45 -200 45 -200 45
4642841656.9428 -3.2392342 -86.425072 -200 45 -200 45 -200 45
4643841773.6289 -3.2468383 -86.285774 -200 45 -200 45 -200 45
4644841890.3151 -3.2479124 -86.150185 -200 45 -200 45 -200 45
4645842007.0012 -3.2452044 -86.038361 -200 45 -200 45 -200 45
4646842123.6873 -3.239764 -85.916756 -200 45 -200 45 -200 45
4647842240.3734 -3.2441552 -85.790756 -200 45 -200 45 -200 45
4648842357.0595 -3.2471478 -85.65284 -200 45 -200 45 -200 45
4649842473.7456 -3.2454047 -85.515434 -200 45 -200 45 -200 45
4650842590.4317 -3.2388098 -85.39093 -200 45 -200 45 -200 45
4651842707.1179 -3.2316122 -85.266754 -200 45 -200 45 -200 45
4652842823.804 -3.223244 -85.127686 -200 45 -200 45 -200 45
4653842940.4901 -3.2163868 -85.01458 -200 45 -200 45 -200 45
4654843057.1762 -3.2069292 -84.915207 -200 45 -200 45 -200 45
4655843173.8623 -3.1924222 -84.870972 -200 45 -200 45 -200 45
4656843290.5484 -3.1985602 -84.752716 -200 45 -200 45 -200 45
4657843407.2345 -3.2094548 -84.618103 -200 45 -200 45 -200 45
4658843523.9207 -3.2403646 -84.385185 -200 45 -200 45 -200 45
4659843640.6068 -3.2622702 -84.280769 -200 45 -200 45 -200 45
4660843757.2929 -3.278002 -84.154198 -200 45 -200 45 -200 45
4661843873.979 -3.287998 -84.067162 -200 45 -200 45 -200 45
4662843990.6651 -3.2986059 -83.972229 -200 45 -200 45 -200 45
4663844107.3512 -3.3125625 -83.896111 -200 45 -200 45 -200 45
4664844224.0373 -3.3318567 -83.827843 -200 45 -200 45 -200 45
4665844340.7235 -3.3445513 -83.769905 -200 45 -200 45 -200 45
4666844457.4096 -3.3470712 -83.709068 -200 45 -200 45 -200 45
4667844574.0957 -3.3527701 -83.681496 -200 45 -200 45 -200 45
4668844690.7818 -3.3610122 -83.655098 -200 45 -200 45 -200 45
4669844807.4679 -3.3636961 -83.642693 -200 45 -200 45 -200 45
4670844924.154 -3.3650975 -83.691254 -200 45 -200 45 -200 45
4671845040.8401 -3.3583136 -83.774323 -200 45 -200 45 -200 45
4672845157.5263 -3.3768032 -83.793503 -200 45 -200 45 -200 45
4673845274.2124 -3.3956165 -83.778252 -200 45 -200 45 -200 45
4674845390.8985 -3.4364929 -83.730965 -200 45 -200 45 -200 45
4675845507.5846 -3.4671595 -83.780594 -200 45 -200 45 -200 45
4676845624.2707 -3.4831319 -83.803932 -200 45 -200 45 -200 45
4677845740.9568 -3.5003028 -83.889946 -200 45 -200 45 -200 45
4678845857.6429 -3.517009 -83.98555 -200 45 -200 45 -200 45
4679845974.3291 -3.5355055 -84.073822 -200 45 -200 45 -200 45
4680846091.0152 -3.5505958 -84.178864 -200 45 -200 45 -200 45
4681846207.7013 -3.5616114 -84.276115 -200 45 -200 45 -200 45
4682846324.3874 -3.5669205 -84.427788 -200 45 -200 45 -200 45
4683846441.0735 -3.5665433 -84.558235 -200 45 -200 45 -200 45
4684846557.7596 -3.5696983 -84.721153 -200 45 -200 45 -200 45
4685846674.4457 -3.5718718 -84.888802 -200 45 -200 45 -200 45
4686846791.1319 -3.5636165 -85.093132 -200 45 -200 45 -200 45
4687846907.818 -3.5527463 -85.333885 -200 45 -200 45 -200 45
4688847024.5041 -3.5600314 -85.511581 -200 45 -200 45 -200 45
4689847141.1902 -3.5691018 -85.634247 -200 45 -200 45 -200 45
4690847257.8763 -3.6048121 -85.729218 -200 45 -200 45 -200 45
4691847374.5624 -3.6165097 -85.870071 -200 45 -200 45 -200 45
4692847491.2485 -3.6251333 -86.044205 -200 45 -200 45 -200 45
4693847607.9347 -3.6309676 -86.230446 -200 45 -200 45 -200 45
4694847724.6208 -3.6311796 -86.391052 -200 45 -200 45 -200 45
4695847841.3069 -3.6356831 -86.580185 -200 45 -200 45 -200 45
4696847957.993 -3.6397915 -86.764824 -200 45 -200 45 -200 45
4697848074.6791 -3.6308277 -86.929092 -200 45 -200 45 -200 45
4698848191.3652 -3.6155233 -87.096504 -200 45 -200 45 -200 45
4699848308.0513 -3.6023073 -87.258881 -200 45 -200 45 -200 45
4700848424.7375 -3.5912819 -87.440414 -200 45 -200 45 -200 45
4701848541.4236 -3.5690727 -87.609932 -200 45 -200 45 -200 45
4702848658.1097 -3.5482519 -87.802475 -200 45 -200 45 -200 45
4703848774.7958 -3.5193899 -87.99398 -200 45 -200 45 -200 45
4704848891.4819 -3.5150738 -88.108223 -200 45 -200 45 -200 45
4705849008.168 -3.5089338 -88.181999 -200 45 -200 45 -200 45
4706849124.8541 -3.5286059 -88.223984 -200 45 -200 45 -200 45
4707849241.5403 -3.5307307 -88.292 -200 45 -200 45 -200 45
4708849358.2264 -3.5213273 -88.352646 -200 45 -200 45 -200 45
4709849474.9125 -3.5113192 -88.438339 -200 45 -200 45 -200 45
4710849591.5986 -3.5008414 -88.493309 -200 45 -200 45 -200 45
4711849708.2847 -3.4934378 -88.558548 -200 45 -200 45 -200 45
4712849824.9708 -3.4847178 -88.572197 -200 45 -200 45 -200 45
4713849941.6569 -3.463974 -88.610275 -200 45 -200 45 -200 45
4714850058.3431 -3.44609 -88.621582 -200 45 -200 45 -200 45
4715850175.0292 -3.4263792 -88.624229 -200 45 -200 45 -200 45
4716850291.7153 -3.4062166 -88.615601 -200 45 -200 45 -200 45
4717850408.4014 -3.3847353 -88.617157 -200 45 -200 45 -200 45
4718850525.0875 -3.3557367 -88.630074 -200 45 -200 45 -200 45
4719850641.7736 -3.3278847 -88.661354 -200 45 -200 45 -200 45
4720850758.4597 -3.3173671 -88.57283 -200 45 -200 45 -200 45
4721850875.1459 -3.316865 -88.457237 -200 45 -200 45 -200 45
4722850991.832 -3.3345642 -88.317474 -200 45 -200 45 -200 45
4723851108.5181 -3.334281 -88.216751 -200 45 -200 45 -200 45
4724851225.2042 -3.3313336 -88.127823 -200 45 -200 45 -200 45
4725851341.8903 -3.3223176 -88.024887 -200 45 -200 45 -200 45
4726851458.5764 -3.317364 -87.912399 -200 45 -200 45 -200 45
4727851575.2625 -3.316797 -87.817314 -200 45 -200 45 -200 45
4728851691.9487 -3.3157208 -87.686691 -200 45 -200 45 -200 45
4729851808.6348 -3.3088276 -87.54599 -200 45 -200 45 -200 45
4730851925.3209 -3.2956748 -87.444534 -200 45 -200 45 -200 45
4731852042.007 -3.286576 -87.314445 -200 45 -200 45 -200 45
4732852158.6931 -3.2802804 -87.162392 -200 45 -200 45 -200 45
4733852275.3792 -3.2674875 -87.056503 -200 45 -200 45 -200 45
4734852392.0653 -3.2510896 -86.97805 -200 45 -200 45 -200 45
4735852508.7515 -3.2349563 -86.874039 -200 45 -200 45 -200 45
4736852625.4376 -3.2408085 -86.726448 -200 45 -200 45 -200 45
4737852742.1237 -3.2571614 -86.553307 -200 45 -200 45 -200 45
4738852858.8098 -3.285573 -86.352905 -200 45 -200 45 -200 45
4739852975.4959 -3.3015625 -86.217087 -200 45 -200 45 -200 45
4740853092.182 -3.3110454 -86.057793 -200 45 -200 45 -200 45
4741853208.8681 -3.3224831 -85.936821 -200 45 -200 45 -200 45
4742853325.5543 -3.3281662 -85.811455 -200 45 -200 45 -200 45
4743853442.2404 -3.3439002 -85.678238 -200 45 -200 45 -200 45
4744853558.9265 -3.3586714 -85.587616 -200 45 -200 45 -200 45
4745853675.6126 -3.3654037 -85.497093 -200 45 -200 45 -200 45
4746853792.2987 -3.3693516 -85.38736 -200 45 -200 45 -200 45
4747853908.9848 -3.3740389 -85.306488 -200 45 -200 45 -200 45
4748854025.6709 -3.3783062 -85.252388 -200 45 -200 45 -200 45
4749854142.3571 -3.3835702 -85.22332 -200 45 -200 45 -200 45
4750854259.0432 -3.3806887 -85.21019 -200 45 -200 45 -200 45
4751854375.7293 -3.3814528 -85.231209 -200 45 -200 45 -200 45
4752854492.4154 -3.401089 -85.178177 -200 45 -200 45 -200 45
4753854609.1015 -3.4293849 -85.098526 -200 45 -200 45 -200 45
4754854725.7876 -3.4676237 -85.02787 -200 45 -200 45 -200 45
4755854842.4737 -3.4965 -85.005661 -200 45 -200 45 -200 45
4756854959.1599 -3.5144095 -85.022858 -200 45 -200 45 -200 45
4757855075.846 -3.5291619 -85.057289 -200 45 -200 45 -200 45
4758855192.5321 -3.5486362 -85.093628 -200 45 -200 45 -200 45
4759855309.2182 -3.5704401 -85.150673 -200 45 -200 45 -200 45
4760855425.9043 -3.5915568 -85.213135 -200 45 -200 45 -200 45
4761855542.5904 -3.6014571 -85.291176 -200 45 -200 45 -200 45
4762855659.2765 -3.6070869 -85.389221 -200 45 -200 45 -200 45
4763855775.9627 -3.6151516 -85.488609 -200 45 -200 45 -200 45
4764855892.6488 -3.6217668 -85.599091 -200 45 -200 45 -200 45
4765856009.3349 -3.6255162 -85.76165 -200 45 -200 45 -200 45
4766856126.021 -3.620707 -85.945961 -200 45 -200 45 -200 45
4767856242.7071 -3.6183715 -86.171257 -200 45 -200 45 -200 45
4768856359.3932 -3.6313274 -86.28344 -200 45 -200 45 -200 45
4769856476.0793 -3.655463 -86.356644 -200 45 -200 45 -200 45
4770856592.7655 -3.6912358 -86.469521 -200 45 -200 45 -200 45
4771856709.4516 -3.7065072 -86.616959 -200 45 -200 45 -200 45
4772856826.1377 -3.720711 -86.811684 -200 45 -200 45 -200 45
4773856942.8238 -3.7272964 -86.990463 -200 45 -200 45 -200 45
4774857059.5099 -3.7363017 -87.176865 -200 45 -200 45 -200 45
4775857176.196 -3.7448561 -87.361275 -200 45 -200 45 -200 45
4776857292.8821 -3.7503932 -87.545128 -200 45 -200 45 -200 45
4777857409.5683 -3.7479885 -87.741608 -200 45 -200 45 -200 45
4778857526.2544 -3.739291 -87.924568 -200 45 -200 45 -200 45
4779857642.9405 -3.7328799 -88.124512 -200 45 -200 45 -200 45
4780857759.6266 -3.7227943 -88.300797 -200 45 -200 45 -200 45
4781857876.3127 -3.7068408 -88.528259 -200 45 -200 45 -200 45
4782857992.9988 -3.6883063 -88.739403 -200 45 -200 45 -200 45
4783858109.6849 -3.6672161 -88.963272 -200 45 -200 45 -200 45
4784858226.3711 -3.6645327 -89.122284 -200 45 -200 45 -200 45
4785858343.0572 -3.6789479 -89.205551 -200 45 -200 45 -200 45
4786858459.7433 -3.6897075 -89.298706 -200 45 -200 45 -200 45
4787858576.4294 -3.691946 -89.420677 -200 45 -200 45 -200 45
4788858693.1155 -3.6894774 -89.530701 -200 45 -200 45 -200 45
4789858809.8016 -3.679317 -89.650589 -200 45 -200 45 -200 45
4790858926.4877 -3.6726186 -89.763229 -200 45 -200 45 -200 45
4791859043.1739 -3.6673026 -89.862984 -200 45 -200 45 -200 45
4792859159.86 -3.6582587 -89.935783 -200 45 -200 45 -200 45
4793859276.5461 -3.6434979 -89.98674 -200 45 -200 45 -200 45
4794859393.2322 -3.6229436 -90.066299 -200 45 -200 45 -200 45
4795859509.9183 -3.6045587 -90.086006 -200 45 -200 45 -200 45
4796859626.6044 -3.5853271 -90.117836 -200 45 -200 45 -200 45
4797859743.2905 -3.559319 -90.148804 -200 45 -200 45 -200 45
4798859859.9767 -3.5303247 -90.204369 -200 45 -200 45 -200 45
4799859976.6628 -3.5025918 -90.232979 -200 45 -200 45 -200 45
4800860093.3489 -3.4942183 -90.173691 -200 45 -200 45 -200 45
4801860210.035 -3.5015364 -90.048271 -200 45 -200 45 -200 45
4802860326.7211 -3.5078866 -89.943535 -200 45 -200 45 -200 45
4803860443.4072 -3.50368 -89.874855 -200 45 -200 45 -200 45
4804860560.0933 -3.4929256 -89.767136 -200 45 -200 45 -200 45
4805860676.7795 -3.4836073 -89.676292 -200 45 -200 45 -200 45
4806860793.4656 -3.4719396 -89.571121 -200 45 -200 45 -200 45
4807860910.1517 -3.4648848 -89.458084 -200 45 -200 45 -200 45
4808861026.8378 -3.455029 -89.340523 -200 45 -200 45 -200 45
4809861143.5239 -3.4406981 -89.20224 -200 45 -200 45 -200 45
4810861260.21 -3.4220939 -89.096489 -200 45 -200 45 -200 45
4811861376.8961 -3.4050648 -88.986336 -200 45 -200 45 -200 45
4812861493.5823 -3.3896849 -88.844818 -200 45 -200 45 -200 45
4813861610.2684 -3.3690867 -88.738441 -200 45 -200 45 -200 45
4814861726.9545 -3.3451221 -88.656601 -200 45 -200 45 -200 45
4815861843.6406 -3.3314602 -88.573296 -200 45 -200 45 -200 45
4816861960.3267 -3.3274226 -88.402977 -200 45 -200 45 -200 45
4817862077.0128 -3.3449404 -88.187981 -200 45 -200 45 -200 45
4818862193.6989 -3.3630829 -88.009117 -200 45 -200 45 -200 45
4819862310.3851 -3.3700323 -87.85247 -200 45 -200 45 -200 45
4820862427.0712 -3.3730531 -87.707634 -200 45 -200 45 -200 45
4821862543.7573 -3.3749559 -87.560417 -200 45 -200 45 -200 45
4822862660.4434 -3.3818791 -87.421501 -200 45 -200 45 -200 45
4823862777.1295 -3.391639 -87.279839 -200 45 -200 45 -200 45
4824862893.8156 -3.3995378 -87.127815 -200 45 -200 45 -200 45
4825863010.5018 -3.3995857 -87.011612 -200 45 -200 45 -200 45
4826863127.1879 -3.4018698 -86.88147 -200 45 -200 45 -200 45
4827863243.874 -3.401031 -86.760429 -200 45 -200 45 -200 45
4828863360.5601 -3.4037275 -86.668892 -200 45 -200 45 -200 45
4829863477.2462 -3.4034889 -86.592041 -200 45 -200 45 -200 45
4830863593.9323 -3.3959231 -86.562103 -200 45 -200 45 -200 45
4831863710.6184 -3.3981824 -86.494453 -200 45 -200 45 -200 45
4832863827.3046 -3.4102294 -86.418236 -200 45 -200 45 -200 45
4833863943.9907 -3.4450738 -86.269066 -200 45 -200 45 -200 45
4834864060.6768 -3.477613 -86.148811 -200 45 -200 45 -200 45
4835864177.3629 -3.4978526 -86.110603 -200 45 -200 45 -200 45
4836864294.049 -3.5156379 -86.074387 -200 45 -200 45 -200 45
4837864410.7351 -3.530324 -86.07412 -200 45 -200 45 -200 45
4838864527.4212 -3.5517781 -86.049217 -200 45 -200 45 -200 45
4839864644.1074 -3.5720291 -86.069283 -200 45 -200 45 -200 45
4840864760.7935 -3.590524 -86.108551 -200 45 -200 45 -200 45
4841864877.4796 -3.6002798 -86.117157 -200 45 -200 45 -200 45
4842864994.1657 -3.6053963 -86.18428 -200 45 -200 45 -200 45
4843865110.8518 -3.6153224 -86.264748 -200 45 -200 45 -200 45
4844865227.5379 -3.6217501 -86.343513 -200 45 -200 45 -200 45
4845865344.224 -3.6270785 -86.477112 -200 45 -200 45 -200 45
4846865460.9102 -3.6227741 -86.647369 -200 45 -200 45 -200 45
4847865577.5963 -3.6312172 -86.808311 -200 45 -200 45 -200 45
4848865694.2824 -3.6466172 -86.909393 -200 45 -200 45 -200 45
4849865810.9685 -3.6829641 -86.963005 -200 45 -200 45 -200 45
4850865927.6546 -3.7176759 -87.04985 -200 45 -200 45 -200 45
4851866044.3407 -3.7398126 -87.194481 -200 45 -200 45 -200 45
4852866161.0268 -3.7505667 -87.371605 -200 45 -200 45 -200 45
4853866277.713 -3.7593844 -87.536728 -200 45 -200 45 -200 45
4854866394.3991 -3.7742224 -87.723366 -200 45 -200 45 -200 45
4855866511.0852 -3.7920525 -87.90493 -200 45 -200 45 -200 45
4856866627.7713 -3.80179 -88.098717 -200 45 -200 45 -200 45
4857866744.4574 -3.8001487 -88.289154 -200 45 -200 45 -200 45
4858866861.1435 -3.7984347 -88.498779 -200 45 -200 45 -200 45
4859866977.8296 -3.7934706 -88.710037 -200 45 -200 45 -200 45
4860867094.5158 -3.7882116 -88.924263 -200 45 -200 45 -200 45
4861867211.2019 -3.7795565 -89.173874 -200 45 -200 45 -200 45
4862867327.888 -3.7581756 -89.433044 -200 45 -200 45 -200 45
4863867444.5741 -3.7506754 -89.682938 -200 45 -200 45 -200 45
4864867561.2602 -3.7541265 -89.837173 -200 45 -200 45 -200 45
4865867677.9463 -3.7737203 -89.967476 -200 45 -200 45 -200 45
4866867794.6324 -3.7875843 -90.099594 -200 45 -200 45 -200 45
4867867911.3186 -3.7903616 -90.288307 -200 45 -200 45 -200 45
4868868028.0047 -3.7895436 -90.461205 -200 45 -200 45 -200 45
4869868144.6908 -3.782589 -90.620758 -200 45 -200 45 -200 45
4870868261.3769 -3.7765455 -90.78495 -200 45 -200 45 -200 45
4871868378.063 -3.771776 -90.932556 -200 45 -200 45 -200 45
4872868494.7491 -3.7659883 -91.082886 -200 45 -200 45 -200 45
4873868611.4352 -3.7453611 -91.203598 -200 45 -200 45 -200 45
4874868728.1214 -3.7264397 -91.314659 -200 45 -200 45 -200 45
4875868844.8075 -3.7061133 -91.45565 -200 45 -200 45 -200 45
4876868961.4936 -3.6846843 -91.534264 -200 45 -200 45 -200 45
4877869078.1797 -3.659467 -91.636902 -200 45 -200 45 -200 45
4878869194.8658 -3.6292992 -91.798393 -200 45 -200 45 -200 45
4879869311.5519 -3.6112938 -91.878197 -200 45 -200 45 -200 45
4880869428.238 -3.5956366 -91.899277 -200 45 -200 45 -200 45
4881869544.9242 -3.6119392 -91.833122 -200 45 -200 45 -200 45
4882869661.6103 -3.6156561 -91.803955 -200 45 -200 45 -200 45
4883869778.2964 -3.6054461 -91.814026 -200 45 -200 45 -200 45
4884869894.9825 -3.5941088 -91.77845 -200 45 -200 45 -200 45
4885870011.6686 -3.5827942 -91.781227 -200 45 -200 45 -200 45
4886870128.3547 -3.5747592 -91.748627 -200 45 -200 45 -200 45
4887870245.0408 -3.5697067 -91.70462 -200 45 -200 45 -200 45
4888870361.727 -3.5591431 -91.637405 -200 45 -200 45 -200 45
4889870478.4131 -3.5410788 -91.552406 -200 45 -200 45 -200 45
4890870595.0992 -3.5215864 -91.498154 -200 45 -200 45 -200 45
4891870711.7853 -3.5087509 -91.3927 -200 45 -200 45 -200 45
4892870828.4714 -3.491487 -91.305328 -200 45 -200 45 -200 45
4893870945.1575 -3.4720433 -91.236618 -200 45 -200 45 -200 45
4894871061.8436 -3.4468219 -91.174622 -200 45 -200 45 -200 45
4895871178.5298 -3.4356356 -91.065887 -200 45 -200 45 -200 45
4896871295.2159 -3.4363458 -90.909775 -200 45 -200 45 -200 45
4897871411.902 -3.4586346 -90.705338 -200 45 -200 45 -200 45
4898871528.5881 -3.4711218 -90.512627 -200 45 -200 45 -200 45
4899871645.2742 -3.4761171 -90.371391 -200 45 -200 45 -200 45
4900871761.9603 -3.4792871 -90.206718 -200 45 -200 45 -200 45
4901871878.6464 -3.4775093 -90.072441 -200 45 -200 45 -200 45
4902871995.3326 -3.4866529 -89.917664 -200 45 -200 45 -200 45
4903872112.0187 -3.4981971 -89.749756 -200 45 -200 45 -200 45
4904872228.7048 -3.4997506 -89.605186 -200 45 -200 45 -200 45
4905872345.3909 -3.5003393 -89.443863 -200 45 -200 45 -200 45
4906872462.077 -3.5012667 -89.292458 -200 45 -200 45 -200 45
4907872578.7631 -3.5008471 -89.157204 -200 45 -200 45 -200 45
4908872695.4492 -3.5016713 -89.018471 -200 45 -200 45 -200 45
4909872812.1354 -3.500824 -88.910843 -200 45 -200 45 -200 45
4910872928.8215 -3.493721 -88.844978 -200 45 -200 45 -200 45
4911873045.5076 -3.5055435 -88.721313 -200 45 -200 45 -200 45
4912873162.1937 -3.5235865 -88.578651 -200 45 -200 45 -200 45
4913873278.8798 -3.5618236 -88.353241 -200 45 -200 45 -200 45
4914873395.5659 -3.5944161 -88.219231 -200 45 -200 45 -200 45
4915873512.252 -3.6140492 -88.117638 -200 45 -200 45 -200 45
4916873628.9382 -3.6349242 -88.022079 -200 45 -200 45 -200 45
4917873745.6243 -3.6514683 -87.946404 -200 45 -200 45 -200 45
4918873862.3104 -3.6761591 -87.854683 -200 45 -200 45 -200 45
4919873978.9965 -3.6987042 -87.809372 -200 45 -200 45 -200 45
4920874095.6826 -3.720233 -87.746681 -200 45 -200 45 -200 45
4921874212.3687 -3.7329719 -87.69706 -200 45 -200 45 -200 45
4922874329.0548 -3.7459002 -87.69796 -200 45 -200 45 -200 45
4923874445.741 -3.7574475 -87.699043 -200 45 -200 45 -200 45
4924874562.4271 -3.7701039 -87.713303 -200 45 -200 45 -200 45
4925874679.1132 -3.7807598 -87.758133 -200 45 -200 45 -200 45
4926874795.7993 -3.7818158 -87.87912 -200 45 -200 45 -200 45
4927874912.4854 -3.8024755 -87.905663 -200 45 -200 45 -200 45
4928875029.1715 -3.8237615 -87.938202 -200 45 -200 45 -200 45
4929875145.8576 -3.8738742 -87.915726 -200 45 -200 45 -200 45
4930875262.5438 -3.9101481 -87.940353 -200 45 -200 45 -200 45
4931875379.2299 -3.9349473 -88.033752 -200 45 -200 45 -200 45
4932875495.916 -3.957752 -88.131653 -200 45 -200 45 -200 45
4933875612.6021 -3.9752829 -88.225967 -200 45 -200 45 -200 45
4934875729.2882 -3.9994078 -88.334831 -200 45 -200 45 -200 45
4935875845.9743 -4.0238929 -88.466919 -200 45 -200 45 -200 45
4936875962.6604 -4.0393438 -88.609634 -200 45 -200 45 -200 45
4937876079.3466 -4.046267 -88.72303 -200 45 -200 45 -200 45
4938876196.0327 -4.0484328 -88.875977 -200 45 -200 45 -200 45
4939876312.7188 -4.054657 -89.035698 -200 45 -200 45 -200 45
4940876429.4049 -4.057055 -89.215813 -200 45 -200 45 -200 45
4941876546.091 -4.0479469 -89.404602 -200 45 -200 45 -200 45
4942876662.7771 -4.0366883 -89.635872 -200 45 -200 45 -200 45
4943876779.4632 -4.038177 -89.813019 -200 45 -200 45 -200 45
4944876896.1494 -4.0441074 -89.97963 -200 45 -200 45 -200 45
4945877012.8355 -4.0748096 -90.034988 -200 45 -200 45 -200 45
4946877129.5216 -4.0899992 -90.193848 -200 45 -200 45 -200 45
4947877246.2077 -4.0929751 -90.367355 -200 45 -200 45 -200 45
4948877362.8938 -4.0915899 -90.539619 -200 45 -200 45 -200 45
4949877479.5799 -4.088306 -90.729561 -200 45 -200 45 -200 45
4950877596.266 -4.0885811 -90.902863 -200 45 -200 45 -200 45
4951877712.9522 -4.0851498 -91.072083 -200 45 -200 45 -200 45
4952877829.6383 -4.0768547 -91.2677 -200 45 -200 45 -200 45
4953877946.3244 -4.0580044 -91.42868 -200 45 -200 45 -200 45
4954878063.0105 -4.0449414 -91.579216 -200 45 -200 45 -200 45
4955878179.6966 -4.0273914 -91.744644 -200 45 -200 45 -200 45
4956878296.3827 -4.0096526 -91.890678 -200 45 -200 45 -200 45
4957878413.0688 -3.9831512 -92.037476 -200 45 -200 45 -200 45
4958878529.755 -3.952498 -92.246597 -200 45 -200 45 -200 45
4959878646.4411 -3.9447565 -92.316063 -200 45 -200 45 -200 45
4960878763.1272 -3.9359994 -92.387718 -200 45 -200 45 -200 45
4961878879.8133 -3.9561341 -92.376717 -200 45 -200 45 -200 45
4962878996.4994 -3.9633989 -92.379814 -200 45 -200 45 -200 45
4963879113.1855 -3.9568052 -92.425575 -200 45 -200 45 -200 45
4964879229.8716 -3.9509618 -92.434532 -200 45 -200 45 -200 45
4965879346.5578 -3.9372022 -92.430618 -200 45 -200 45 -200 45
4966879463.2439 -3.9341376 -92.404686 -200 45 -200 45 -200 45
4967879579.93 -3.9279356 -92.343803 -200 45 -200 45 -200 45
4968879696.6161 -3.9171059 -92.292488 -200 45 -200 45 -200 45
4969879813.3022 -3.8978751 -92.222687 -200 45 -200 45 -200 45
4970879929.9883 -3.8788204 -92.099823 -200 45 -200 45 -200 45
4971880046.6744 -3.8621061 -91.985741 -200 45 -200 45 -200 45
4972880163.3606 -3.8446882 -91.866631 -200 45 -200 45 -200 45
4973880280.0467 -3.8161848 -91.75074 -200 45 -200 45 -200 45
4974880396.7328 -3.7901454 -91.664375 -200 45 -200 45 -200 45
4975880513.4189 -3.7801783 -91.469475 -200 45 -200 45 -200 45
4976880630.105 -3.7764375 -91.259354 -200 45 -200 45 -200 45
4977880746.7911 -3.7903521 -90.955971 -200 45 -200 45 -200 45
4978880863.4772 -3.793637 -90.731903 -200 45 -200 45 -200 45
4979880980.1634 -3.7864571 -90.50502 -200 45 -200 45 -200 45
4980881096.8495 -3.7734685 -90.279327 -200 45 -200 45 -200 45
4981881213.5356 -3.7644112 -90.052734 -200 45 -200 45 -200 45
4982881330.2217 -3.7584639 -89.818344 -200 45 -200 45 -200 45
4983881446.9078 -3.7474642 -89.597504 -200 45 -200 45 -200 45
4984881563.5939 -3.7367351 -89.352989 -200 45 -200 45 -200 45
4985881680.28 -3.714263 -89.127052 -200 45 -200 45 -200 45
4986881796.9662 -3.695452 -88.902489 -200 45 -200 45 -200 45
4987881913.6523 -3.6794767 -88.680801 -200 45 -200 45 -200 45
4988882030.3384 -3.6600399 -88.497391 -200 45 -200 45 -200 45
4989882147.0245 -3.639082 -88.320213 -200 45 -200 45 -200 45
4990882263.7106 -3.6101873 -88.20192 -200 45 -200 45 -200 45
4991882380.3967 -3.6080852 -88.007263 -200 45 -200 45 -200 45
4992882497.0828 -3.6081383 -87.782707 -200 45 -200 45 -200 45
4993882613.769 -3.6290047 -87.554871 -200 45 -200 45 -200 45
4994882730.4551 -3.6369209 -87.349068 -200 45 -200 45 -200 45
4995882847.1412 -3.6422629 -87.221756 -200 45 -200 45 -200 45
4996882963.8273 -3.6429381 -87.067268 -200 45 -200 45 -200 45
4997883080.5134 -3.6442056 -86.961868 -200 45 -200 45 -200 45
4998883197.1995 -3.6517289 -86.81929 -200 45 -200 45 -200 45
4999883313.8856 -3.6587281 -86.71875 -200 45 -200 45 -200 45
5000883430.5718 -3.6558867 -86.615303 -200 45 -200 45 -200 45
5001883547.2579 -3.6501803 -86.524506 -200 45 -200 45 -200 45
5002883663.944 -3.6516299 -86.476021 -200 45 -200 45 -200 45
5003883780.6301 -3.6462073 -86.451729 -200 45 -200 45 -200 45
5004883897.3162 -3.6414044 -86.438179 -200 45 -200 45 -200 45
5005884014.0023 -3.6255527 -86.483383 -200 45 -200 45 -200 45
5006884130.6884 -3.6318159 -86.470367 -200 45 -200 45 -200 45
5007884247.3746 -3.6458969 -86.4627 -200 45 -200 45 -200 45
5008884364.0607 -3.6810422 -86.417999 -200 45 -200 45 -200 45
5009884480.7468 -3.7049086 -86.442604 -200 45 -200 45 -200 45
5010884597.4329 -3.7176924 -86.479416 -200 45 -200 45 -200 45
5011884714.119 -3.7308657 -86.55835 -200 45 -200 45 -200 45
5012884830.8051 -3.7372322 -86.630371 -200 45 -200 45 -200 45
5013884947.4912 -3.7574501 -86.751999 -200 45 -200 45 -200 45
5014885064.1774 -3.7690163 -86.861649 -200 45 -200 45 -200 45
5015885180.8635 -3.780926 -87.013344 -200 45 -200 45 -200 45
5016885297.5496 -3.7781405 -87.165863 -200 45 -200 45 -200 45
5017885414.2357 -3.7798111 -87.333328 -200 45 -200 45 -200 45
5018885530.9218 -3.787133 -87.503586 -200 45 -200 45 -200 45
5019885647.6079 -3.7809298 -87.706635 -200 45 -200 45 -200 45
5020885764.294 -3.772239 -87.954727 -200 45 -200 45 -200 45
5021885880.9802 -3.7634463 -88.24025 -200 45 -200 45 -200 45
5022885997.6663 -3.7692685 -88.434982 -200 45 -200 45 -200 45
5023886114.3524 -3.787353 -88.60096 -200 45 -200 45 -200 45
5024886231.0385 -3.8147426 -88.738373 -200 45 -200 45 -200 45
5025886347.7246 -3.8307188 -88.960197 -200 45 -200 45 -200 45
5026886464.4107 -3.8370867 -89.184418 -200 45 -200 45 -200 45
5027886581.0968 -3.8419709 -89.424896 -200 45 -200 45 -200 45
5028886697.783 -3.8428779 -89.664894 -200 45 -200 45 -200 45
5029886814.4691 -3.8479984 -89.905815 -200 45 -200 45 -200 45
5030886931.1552 -3.8489423 -90.163254 -200 45 -200 45 -200 45
5031887047.8413 -3.8408527 -90.401703 -200 45 -200 45 -200 45
5032887164.5274 -3.8242977 -90.620735 -200 45 -200 45 -200 45
5033887281.2135 -3.8121176 -90.864075 -200 45 -200 45 -200 45
5034887397.8997 -3.7954998 -91.121986 -200 45 -200 45 -200 45
5035887514.5858 -3.7776647 -91.351456 -200 45 -200 45 -200 45
5036887631.2719 -3.75091 -91.651413 -200 45 -200 45 -200 45
5037887747.958 -3.7261562 -91.891655 -200 45 -200 45 -200 45
5038887864.6441 -3.7200973 -92.0662 -200 45 -200 45 -200 45
5039887981.3302 -3.7282257 -92.176575 -200 45 -200 45 -200 45
5040888098.0163 -3.7380009 -92.311768 -200 45 -200 45 -200 45
5041888214.7025 -3.7348146 -92.486771 -200 45 -200 45 -200 45
5042888331.3886 -3.7239206 -92.620941 -200 45 -200 45 -200 45
5043888448.0747 -3.7111704 -92.772354 -200 45 -200 45 -200 45
5044888564.7608 -3.7007997 -92.910187 -200 45 -200 45 -200 45
5045888681.4469 -3.6884091 -93.020035 -200 45 -200 45 -200 45
5046888798.133 -3.675853 -93.117264 -200 45 -200 45 -200 45
5047888914.8191 -3.6559601 -93.196411 -200 45 -200 45 -200 45
5048889031.5053 -3.6345782 -93.284439 -200 45 -200 45 -200 45
5049889148.1914 -3.6128333 -93.340424 -200 45 -200 45 -200 45
5050889264.8775 -3.5877888 -93.412125 -200 45 -200 45 -200 45
5051889381.5636 -3.5601945 -93.473717 -200 45 -200 45 -200 45
5052889498.2497 -3.5271983 -93.562553 -200 45 -200 45 -200 45
5053889614.9358 -3.5144365 -93.572975 -200 45 -200 45 -200 45
5054889731.6219 -3.5033131 -93.548058 -200 45 -200 45 -200 45
5055889848.3081 -3.5184469 -93.426903 -200 45 -200 45 -200 45
5056889964.9942 -3.5233188 -93.381531 -200 45 -200 45 -200 45
5057890081.6803 -3.5198855 -93.323761 -200 45 -200 45 -200 45
5058890198.3664 -3.5111077 -93.267372 -200 45 -200 45 -200 45
5059890315.0525 -3.5026674 -93.202362 -200 45 -200 45 -200 45
5060890431.7386 -3.5019529 -93.102173 -200 45 -200 45 -200 45
5061890548.4247 -3.502943 -93.032051 -200 45 -200 45 -200 45
5062890665.1109 -3.4972699 -92.932526 -200 45 -200 45 -200 45
5063890781.797 -3.4856653 -92.812897 -200 45 -200 45 -200 45
5064890898.4831 -3.4763131 -92.700729 -200 45 -200 45 -200 45
5065891015.1692 -3.4681556 -92.615051 -200 45 -200 45 -200 45
5066891131.8553 -3.462168 -92.49321 -200 45 -200 45 -200 45
5067891248.5414 -3.4481475 -92.401085 -200 45 -200 45 -200 45
5068891365.2275 -3.4362426 -92.327934 -200 45 -200 45 -200 45
5069891481.9137 -3.4379737 -92.193893 -200 45 -200 45 -200 45
5070891598.5998 -3.454885 -92.019608 -200 45 -200 45 -200 45
5071891715.2859 -3.4866159 -91.795944 -200 45 -200 45 -200 45
5072891831.972 -3.5077586 -91.651237 -200 45 -200 45 -200 45
5073891948.6581 -3.5237858 -91.510414 -200 45 -200 45 -200 45
5074892065.3442 -3.5385509 -91.368248 -200 45 -200 45 -200 45
5075892182.0303 -3.555778 -91.230003 -200 45 -200 45 -200 45
5076892298.7165 -3.5759819 -91.07653 -200 45 -200 45 -200 45
5077892415.4026 -3.5998633 -90.965309 -200 45 -200 45 -200 45
5078892532.0887 -3.6152444 -90.832336 -200 45 -200 45 -200 45
5079892648.7748 -3.6264675 -90.718651 -200 45 -200 45 -200 45
5080892765.4609 -3.642251 -90.592781 -200 45 -200 45 -200 45
5081892882.147 -3.6577208 -90.496613 -200 45 -200 45 -200 45
5082892998.8331 -3.676672 -90.390953 -200 45 -200 45 -200 45
5083893115.5193 -3.6886697 -90.343971 -200 45 -200 45 -200 45
5084893232.2054 -3.7015843 -90.298691 -200 45 -200 45 -200 45
5085893348.8915 -3.7369702 -90.17627 -200 45 -200 45 -200 45
5086893465.5776 -3.7805896 -90.018776 -200 45 -200 45 -200 45
5087893582.2637 -3.8365383 -89.864952 -200 45 -200 45 -200 45
5088893698.9498 -3.8814297 -89.745255 -200 45 -200 45 -200 45
5089893815.6359 -3.9170165 -89.661507 -200 45 -200 45 -200 45
5090893932.3221 -3.9513884 -89.575729 -200 45 -200 45 -200 45
5091894049.0082 -3.9870052 -89.473488 -200 45 -200 45 -200 45
5092894165.6943 -4.0285649 -89.395493 -200 45 -200 45 -200 45
5093894282.3804 -4.0665016 -89.310829 -200 45 -200 45 -200 45
5094894399.0665 -4.0864391 -89.219337 -200 45 -200 45 -200 45
5095894515.7526 -4.1093612 -89.141624 -200 45 -200 45 -200 45
5096894632.4387 -4.1297722 -89.075462 -200 45 -200 45 -200 45
5097894749.1249 -4.1413121 -89.032333 -200 45 -200 45 -200 45
5098894865.811 -4.1499658 -89.012383 -200 45 -200 45 -200 45
5099894982.4971 -4.1493859 -89.048164 -200 45 -200 45 -200 45
5100895099.1832 -4.1550846 -89.081604 -200 45 -200 45 -200 45
5101895215.8693 -4.1744037 -89.057678 -200 45 -200 45 -200 45
5102895332.5554 -4.2081342 -88.98983 -200 45 -200 45 -200 45
5103895449.2415 -4.2372255 -88.978409 -200 45 -200 45 -200 45
5104895565.9277 -4.2495704 -89.017944 -200 45 -200 45 -200 45
5105895682.6138 -4.2566686 -89.090721 -200 45 -200 45 -200 45
5106895799.2999 -4.261147 -89.170509 -200 45 -200 45 -200 45
5107895915.986 -4.263567 -89.24939 -200 45 -200 45 -200 45
5108896032.6721 -4.267138 -89.357399 -200 45 -200 45 -200 45
5109896149.3582 -4.2673869 -89.457657 -200 45 -200 45 -200 45
5110896266.0443 -4.2520723 -89.565163 -200 45 -200 45 -200 45
5111896382.7305 -4.2341518 -89.682396 -200 45 -200 45 -200 45
5112896499.4166 -4.2151618 -89.830605 -200 45 -200 45 -200 45
5113896616.1027 -4.190558 -90.003914 -200 45 -200 45 -200 45
5114896732.7888 -4.1608963 -90.209656 -200 45 -200 45 -200 45
5115896849.4749 -4.1217399 -90.480415 -200 45 -200 45 -200 45
5116896966.161 -4.1028166 -90.636971 -200 45 -200 45 -200 45
5117897082.8471 -4.0893607 -90.802254 -200 45 -200 45 -200 45
5118897199.5333 -4.0957804 -90.889923 -200 45 -200 45 -200 45
5119897316.2194 -4.091258 -91.06134 -200 45 -200 45 -200 45
5120897432.9055 -4.073009 -91.24263 -200 45 -200 45 -200 45
5121897549.5916 -4.0569105 -91.423958 -200 45 -200 45 -200 45
5122897666.2777 -4.0357509 -91.592865 -200 45 -200 45 -200 45
5123897782.9638 -4.0186424 -91.737411 -200 45 -200 45 -200 45
5124897899.6499 -4.0044084 -91.903419 -200 45 -200 45 -200 45
5125898016.3361 -3.9816358 -92.041809 -200 45 -200 45 -200 45
5126898133.0222 -3.9459162 -92.161476 -200 45 -200 45 -200 45
5127898249.7083 -3.9166017 -92.261589 -200 45 -200 45 -200 45
5128898366.3944 -3.8864186 -92.381226 -200 45 -200 45 -200 45
5129898483.0805 -3.8515594 -92.482071 -200 45 -200 45 -200 45
5130898599.7666 -3.8121359 -92.573929 -200 45 -200 45 -200 45
5131898716.4527 -3.7694311 -92.711571 -200 45 -200 45 -200 45
5132898833.1389 -3.7492759 -92.735863 -200 45 -200 45 -200 45
5133898949.825 -3.7399502 -92.723 -200 45 -200 45 -200 45
5134899066.5111 -3.737169 -92.651306 -200 45 -200 45 -200 45
5135899183.1972 -3.7247059 -92.635811 -200 45 -200 45 -200 45
5136899299.8833 -3.7058871 -92.632484 -200 45 -200 45 -200 45
5137899416.5694 -3.6843216 -92.590302 -200 45 -200 45 -200 45
5138899533.2555 -3.662231 -92.533424 -200 45 -200 45 -200 45
5139899649.9417 -3.6444032 -92.488213 -200 45 -200 45 -200 45
5140899766.6278 -3.6281679 -92.427139 -200 45 -200 45 -200 45
5141899883.3139 -3.603426 -92.343315 -200 45 -200 45 -200 45
5142900000 -3.5718212 -92.260002 -200 45 -200 45 -200 45
5143900116.6861 -3.5461214 -92.129425 -200 45 -200 45 -200 45
5144900233.3722 -3.5176156 -92.032463 -200 45 -200 45 -200 45
5145900350.0583 -3.4876499 -91.956284 -200 45 -200 45 -200 45
5146900466.7445 -3.4559751 -91.871117 -200 45 -200 45 -200 45
5147900583.4306 -3.4261563 -91.788208 -200 45 -200 45 -200 45
5148900700.1167 -3.4125812 -91.647888 -200 45 -200 45 -200 45
5149900816.8028 -3.4201202 -91.428207 -200 45 -200 45 -200 45
5150900933.4889 -3.4244528 -91.253906 -200 45 -200 45 -200 45
5151901050.175 -3.4193909 -91.107719 -200 45 -200 45 -200 45
5152901166.8611 -3.4092386 -90.949005 -200 45 -200 45 -200 45
5153901283.5473 -3.4001298 -90.817116 -200 45 -200 45 -200 45
5154901400.2334 -3.398747 -90.663765 -200 45 -200 45 -200 45
5155901516.9195 -3.4000642 -90.516884 -200 45 -200 45 -200 45
5156901633.6056 -3.3943152 -90.391823 -200 45 -200 45 -200 45
5157901750.2917 -3.387846 -90.245003 -200 45 -200 45 -200 45
5158901866.9778 -3.376091 -90.120819 -200 45 -200 45 -200 45
5159901983.6639 -3.3697224 -89.975327 -200 45 -200 45 -200 45
5160902100.3501 -3.3598449 -89.883492 -200 45 -200 45 -200 45
5161902217.0362 -3.3489423 -89.780075 -200 45 -200 45 -200 45
5162902333.7223 -3.3351004 -89.734344 -200 45 -200 45 -200 45
5163902450.4084 -3.337199 -89.670074 -200 45 -200 45 -200 45
5164902567.0945 -3.3461909 -89.544312 -200 45 -200 45 -200 45
5165902683.7806 -3.3836837 -89.379913 -200 45 -200 45 -200 45
5166902800.4667 -3.407129 -89.269012 -200 45 -200 45 -200 45
5167902917.1529 -3.4224346 -89.188889 -200 45 -200 45 -200 45
5168903033.839 -3.4338951 -89.121834 -200 45 -200 45 -200 45
5169903150.5251 -3.445755 -89.10495 -200 45 -200 45 -200 45
5170903267.2112 -3.4692264 -89.049774 -200 45 -200 45 -200 45
5171903383.8973 -3.4896009 -89.059044 -200 45 -200 45 -200 45
5172903500.5834 -3.5059931 -89.050949 -200 45 -200 45 -200 45
5173903617.2695 -3.5116184 -89.043724 -200 45 -200 45 -200 45
5174903733.9557 -3.5210524 -89.092178 -200 45 -200 45 -200 45
5175903850.6418 -3.5323718 -89.124916 -200 45 -200 45 -200 45
5176903967.3279 -3.5408607 -89.185486 -200 45 -200 45 -200 45
5177904084.014 -3.5448272 -89.306534 -200 45 -200 45 -200 45
5178904200.7001 -3.5474701 -89.472076 -200 45 -200 45 -200 45
5179904317.3862 -3.5706942 -89.539253 -200 45 -200 45 -200 45
5180904434.0723 -3.5971019 -89.607971 -200 45 -200 45 -200 45
5181904550.7585 -3.6392274 -89.642227 -200 45 -200 45 -200 45
5182904667.4446 -3.6714656 -89.746819 -200 45 -200 45 -200 45
5183904784.1307 -3.6950183 -89.877686 -200 45 -200 45 -200 45
5184904900.8168 -3.7146451 -90.045044 -200 45 -200 45 -200 45
5185905017.5029 -3.7333279 -90.220589 -200 45 -200 45 -200 45
5186905134.189 -3.7599075 -90.385048 -200 45 -200 45 -200 45
5187905250.8751 -3.7758076 -90.562454 -200 45 -200 45 -200 45
5188905367.5613 -3.7892382 -90.751984 -200 45 -200 45 -200 45
5189905484.2474 -3.7966776 -90.973694 -200 45 -200 45 -200 45
5190905600.9335 -3.8025239 -91.195595 -200 45 -200 45 -200 45
5191905717.6196 -3.8049872 -91.40464 -200 45 -200 45 -200 45
5192905834.3057 -3.8096468 -91.668274 -200 45 -200 45 -200 45
5193905950.9918 -3.800112 -91.961906 -200 45 -200 45 -200 45
5194906067.6779 -3.7895672 -92.234718 -200 45 -200 45 -200 45
5195906184.3641 -3.7987785 -92.46315 -200 45 -200 45 -200 45
5196906301.0502 -3.8249538 -92.627739 -200 45 -200 45 -200 45
5197906417.7363 -3.8500035 -92.82402 -200 45 -200 45 -200 45
5198906534.4224 -3.8616679 -93.011131 -200 45 -200 45 -200 45
5199906651.1085 -3.8678291 -93.273552 -200 45 -200 45 -200 45
5200906767.7946 -3.8652461 -93.480652 -200 45 -200 45 -200 45
5201906884.4807 -3.867687 -93.675697 -200 45 -200 45 -200 45
5202907001.1669 -3.8746324 -93.905914 -200 45 -200 45 -200 45
5203907117.853 -3.8702829 -94.130539 -200 45 -200 45 -200 45
5204907234.5391 -3.8556631 -94.289459 -200 45 -200 45 -200 45
5205907351.2252 -3.8426299 -94.493744 -200 45 -200 45 -200 45
5206907467.9113 -3.8257689 -94.664162 -200 45 -200 45 -200 45
5207907584.5974 -3.8080976 -94.839989 -200 45 -200 45 -200 45
5208907701.2835 -3.7828453 -95.0159 -200 45 -200 45 -200 45
5209907817.9697 -3.7522554 -95.209618 -200 45 -200 45 -200 45
5210907934.6558 -3.7326279 -95.351501 -200 45 -200 45 -200 45
5211908051.3419 -3.7231734 -95.449738 -200 45 -200 45 -200 45
5212908168.028 -3.7308435 -95.441704 -200 45 -200 45 -200 45
5213908284.7141 -3.7358785 -95.506683 -200 45 -200 45 -200 45
5214908401.4002 -3.7280347 -95.5821 -200 45 -200 45 -200 45
5215908518.0863 -3.7127757 -95.609497 -200 45 -200 45 -200 45
5216908634.7725 -3.6926787 -95.651726 -200 45 -200 45 -200 45
5217908751.4586 -3.6851852 -95.662605 -200 45 -200 45 -200 45
5218908868.1447 -3.6726971 -95.671951 -200 45 -200 45 -200 45
5219908984.8308 -3.6570711 -95.665825 -200 45 -200 45 -200 45
5220909101.5169 -3.6324594 -95.623314 -200 45 -200 45 -200 45
5221909218.203 -3.6080701 -95.568718 -200 45 -200 45 -200 45
5222909334.8891 -3.5840132 -95.545776 -200 45 -200 45 -200 45
5223909451.5753 -3.5612779 -95.488358 -200 45 -200 45 -200 45
5224909568.2614 -3.5303197 -95.449211 -200 45 -200 45 -200 45
5225909684.9475 -3.5004828 -95.421898 -200 45 -200 45 -200 45
5226909801.6336 -3.4829221 -95.321518 -200 45 -200 45 -200 45
5227909918.3197 -3.4749441 -95.190437 -200 45 -200 45 -200 45
5228910035.0058 -3.4878111 -95.003906 -200 45 -200 45 -200 45
5229910151.6919 -3.4916396 -94.856689 -200 45 -200 45 -200 45
5230910268.3781 -3.484828 -94.709625 -200 45 -200 45 -200 45
5231910385.0642 -3.4761465 -94.570061 -200 45 -200 45 -200 45
5232910501.7503 -3.4706178 -94.416824 -200 45 -200 45 -200 45
5233910618.4364 -3.4694233 -94.256828 -200 45 -200 45 -200 45
5234910735.1225 -3.4668288 -94.119591 -200 45 -200 45 -200 45
5235910851.8086 -3.461318 -93.941788 -200 45 -200 45 -200 45
5236910968.4947 -3.4521174 -93.799706 -200 45 -200 45 -200 45
5237911085.1809 -3.441797 -93.616943 -200 45 -200 45 -200 45
5238911201.867 -3.4400921 -93.46241 -200 45 -200 45 -200 45
5239911318.5531 -3.4304554 -93.29406 -200 45 -200 45 -200 45
5240911435.2392 -3.4197211 -93.160454 -200 45 -200 45 -200 45
5241911551.9253 -3.4098992 -93.061317 -200 45 -200 45 -200 45
5242911668.6114 -3.4195452 -92.882202 -200 45 -200 45 -200 45
5243911785.2976 -3.4376469 -92.65519 -200 45 -200 45 -200 45
5244911901.9837 -3.4709167 -92.400017 -200 45 -200 45 -200 45
5245912018.6698 -3.489162 -92.22345 -200 45 -200 45 -200 45
5246912135.3559 -3.5026293 -92.042023 -200 45 -200 45 -200 45
5247912252.042 -3.5144989 -91.892082 -200 45 -200 45 -200 45
5248912368.7281 -3.5316463 -91.717857 -200 45 -200 45 -200 45
5249912485.4142 -3.5505486 -91.573868 -200 45 -200 45 -200 45
5250912602.1004 -3.5694702 -91.430428 -200 45 -200 45 -200 45
5251912718.7865 -3.5757163 -91.269844 -200 45 -200 45 -200 45
5252912835.4726 -3.5828309 -91.156113 -200 45 -200 45 -200 45
5253912952.1587 -3.592984 -91.040588 -200 45 -200 45 -200 45
5254913068.8448 -3.5992312 -90.943886 -200 45 -200 45 -200 45
5255913185.5309 -3.6044042 -90.892784 -200 45 -200 45 -200 45
5256913302.217 -3.6029592 -90.893936 -200 45 -200 45 -200 45
5257913418.9032 -3.6089058 -90.880402 -200 45 -200 45 -200 45
5258913535.5893 -3.6260343 -90.838058 -200 45 -200 45 -200 45
5259913652.2754 -3.6604269 -90.718292 -200 45 -200 45 -200 45
5260913768.9615 -3.6961851 -90.664413 -200 45 -200 45 -200 45
5261913885.6476 -3.7178407 -90.651596 -200 45 -200 45 -200 45
5262914002.3337 -3.7365639 -90.694847 -200 45 -200 45 -200 45
5263914119.0198 -3.7558093 -90.740379 -200 45 -200 45 -200 45
5264914235.706 -3.7760425 -90.803673 -200 45 -200 45 -200 45
5265914352.3921 -3.7952807 -90.884911 -200 45 -200 45 -200 45
5266914469.0782 -3.8136725 -90.982071 -200 45 -200 45 -200 45
5267914585.7643 -3.8179369 -91.103058 -200 45 -200 45 -200 45
5268914702.4504 -3.8228703 -91.232918 -200 45 -200 45 -200 45
5269914819.1365 -3.8270578 -91.381691 -200 45 -200 45 -200 45
5270914935.8226 -3.8331144 -91.558113 -200 45 -200 45 -200 45
5271915052.5088 -3.8287871 -91.78344 -200 45 -200 45 -200 45
5272915169.1949 -3.8223679 -92.04155 -200 45 -200 45 -200 45
5273915285.881 -3.8284519 -92.246719 -200 45 -200 45 -200 45
5274915402.5671 -3.8406549 -92.432976 -200 45 -200 45 -200 45
5275915519.2532 -3.8789358 -92.563515 -200 45 -200 45 -200 45
5276915635.9393 -3.8995235 -92.724586 -200 45 -200 45 -200 45
5277915752.6254 -3.911083 -92.937103 -200 45 -200 45 -200 45
5278915869.3116 -3.9172919 -93.192398 -200 45 -200 45 -200 45
5279915985.9977 -3.9196241 -93.427429 -200 45 -200 45 -200 45
5280916102.6838 -3.9296505 -93.659561 -200 45 -200 45 -200 45
5281916219.3699 -3.9328899 -93.897285 -200 45 -200 45 -200 45
5282916336.056 -3.9302566 -94.132408 -200 45 -200 45 -200 45
5283916452.7421 -3.9234614 -94.364662 -200 45 -200 45 -200 45
5284916569.4282 -3.9066329 -94.60408 -200 45 -200 45 -200 45
5285916686.1144 -3.8937199 -94.838684 -200 45 -200 45 -200 45
5286916802.8005 -3.8785911 -95.067383 -200 45 -200 45 -200 45
5287916919.4866 -3.8532708 -95.307831 -200 45 -200 45 -200 45
5288917036.1727 -3.8261273 -95.593155 -200 45 -200 45 -200 45
5289917152.8588 -3.8141658 -95.774269 -200 45 -200 45 -200 45
5290917269.5449 -3.8127363 -95.91436 -200 45 -200 45 -200 45
5291917386.231 -3.822829 -95.99791 -200 45 -200 45 -200 45
5292917502.9172 -3.8193882 -96.131195 -200 45 -200 45 -200 45
5293917619.6033 -3.8143604 -96.296318 -200 45 -200 45 -200 45
5294917736.2894 -3.7941351 -96.433006 -200 45 -200 45 -200 45
5295917852.9755 -3.7794008 -96.547646 -200 45 -200 45 -200 45
5296917969.6616 -3.7671845 -96.661224 -200 45 -200 45 -200 45
5297918086.3477 -3.7527044 -96.764755 -200 45 -200 45 -200 45
5298918203.0338 -3.7302072 -96.840744 -200 45 -200 45 -200 45
5299918319.72 -3.7054088 -96.896751 -200 45 -200 45 -200 45
5300918436.4061 -3.67872 -96.94146 -200 45 -200 45 -200 45
5301918553.0922 -3.6535325 -96.986229 -200 45 -200 45 -200 45
5302918669.7783 -3.6263165 -97.02372 -200 45 -200 45 -200 45
5303918786.4644 -3.5909717 -97.080681 -200 45 -200 45 -200 45
5304918903.1505 -3.5565379 -97.101646 -200 45 -200 45 -200 45
5305919019.8366 -3.5445857 -97.063225 -200 45 -200 45 -200 45
5306919136.5228 -3.5445111 -96.956329 -200 45 -200 45 -200 45
5307919253.2089 -3.5500951 -96.837135 -200 45 -200 45 -200 45
5308919369.895 -3.543041 -96.7547 -200 45 -200 45 -200 45
5309919486.5811 -3.5297632 -96.654472 -200 45 -200 45 -200 45
5310919603.2672 -3.5159643 -96.57093 -200 45 -200 45 -200 45
5311919719.9533 -3.5020998 -96.451775 -200 45 -200 45 -200 45
5312919836.6394 -3.4927213 -96.318863 -200 45 -200 45 -200 45
5313919953.3256 -3.4828684 -96.198845 -200 45 -200 45 -200 45
5314920070.0117 -3.4639251 -96.034302 -200 45 -200 45 -200 45
5315920186.6978 -3.4427824 -95.894112 -200 45 -200 45 -200 45
5316920303.3839 -3.4279444 -95.721603 -200 45 -200 45 -200 45
5317920420.07 -3.4094901 -95.594154 -200 45 -200 45 -200 45
5318920536.7561 -3.3898683 -95.445709 -200 45 -200 45 -200 45
5319920653.4422 -3.3649297 -95.332512 -200 45 -200 45 -200 45
5320920770.1284 -3.3504405 -95.20575 -200 45 -200 45 -200 45
5321920886.8145 -3.3461707 -95.018532 -200 45 -200 45 -200 45
5322921003.5006 -3.3693385 -94.787827 -200 45 -200 45 -200 45
5323921120.1867 -3.3837936 -94.581085 -200 45 -200 45 -200 45
5324921236.8728 -3.3892641 -94.405594 -200 45 -200 45 -200 45
5325921353.5589 -3.3911202 -94.231682 -200 45 -200 45 -200 45
5326921470.245 -3.3916204 -94.081924 -200 45 -200 45 -200 45
5327921586.9312 -3.4026632 -93.927246 -200 45 -200 45 -200 45
5328921703.6173 -3.4148452 -93.780891 -200 45 -200 45 -200 45
5329921820.3034 -3.4208426 -93.623772 -200 45 -200 45 -200 45
5330921936.9895 -3.4214666 -93.474632 -200 45 -200 45 -200 45
5331922053.6756 -3.4241235 -93.35791 -200 45 -200 45 -200 45
5332922170.3617 -3.4281499 -93.22261 -200 45 -200 45 -200 45
5333922287.0478 -3.4305303 -93.123146 -200 45 -200 45 -200 45
5334922403.734 -3.4322557 -93.035614 -200 45 -200 45 -200 45
5335922520.4201 -3.4291468 -92.984535 -200 45 -200 45 -200 45
5336922637.1062 -3.4413586 -92.952179 -200 45 -200 45 -200 45
5337922753.7923 -3.4631631 -92.82473 -200 45 -200 45 -200 45
5338922870.4784 -3.506443 -92.670242 -200 45 -200 45 -200 45
5339922987.1645 -3.5377965 -92.583733 -200 45 -200 45 -200 45
5340923103.8506 -3.5605562 -92.538246 -200 45 -200 45 -200 45
5341923220.5368 -3.5800283 -92.5112 -200 45 -200 45 -200 45
5342923337.2229 -3.6035368 -92.481369 -200 45 -200 45 -200 45
5343923453.909 -3.6282787 -92.514534 -200 45 -200 45 -200 45
5344923570.5951 -3.6522653 -92.507759 -200 45 -200 45 -200 45
5345923687.2812 -3.6673996 -92.550072 -200 45 -200 45 -200 45
5346923803.9673 -3.6823313 -92.596519 -200 45 -200 45 -200 45
5347923920.6534 -3.6936808 -92.646141 -200 45 -200 45 -200 45
5348924037.3396 -3.7059505 -92.741028 -200 45 -200 45 -200 45
5349924154.0257 -3.7189586 -92.84845 -200 45 -200 45 -200 45
5350924270.7118 -3.7207308 -93.008606 -200 45 -200 45 -200 45
5351924387.3979 -3.7248294 -93.189018 -200 45 -200 45 -200 45
5352924504.084 -3.7456346 -93.306618 -200 45 -200 45 -200 45
5353924620.7701 -3.7741373 -93.412323 -200 45 -200 45 -200 45
5354924737.4562 -3.8134263 -93.499168 -200 45 -200 45 -200 45
5355924854.1424 -3.8417864 -93.646423 -200 45 -200 45 -200 45
5356924970.8285 -3.8575215 -93.82457 -200 45 -200 45 -200 45
5357925087.5146 -3.8751404 -94.017769 -200 45 -200 45 -200 45
5358925204.2007 -3.8903573 -94.197792 -200 45 -200 45 -200 45
5359925320.8868 -3.9055774 -94.42318 -200 45 -200 45 -200 45
5360925437.5729 -3.917388 -94.659111 -200 45 -200 45 -200 45
5361925554.259 -3.923955 -94.866379 -200 45 -200 45 -200 45
5362925670.9452 -3.9201484 -95.090492 -200 45 -200 45 -200 45
5363925787.6313 -3.9166152 -95.349472 -200 45 -200 45 -200 45
5364925904.3174 -3.908884 -95.565491 -200 45 -200 45 -200 45
5365926021.0035 -3.9018066 -95.819351 -200 45 -200 45 -200 45
5366926137.6896 -3.8816774 -96.109245 -200 45 -200 45 -200 45
5367926254.3757 -3.8678071 -96.380829 -200 45 -200 45 -200 45
5368926371.0618 -3.8669722 -96.599304 -200 45 -200 45 -200 45
5369926487.748 -3.887151 -96.7603 -200 45 -200 45 -200 45
5370926604.4341 -3.901319 -96.916191 -200 45 -200 45 -200 45
5371926721.1202 -3.9012809 -97.113731 -200 45 -200 45 -200 45
5372926837.8063 -3.8947828 -97.31646 -200 45 -200 45 -200 45
5373926954.4924 -3.8840616 -97.50531 -200 45 -200 45 -200 45
5374927071.1785 -3.8793395 -97.69574 -200 45 -200 45 -200 45
5375927187.8646 -3.8722832 -97.901245 -200 45 -200 45 -200 45
5376927304.5508 -3.861016 -98.044441 -200 45 -200 45 -200 45
5377927421.2369 -3.838629 -98.184204 -200 45 -200 45 -200 45
5378927537.923 -3.8144164 -98.313965 -200 45 -200 45 -200 45
5379927654.6091 -3.7909346 -98.451866 -200 45 -200 45 -200 45
5380927771.2952 -3.7653635 -98.57296 -200 45 -200 45 -200 45
5381927887.9813 -3.7351456 -98.693077 -200 45 -200 45 -200 45
5382928004.6674 -3.6984487 -98.834061 -200 45 -200 45 -200 45
5383928121.3536 -3.6796758 -98.916077 -200 45 -200 45 -200 45
5384928238.0397 -3.6641042 -98.942001 -200 45 -200 45 -200 45
5385928354.7258 -3.6736665 -98.892563 -200 45 -200 45 -200 45
5386928471.4119 -3.671133 -98.883698 -200 45 -200 45 -200 45
5387928588.098 -3.6575692 -98.878609 -200 45 -200 45 -200 45
5388928704.7841 -3.6417279 -98.85952 -200 45 -200 45 -200 45
5389928821.4702 -3.6267798 -98.837273 -200 45 -200 45 -200 45
5390928938.1564 -3.6164246 -98.806808 -200 45 -200 45 -200 45
5391929054.8425 -3.6053593 -98.757851 -200 45 -200 45 -200 45
5392929171.5286 -3.5896349 -98.692741 -200 45 -200 45 -200 45
5393929288.2147 -3.5671706 -98.593475 -200 45 -200 45 -200 45
5394929404.9008 -3.5442972 -98.529922 -200 45 -200 45 -200 45
5395929521.5869 -3.5266941 -98.397713 -200 45 -200 45 -200 45
5396929638.273 -3.5048661 -98.313461 -200 45 -200 45 -200 45
5397929754.9592 -3.4817214 -98.227226 -200 45 -200 45 -200 45
5398929871.6453 -3.4520516 -98.151886 -200 45 -200 45 -200 45
5399929988.3314 -3.4469523 -97.989456 -200 45 -200 45 -200 45
5400930105.0175 -3.4492972 -97.8311 -200 45 -200 45 -200 45
5401930221.7036 -3.4680843 -97.59803 -200 45 -200 45 -200 45
5402930338.3897 -3.4715853 -97.408707 -200 45 -200 45 -200 45
5403930455.0758 -3.4734654 -97.2472 -200 45 -200 45 -200 45
5404930571.762 -3.471633 -97.078018 -200 45 -200 45 -200 45
5405930688.4481 -3.4757371 -96.906151 -200 45 -200 45 -200 45
5406930805.1342 -3.4813681 -96.731361 -200 45 -200 45 -200 45
5407930921.8203 -3.4849269 -96.5467 -200 45 -200 45 -200 45
5408931038.5064 -3.4844427 -96.377151 -200 45 -200 45 -200 45
5409931155.1925 -3.4816368 -96.17878 -200 45 -200 45 -200 45
5410931271.8786 -3.4825809 -96.015831 -200 45 -200 45 -200 45
5411931388.5648 -3.4836473 -95.830032 -200 45 -200 45 -200 45
5412931505.2509 -3.4835012 -95.691605 -200 45 -200 45 -200 45
5413931621.937 -3.4770443 -95.561714 -200 45 -200 45 -200 45
5414931738.6231 -3.4767296 -95.46682 -200 45 -200 45 -200 45
5415931855.3092 -3.4935827 -95.27182 -200 45 -200 45 -200 45
5416931971.9953 -3.5162754 -95.040756 -200 45 -200 45 -200 45
5417932088.6814 -3.5519543 -94.864716 -200 45 -200 45 -200 45
5418932205.3676 -3.577867 -94.700996 -200 45 -200 45 -200 45
5419932322.0537 -3.5949152 -94.567284 -200 45 -200 45 -200 45
5420932438.7398 -3.6088431 -94.447533 -200 45 -200 45 -200 45
5421932555.4259 -3.6335542 -94.337364 -200 45 -200 45 -200 45
5422932672.112 -3.6562028 -94.25045 -200 45 -200 45 -200 45
5423932788.7981 -3.6725202 -94.154228 -200 45 -200 45 -200 45
5424932905.4842 -3.6825721 -94.102867 -200 45 -200 45 -200 45
5425933022.1704 -3.6942019 -94.063553 -200 45 -200 45 -200 45
5426933138.8565 -3.7058065 -94.04068 -200 45 -200 45 -200 45
5427933255.5426 -3.7156682 -94.045952 -200 45 -200 45 -200 45
5428933372.2287 -3.7232842 -94.080551 -200 45 -200 45 -200 45
5429933488.9148 -3.7246752 -94.1521 -200 45 -200 45 -200 45
5430933605.6009 -3.7356384 -94.227737 -200 45 -200 45 -200 45
5431933722.287 -3.755363 -94.258286 -200 45 -200 45 -200 45
5432933838.9732 -3.7985418 -94.231651 -200 45 -200 45 -200 45
5433933955.6593 -3.8351431 -94.266029 -200 45 -200 45 -200 45
5434934072.3454 -3.858326 -94.365112 -200 45 -200 45 -200 45
5435934189.0315 -3.8789191 -94.493324 -200 45 -200 45 -200 45
5436934305.7176 -3.8942404 -94.602837 -200 45 -200 45 -200 45
5437934422.4037 -3.9157252 -94.776657 -200 45 -200 45 -200 45
5438934539.0898 -3.9365807 -94.91597 -200 45 -200 45 -200 45
5439934655.776 -3.9521756 -95.089638 -200 45 -200 45 -200 45
5440934772.4621 -3.9560499 -95.26313 -200 45 -200 45 -200 45
5441934889.1482 -3.959518 -95.468674 -200 45 -200 45 -200 45
5442935005.8343 -3.9651935 -95.671577 -200 45 -200 45 -200 45
5443935122.5204 -3.9608116 -95.900055 -200 45 -200 45 -200 45
5444935239.2065 -3.9542654 -96.161163 -200 45 -200 45 -200 45
5445935355.8926 -3.9433081 -96.459846 -200 45 -200 45 -200 45
5446935472.5788 -3.9437766 -96.710991 -200 45 -200 45 -200 45
5447935589.2649 -3.9522352 -96.875526 -200 45 -200 45 -200 45
5448935705.951 -3.9818883 -97.063095 -200 45 -200 45 -200 45
5449935822.6371 -3.996906 -97.266388 -200 45 -200 45 -200 45
5450935939.3232 -3.999908 -97.496719 -200 45 -200 45 -200 45
5451936056.0093 -3.9945221 -97.75605 -200 45 -200 45 -200 45
5452936172.6954 -3.9911764 -97.942322 -200 45 -200 45 -200 45
5453936289.3816 -3.9921134 -98.200813 -200 45 -200 45 -200 45
5454936406.0677 -3.9883382 -98.413658 -200 45 -200 45 -200 45
5455936522.7538 -3.978878 -98.623672 -200 45 -200 45 -200 45
5456936639.4399 -3.9546611 -98.834793 -200 45 -200 45 -200 45
5457936756.126 -3.9375558 -99.019188 -200 45 -200 45 -200 45
5458936872.8121 -3.9181612 -99.228706 -200 45 -200 45 -200 45
5459936989.4983 -3.891325 -99.422249 -200 45 -200 45 -200 45
5460937106.1844 -3.8616767 -99.632164 -200 45 -200 45 -200 45
5461937222.8705 -3.825618 -99.840988 -200 45 -200 45 -200 45
5462937339.5566 -3.8118081 -99.977379 -200 45 -200 45 -200 45
5463937456.2427 -3.8105063 -100.04871 -200 45 -200 45 -200 45
5464937572.9288 -3.816582 -100.10661 -200 45 -200 45 -200 45
5465937689.6149 -3.8058848 -100.18119 -200 45 -200 45 -200 45
5466937806.3011 -3.7919834 -100.26458 -200 45 -200 45 -200 45
5467937922.9872 -3.7712965 -100.34374 -200 45 -200 45 -200 45
5468938039.6733 -3.7567647 -100.39314 -200 45 -200 45 -200 45
5469938156.3594 -3.7413476 -100.41433 -200 45 -200 45 -200 45
5470938273.0455 -3.7257109 -100.44255 -200 45 -200 45 -200 45
5471938389.7316 -3.7016327 -100.44911 -200 45 -200 45 -200 45
5472938506.4177 -3.6734822 -100.43225 -200 45 -200 45 -200 45
5473938623.1039 -3.6490276 -100.39793 -200 45 -200 45 -200 45
5474938739.79 -3.6215909 -100.37992 -200 45 -200 45 -200 45
5475938856.4761 -3.5962107 -100.30546 -200 45 -200 45 -200 45
5476938973.1622 -3.5637758 -100.33738 -200 45 -200 45 -200 45
5477939089.8483 -3.5366726 -100.29251 -200 45 -200 45 -200 45
5478939206.5344 -3.5232477 -100.16295 -200 45 -200 45 -200 45
5479939323.2205 -3.5302942 -99.990448 -200 45 -200 45 -200 45
5480939439.9067 -3.5389845 -99.841911 -200 45 -200 45 -200 45
5481939556.5928 -3.5325875 -99.681526 -200 45 -200 45 -200 45
5482939673.2789 -3.5244904 -99.556808 -200 45 -200 45 -200 45
5483939789.965 -3.5158081 -99.408882 -200 45 -200 45 -200 45
5484939906.6511 -3.5120196 -99.2715 -200 45 -200 45 -200 45
5485940023.3372 -3.5100729 -99.115822 -200 45 -200 45 -200 45
5486940140.0233 -3.5066373 -98.951256 -200 45 -200 45 -200 45
5487940256.7095 -3.491255 -98.769028 -200 45 -200 45 -200 45
5488940373.3956 -3.4810095 -98.604347 -200 45 -200 45 -200 45
5489940490.0817 -3.4721847 -98.422943 -200 45 -200 45 -200 45
5490940606.7678 -3.4650064 -98.266701 -200 45 -200 45 -200 45
5491940723.4539 -3.4522603 -98.113716 -200 45 -200 45 -200 45
5492940840.14 -3.4381549 -97.992134 -200 45 -200 45 -200 45
5493940956.8261 -3.4366453 -97.816048 -200 45 -200 45 -200 45
5494941073.5123 -3.4496584 -97.632751 -200 45 -200 45 -200 45
5495941190.1984 -3.4779904 -97.386284 -200 45 -200 45 -200 45
5496941306.8845 -3.4969976 -97.171875 -200 45 -200 45 -200 45
5497941423.5706 -3.5106769 -97.003929 -200 45 -200 45 -200 45
5498941540.2567 -3.5214279 -96.83725 -200 45 -200 45 -200 45
5499941656.9428 -3.5353935 -96.685387 -200 45 -200 45 -200 45
5500941773.6289 -3.5525665 -96.537872 -200 45 -200 45 -200 45
5501941890.3151 -3.5720117 -96.384163 -200 45 -200 45 -200 45
5502942007.0012 -3.5880253 -96.267464 -200 45 -200 45 -200 45
5503942123.6873 -3.5966833 -96.143639 -200 45 -200 45 -200 45
5504942240.3734 -3.6023111 -96.03759 -200 45 -200 45 -200 45
5505942357.0595 -3.615834 -95.957756 -200 45 -200 45 -200 45
5506942473.7456 -3.622396 -95.90155 -200 45 -200 45 -200 45
5507942590.4317 -3.6257429 -95.86631 -200 45 -200 45 -200 45
5508942707.1179 -3.6308393 -95.877571 -200 45 -200 45 -200 45
5509942823.804 -3.6529 -95.851669 -200 45 -200 45 -200 45
5510942940.4901 -3.681335 -95.756378 -200 45 -200 45 -200 45
5511943057.1762 -3.7282617 -95.663071 -200 45 -200 45 -200 45
5512943173.8623 -3.7605612 -95.651657 -200 45 -200 45 -200 45
5513943290.5484 -3.7870471 -95.671471 -200 45 -200 45 -200 45
5514943407.2345 -3.8066163 -95.692268 -200 45 -200 45 -200 45
5515943523.9207 -3.8327796 -95.732414 -200 45 -200 45 -200 45
5516943640.6068 -3.860745 -95.808304 -200 45 -200 45 -200 45
5517943757.2929 -3.8890576 -95.879478 -200 45 -200 45 -200 45
5518943873.979 -3.9018707 -95.998856 -200 45 -200 45 -200 45
5519943990.6651 -3.9153676 -96.101906 -200 45 -200 45 -200 45
5520944107.3512 -3.925071 -96.245094 -200 45 -200 45 -200 45
5521944224.0373 -3.9386983 -96.376808 -200 45 -200 45 -200 45
5522944340.7235 -3.9460094 -96.534958 -200 45 -200 45 -200 45
5523944457.4096 -3.9413848 -96.790855 -200 45 -200 45 -200 45
5524944574.0957 -3.9473066 -97.021416 -200 45 -200 45 -200 45
5525944690.7818 -3.9611616 -97.193604 -200 45 -200 45 -200 45
5526944807.4679 -3.9929299 -97.303261 -200 45 -200 45 -200 45
5527944924.154 -4.0270495 -97.472565 -200 45 -200 45 -200 45
5528945040.8401 -4.046833 -97.67981 -200 45 -200 45 -200 45
5529945157.5263 -4.0565457 -97.901405 -200 45 -200 45 -200 45
5530945274.2124 -4.0609746 -98.103775 -200 45 -200 45 -200 45
5531945390.8985 -4.0739832 -98.359123 -200 45 -200 45 -200 45
5532945507.5846 -4.0836315 -98.590286 -200 45 -200 45 -200 45
5533945624.2707 -4.0864496 -98.828896 -200 45 -200 45 -200 45
5534945740.9568 -4.0804677 -99.058762 -200 45 -200 45 -200 45
5535945857.6429 -4.0711198 -99.305428 -200 45 -200 45 -200 45
5536945974.3291 -4.0585208 -99.531212 -200 45 -200 45 -200 45
5537946091.0152 -4.0465012 -99.779617 -200 45 -200 45 -200 45
5538946207.7013 -4.0276418 -100.02449 -200 45 -200 45 -200 45
5539946324.3874 -3.9996703 -100.28342 -200 45 -200 45 -200 45
5540946441.0735 -3.9822776 -100.54672 -200 45 -200 45 -200 45
5541946557.7596 -3.9802165 -100.71329 -200 45 -200 45 -200 45
5542946674.4457 -3.9917963 -100.83237 -200 45 -200 45 -200 45
5543946791.1319 -3.9932008 -100.98195 -200 45 -200 45 -200 45
5544946907.818 -3.987623 -101.14247 -200 45 -200 45 -200 45
5545947024.5041 -3.9736342 -101.31361 -200 45 -200 45 -200 45
5546947141.1902 -3.9586277 -101.44457 -200 45 -200 45 -200 45
5547947257.8763 -3.9473264 -101.58319 -200 45 -200 45 -200 45
5548947374.5624 -3.9343092 -101.71227 -200 45 -200 45 -200 45
5549947491.2485 -3.9183517 -101.81308 -200 45 -200 45 -200 45
5550947607.9347 -3.8896761 -101.90233 -200 45 -200 45 -200 45
5551947724.6208 -3.863694 -101.95294 -200 45 -200 45 -200 45
5552947841.3069 -3.8382213 -102.01167 -200 45 -200 45 -200 45
5553947957.993 -3.8097627 -102.09149 -200 45 -200 45 -200 45
5554948074.6791 -3.7754395 -102.14884 -200 45 -200 45 -200 45
5555948191.3652 -3.7392914 -102.19569 -200 45 -200 45 -200 45
5556948308.0513 -3.7226381 -102.20031 -200 45 -200 45 -200 45
5557948424.7375 -3.7117538 -102.15285 -200 45 -200 45 -200 45
5558948541.4236 -3.7182152 -102.04709 -200 45 -200 45 -200 45
5559948658.1097 -3.710587 -101.96214 -200 45 -200 45 -200 45
5560948774.7958 -3.7057736 -101.91891 -200 45 -200 45 -200 45
5561948891.4819 -3.6861463 -101.8191 -200 45 -200 45 -200 45
5562949008.168 -3.6704371 -101.74356 -200 45 -200 45 -200 45
5563949124.8541 -3.664228 -101.64021 -200 45 -200 45 -200 45
5564949241.5403 -3.6586721 -101.53028 -200 45 -200 45 -200 45
5565949358.2264 -3.6390605 -101.4329 -200 45 -200 45 -200 45
5566949474.9125 -3.6231532 -101.26955 -200 45 -200 45 -200 45
5567949591.5986 -3.60379 -101.1398 -200 45 -200 45 -200 45
5568949708.2847 -3.5907674 -101.00466 -200 45 -200 45 -200 45
5569949824.9708 -3.5744436 -100.85818 -200 45 -200 45 -200 45
5570949941.6569 -3.5534747 -100.74338 -200 45 -200 45 -200 45
5571950058.3431 -3.5306499 -100.62823 -200 45 -200 45 -200 45
5572950175.0292 -3.5330291 -100.44508 -200 45 -200 45 -200 45
5573950291.7153 -3.5460889 -100.21971 -200 45 -200 45 -200 45
5574950408.4014 -3.5649312 -100.00182 -200 45 -200 45 -200 45
5575950525.0875 -3.5731909 -99.803406 -200 45 -200 45 -200 45
5576950641.7736 -3.5776265 -99.61953 -200 45 -200 45 -200 45
5577950758.4597 -3.5850809 -99.439224 -200 45 -200 45 -200 45
5578950875.1459 -3.5919061 -99.265541 -200 45 -200 45 -200 45
5579950991.832 -3.6021824 -99.087631 -200 45 -200 45 -200 45
5580951108.5181 -3.6148703 -98.898849 -200 45 -200 45 -200 45
5581951225.2042 -3.6180327 -98.744339 -200 45 -200 45 -200 45
5582951341.8903 -3.6182401 -98.557098 -200 45 -200 45 -200 45
5583951458.5764 -3.6229 -98.422745 -200 45 -200 45 -200 45
5584951575.2625 -3.6290576 -98.293518 -200 45 -200 45 -200 45
5585951691.9487 -3.6338074 -98.178612 -200 45 -200 45 -200 45
5586951808.6348 -3.6302462 -98.114342 -200 45 -200 45 -200 45
5587951925.3209 -3.6362474 -98.026802 -200 45 -200 45 -200 45
5588952042.007 -3.6527665 -97.90139 -200 45 -200 45 -200 45
5589952158.6931 -3.6921365 -97.71714 -200 45 -200 45 -200 45
5590952275.3792 -3.7315707 -97.603271 -200 45 -200 45 -200 45
5591952392.0653 -3.7534382 -97.525558 -200 45 -200 45 -200 45
5592952508.7515 -3.7788141 -97.47599 -200 45 -200 45 -200 45
5593952625.4376 -3.7981746 -97.422928 -200 45 -200 45 -200 45
5594952742.1237 -3.8230824 -97.402855 -200 45 -200 45 -200 45
5595952858.8098 -3.850019 -97.377975 -200 45 -200 45 -200 45
5596952975.4959 -3.8758874 -97.379837 -200 45 -200 45 -200 45
5597953092.182 -3.8869419 -97.391792 -200 45 -200 45 -200 45
5598953208.8681 -3.8986475 -97.43322 -200 45 -200 45 -200 45
5599953325.5543 -3.9149849 -97.467873 -200 45 -200 45 -200 45
5600953442.2404 -3.9282944 -97.567474 -200 45 -200 45 -200 45
5601953558.9265 -3.9326594 -97.648407 -200 45 -200 45 -200 45
5602953675.6126 -3.9404733 -97.805878 -200 45 -200 45 -200 45
5603953792.2987 -3.9540434 -97.947159 -200 45 -200 45 -200 45
5604953908.9848 -3.9792056 -98.028595 -200 45 -200 45 -200 45
5605954025.6709 -4.0220156 -98.066391 -200 45 -200 45 -200 45
5606954142.3571 -4.0545125 -98.197289 -200 45 -200 45 -200 45
5607954259.0432 -4.0763307 -98.348274 -200 45 -200 45 -200 45
5608954375.7293 -4.0944715 -98.514809 -200 45 -200 45 -200 45
5609954492.4154 -4.1076174 -98.700363 -200 45 -200 45 -200 45
5610954609.1015 -4.1282525 -98.881378 -200 45 -200 45 -200 45
5611954725.7876 -4.1435742 -99.093353 -200 45 -200 45 -200 45
5612954842.4737 -4.1546345 -99.301674 -200 45 -200 45 -200 45
5613954959.1599 -4.1529717 -99.516136 -200 45 -200 45 -200 45
5614955075.846 -4.1502147 -99.728531 -200 45 -200 45 -200 45
5615955192.5321 -4.1516104 -99.960114 -200 45 -200 45 -200 45
5616955309.2182 -4.1457582 -100.19622 -200 45 -200 45 -200 45
5617955425.9043 -4.1285119 -100.46897 -200 45 -200 45 -200 45
5618955542.5904 -4.1157231 -100.76208 -200 45 -200 45 -200 45
5619955659.2765 -4.1138787 -100.98879 -200 45 -200 45 -200 45
5620955775.9627 -4.1246333 -101.1632 -200 45 -200 45 -200 45
5621955892.6488 -4.1470418 -101.30981 -200 45 -200 45 -200 45
5622956009.3349 -4.1515141 -101.50874 -200 45 -200 45 -200 45
5623956126.021 -4.1480412 -101.72215 -200 45 -200 45 -200 45
5624956242.7071 -4.1424136 -101.91714 -200 45 -200 45 -200 45
5625956359.3932 -4.1325088 -102.08945 -200 45 -200 45 -200 45
5626956476.0793 -4.1276937 -102.29288 -200 45 -200 45 -200 45
5627956592.7655 -4.1213112 -102.46381 -200 45 -200 45 -200 45
5628956709.4516 -4.1049724 -102.61781 -200 45 -200 45 -200 45
5629956826.1377 -4.082211 -102.76366 -200 45 -200 45 -200 45
5630956942.8238 -4.0612149 -102.90099 -200 45 -200 45 -200 45
5631957059.5099 -4.0405898 -103.02532 -200 45 -200 45 -200 45
5632957176.196 -4.0129619 -103.17846 -200 45 -200 45 -200 45
5633957292.8821 -3.9760895 -103.30669 -200 45 -200 45 -200 45
5634957409.5683 -3.9500768 -103.40088 -200 45 -200 45 -200 45
5635957526.2544 -3.9361544 -103.45016 -200 45 -200 45 -200 45
5636957642.9405 -3.9387212 -103.42458 -200 45 -200 45 -200 45
5637957759.6266 -3.9423635 -103.41436 -200 45 -200 45 -200 45
5638957876.3127 -3.9352431 -103.41066 -200 45 -200 45 -200 45
5639957992.9988 -3.9227872 -103.40963 -200 45 -200 45 -200 45
5640958109.6849 -3.9040205 -103.38859 -200 45 -200 45 -200 45
5641958226.3711 -3.8931437 -103.34756 -200 45 -200 45 -200 45
5642958343.0572 -3.8832495 -103.27719 -200 45 -200 45 -200 45
5643958459.7433 -3.8700626 -103.20255 -200 45 -200 45 -200 45
5644958576.4294 -3.8454242 -103.10582 -200 45 -200 45 -200 45
5645958693.1155 -3.8283181 -103.00673 -200 45 -200 45 -200 45
5646958809.8016 -3.8100474 -102.88262 -200 45 -200 45 -200 45
5647958926.4877 -3.7886062 -102.77285 -200 45 -200 45 -200 45
5648959043.1739 -3.7629051 -102.65031 -200 45 -200 45 -200 45
5649959159.86 -3.7341547 -102.53722 -200 45 -200 45 -200 45
5650959276.5461 -3.7158434 -102.40294 -200 45 -200 45 -200 45
5651959393.2322 -3.7122154 -102.20128 -200 45 -200 45 -200 45
5652959509.9183 -3.724889 -101.98669 -200 45 -200 45 -200 45
5653959626.6044 -3.730191 -101.7457 -200 45 -200 45 -200 45
5654959743.2905 -3.7300694 -101.56576 -200 45 -200 45 -200 45
5655959859.9767 -3.724426 -101.38609 -200 45 -200 45 -200 45
5656959976.6628 -3.7169673 -101.18214 -200 45 -200 45 -200 45
5657960093.3489 -3.7193072 -100.97672 -200 45 -200 45 -200 45
5658960210.035 -3.7195444 -100.81332 -200 45 -200 45 -200 45
5659960326.7211 -3.7190156 -100.60023 -200 45 -200 45 -200 45
5660960443.4072 -3.7097836 -100.41293 -200 45 -200 45 -200 45
5661960560.0933 -3.7048495 -100.22874 -200 45 -200 45 -200 45
5662960676.7795 -3.7000613 -100.04862 -200 45 -200 45 -200 45
5663960793.4656 -3.6980474 -99.879135 -200 45 -200 45 -200 45
5664960910.1517 -3.6868985 -99.745697 -200 45 -200 45 -200 45
5665961026.8378 -3.6789718 -99.6577 -200 45 -200 45 -200 45
5666961143.5239 -3.6883559 -99.492645 -200 45 -200 45 -200 45
5667961260.21 -3.7030413 -99.283676 -200 45 -200 45 -200 45
5668961376.8961 -3.739768 -99.069656 -200 45 -200 45 -200 45
5669961493.5823 -3.7635763 -98.927338 -200 45 -200 45 -200 45
5670961610.2684 -3.7824328 -98.768074 -200 45 -200 45 -200 45
5671961726.9545 -3.7963114 -98.641304 -200 45 -200 45 -200 45
5672961843.6406 -3.8154731 -98.545563 -200 45 -200 45 -200 45
5673961960.3267 -3.8350096 -98.440819 -200 45 -200 45 -200 45
5674962077.0128 -3.8573749 -98.361832 -200 45 -200 45 -200 45
5675962193.6989 -3.8735619 -98.284065 -200 45 -200 45 -200 45
5676962310.3851 -3.8854272 -98.228661 -200 45 -200 45 -200 45
5677962427.0712 -3.8972435 -98.180901 -200 45 -200 45 -200 45
5678962543.7573 -3.9111073 -98.15731 -200 45 -200 45 -200 45
5679962660.4434 -3.9212394 -98.147446 -200 45 -200 45 -200 45
5680962777.1295 -3.9244907 -98.187904 -200 45 -200 45 -200 45
5681962893.8156 -3.9298663 -98.264954 -200 45 -200 45 -200 45
5682963010.5018 -3.9514935 -98.288979 -200 45 -200 45 -200 45
5683963127.1879 -3.9867992 -98.246529 -200 45 -200 45 -200 45
5684963243.874 -4.0281091 -98.240707 -200 45 -200 45 -200 45
5685963360.5601 -4.053997 -98.308693 -200 45 -200 45 -200 45
5686963477.2462 -4.0774779 -98.384064 -200 45 -200 45 -200 45
5687963593.9323 -4.0932884 -98.478722 -200 45 -200 45 -200 45
5688963710.6184 -4.1140552 -98.590523 -200 45 -200 45 -200 45
5689963827.3046 -4.1358056 -98.750481 -200 45 -200 45 -200 45
5690963943.9907 -4.1531096 -98.882675 -200 45 -200 45 -200 45
5691964060.6768 -4.1617332 -99.048225 -200 45 -200 45 -200 45
5692964177.3629 -4.163301 -99.217728 -200 45 -200 45 -200 45
5693964294.049 -4.1698208 -99.393517 -200 45 -200 45 -200 45
5694964410.7351 -4.1730752 -99.623909 -200 45 -200 45 -200 45
5695964527.4212 -4.1700897 -99.843925 -200 45 -200 45 -200 45
5696964644.1074 -4.1595488 -100.11807 -200 45 -200 45 -200 45
5697964760.7935 -4.1564088 -100.3802 -200 45 -200 45 -200 45
5698964877.4796 -4.1619463 -100.59127 -200 45 -200 45 -200 45
5699964994.1657 -4.1891928 -100.71806 -200 45 -200 45 -200 45
5700965110.8518 -4.2118831 -100.92477 -200 45 -200 45 -200 45
5701965227.5379 -4.2189603 -101.15339 -200 45 -200 45 -200 45
5702965344.224 -4.2228518 -101.38541 -200 45 -200 45 -200 45
5703965460.9102 -4.217936 -101.60658 -200 45 -200 45 -200 45
5704965577.5963 -4.2172508 -101.8287 -200 45 -200 45 -200 45
5705965694.2824 -4.2188907 -102.0749 -200 45 -200 45 -200 45
5706965810.9685 -4.2136912 -102.27479 -200 45 -200 45 -200 45
5707965927.6546 -4.1973839 -102.49365 -200 45 -200 45 -200 45
5708966044.3407 -4.1748466 -102.69276 -200 45 -200 45 -200 45
5709966161.0268 -4.1570983 -102.89011 -200 45 -200 45 -200 45
5710966277.713 -4.1350455 -103.10228 -200 45 -200 45 -200 45
5711966394.3991 -4.1048932 -103.30095 -200 45 -200 45 -200 45
5712966511.0852 -4.0698028 -103.54085 -200 45 -200 45 -200 45
5713966627.7713 -4.0549731 -103.67632 -200 45 -200 45 -200 45
5714966744.4574 -4.0366912 -103.79948 -200 45 -200 45 -200 45
5715966861.1435 -4.0481281 -103.84505 -200 45 -200 45 -200 45
5716966977.8296 -4.0426106 -103.93362 -200 45 -200 45 -200 45
5717967094.5158 -4.0282865 -104.02692 -200 45 -200 45 -200 45
5718967211.2019 -4.0109172 -104.10295 -200 45 -200 45 -200 45
5719967327.888 -3.988729 -104.15905 -200 45 -200 45 -200 45
5720967444.5741 -3.9750571 -104.23399 -200 45 -200 45 -200 45
5721967561.2602 -3.9577079 -104.29277 -200 45 -200 45 -200 45
5722967677.9463 -3.936702 -104.30215 -200 45 -200 45 -200 45
5723967794.6324 -3.9095056 -104.29058 -200 45 -200 45 -200 45
5724967911.3186 -3.8814797 -104.28481 -200 45 -200 45 -200 45
5725968028.0047 -3.8582592 -104.2816 -200 45 -200 45 -200 45
5726968144.6908 -3.8271303 -104.25186 -200 45 -200 45 -200 45
5727968261.3769 -3.7936261 -104.23192 -200 45 -200 45 -200 45
5728968378.063 -3.7642031 -104.24255 -200 45 -200 45 -200 45
5729968494.7491 -3.746768 -104.16405 -200 45 -200 45 -200 45
5730968611.4352 -3.7426445 -104.04015 -200 45 -200 45 -200 45
5731968728.1214 -3.7539907 -103.87563 -200 45 -200 45 -200 45
5732968844.8075 -3.7503002 -103.75718 -200 45 -200 45 -200 45
5733968961.4936 -3.7426267 -103.63484 -200 45 -200 45 -200 45
5734969078.1797 -3.7287664 -103.51344 -200 45 -200 45 -200 45
5735969194.8658 -3.7237875 -103.37914 -200 45 -200 45 -200 45
5736969311.5519 -3.7195895 -103.21533 -200 45 -200 45 -200 45
5737969428.238 -3.7176893 -103.07606 -200 45 -200 45 -200 45
5738969544.9242 -3.7038653 -102.91776 -200 45 -200 45 -200 45
5739969661.6103 -3.6902914 -102.73949 -200 45 -200 45 -200 45
5740969778.2964 -3.6832137 -102.57662 -200 45 -200 45 -200 45
5741969894.9825 -3.6749587 -102.4096 -200 45 -200 45 -200 45
5742970011.6686 -3.6607385 -102.2578 -200 45 -200 45 -200 45
5743970128.3547 -3.6485732 -102.13583 -200 45 -200 45 -200 45
5744970245.0408 -3.6394601 -102.01573 -200 45 -200 45 -200 45
5745970361.727 -3.6465905 -101.7982 -200 45 -200 45 -200 45
5746970478.4131 -3.6683254 -101.57267 -200 45 -200 45 -200 45
5747970595.0992 -3.6943581 -101.36163 -200 45 -200 45 -200 45
5748970711.7853 -3.7089303 -101.20831 -200 45 -200 45 -200 45
5749970828.4714 -3.7206182 -101.03038 -200 45 -200 45 -200 45
5750970945.1575 -3.7317607 -100.87418 -200 45 -200 45 -200 45
5751971061.8436 -3.748457 -100.73175 -200 45 -200 45 -200 45
5752971178.5298 -3.7655165 -100.58929 -200 45 -200 45 -200 45
5753971295.2159 -3.7824106 -100.45021 -200 45 -200 45 -200 45
5754971411.902 -3.7908645 -100.30567 -200 45 -200 45 -200 45
5755971528.5881 -3.8004088 -100.19621 -200 45 -200 45 -200 45
5756971645.2742 -3.810843 -100.1035 -200 45 -200 45 -200 45
5757971761.9603 -3.8208482 -100.029 -200 45 -200 45 -200 45
5758971878.6464 -3.8300078 -99.988808 -200 45 -200 45 -200 45
5759971995.3326 -3.8355658 -99.996063 -200 45 -200 45 -200 45
5760972112.0187 -3.8492572 -99.946609 -200 45 -200 45 -200 45
5761972228.7048 -3.8719335 -99.907341 -200 45 -200 45 -200 45
5762972345.3909 -3.9177649 -99.803284 -200 45 -200 45 -200 45
5763972462.077 -3.9529836 -99.753143 -200 45 -200 45 -200 45
5764972578.7631 -3.9831176 -99.759979 -200 45 -200 45 -200 45
5765972695.4492 -4.0067968 -99.767464 -200 45 -200 45 -200 45
5766972812.1354 -4.032083 -99.798004 -200 45 -200 45 -200 45
5767972928.8215 -4.0549388 -99.855141 -200 45 -200 45 -200 45
5768973045.5076 -4.0841279 -99.930542 -200 45 -200 45 -200 45
5769973162.1937 -4.105999 -100.01284 -200 45 -200 45 -200 45
5770973278.8798 -4.1203423 -100.1273 -200 45 -200 45 -200 45
5771973395.5659 -4.1314168 -100.23541 -200 45 -200 45 -200 45
5772973512.252 -4.1442347 -100.35777 -200 45 -200 45 -200 45
5773973628.9382 -4.154212 -100.52054 -200 45 -200 45 -200 45
5774973745.6243 -4.1558046 -100.7371 -200 45 -200 45 -200 45
5775973862.3104 -4.1551828 -100.95977 -200 45 -200 45 -200 45
5776973978.9965 -4.1716433 -101.14475 -200 45 -200 45 -200 45
5777974095.6826 -4.1931648 -101.29625 -200 45 -200 45 -200 45
5778974212.3687 -4.232409 -101.41593 -200 45 -200 45 -200 45
5779974329.0548 -4.2578673 -101.57686 -200 45 -200 45 -200 45
5780974445.741 -4.2725339 -101.81372 -200 45 -200 45 -200 45
5781974562.4271 -4.2775917 -102.01965 -200 45 -200 45 -200 45
5782974679.1132 -4.2899446 -102.25558 -200 45 -200 45 -200 45
5783974795.7993 -4.3003621 -102.49151 -200 45 -200 45 -200 45
5784974912.4854 -4.305316 -102.70802 -200 45 -200 45 -200 45
5785975029.1715 -4.3069201 -102.95767 -200 45 -200 45 -200 45
5786975145.8576 -4.2975111 -103.18758 -200 45 -200 45 -200 45
5787975262.5438 -4.2892051 -103.41138 -200 45 -200 45 -200 45
5788975379.2299 -4.2803268 -103.64426 -200 45 -200 45 -200 45
5789975495.916 -4.2626033 -103.90083 -200 45 -200 45 -200 45
5790975612.6021 -4.2386079 -104.16239 -200 45 -200 45 -200 45
5791975729.2882 -4.2172685 -104.43658 -200 45 -200 45 -200 45
5792975845.9743 -4.2108717 -104.63292 -200 45 -200 45 -200 45
5793975962.6604 -4.2139416 -104.78028 -200 45 -200 45 -200 45
5794976079.3466 -4.2235866 -104.90555 -200 45 -200 45 -200 45
5795976196.0327 -4.2207994 -105.05927 -200 45 -200 45 -200 45
5796976312.7188 -4.2089891 -105.23606 -200 45 -200 45 -200 45
5797976429.4049 -4.1945519 -105.3838 -200 45 -200 45 -200 45
5798976546.091 -4.1813173 -105.51778 -200 45 -200 45 -200 45
5799976662.7771 -4.1699281 -105.65903 -200 45 -200 45 -200 45
5800976779.4632 -4.1540589 -105.74706 -200 45 -200 45 -200 45
5801976896.1494 -4.1306329 -105.84859 -200 45 -200 45 -200 45
5802977012.8355 -4.1014881 -105.94211 -200 45 -200 45 -200 45
5803977129.5216 -4.0811672 -105.99767 -200 45 -200 45 -200 45
5804977246.2077 -4.0536876 -106.06662 -200 45 -200 45 -200 45
5805977362.8938 -4.0237308 -106.10149 -200 45 -200 45 -200 45
5806977479.5799 -3.988395 -106.18697 -200 45 -200 45 -200 45
5807977596.266 -3.9571555 -106.2012 -200 45 -200 45 -200 45
5808977712.9522 -3.9468243 -106.1789 -200 45 -200 45 -200 45
5809977829.6383 -3.9498153 -106.08748 -200 45 -200 45 -200 45
5810977946.3244 -3.9496803 -106.01211 -200 45 -200 45 -200 45
5811978063.0105 -3.9409068 -105.93762 -200 45 -200 45 -200 45
5812978179.6966 -3.9239964 -105.86452 -200 45 -200 45 -200 45
5813978296.3827 -3.9088228 -105.77133 -200 45 -200 45 -200 45
5814978413.0688 -3.8963265 -105.69357 -200 45 -200 45 -200 45
5815978529.755 -3.8931279 -105.57509 -200 45 -200 45 -200 45
5816978646.4411 -3.8816059 -105.47369 -200 45 -200 45 -200 45
5817978763.1272 -3.8617237 -105.32227 -200 45 -200 45 -200 45
5818978879.8133 -3.8417761 -105.19019 -200 45 -200 45 -200 45
5819978996.4994 -3.8261731 -105.04308 -200 45 -200 45 -200 45
5820979113.1855 -3.8131547 -104.9116 -200 45 -200 45 -200 45
5821979229.8716 -3.7934489 -104.76427 -200 45 -200 45 -200 45
5822979346.5578 -3.7712655 -104.64581 -200 45 -200 45 -200 45
5823979463.2439 -3.7690499 -104.47604 -200 45 -200 45 -200 45
5824979579.93 -3.7694993 -104.2757 -200 45 -200 45 -200 45
5825979696.6161 -3.7926621 -104.01613 -200 45 -200 45 -200 45
5826979813.3022 -3.8081694 -103.82605 -200 45 -200 45 -200 45
5827979929.9883 -3.8138909 -103.62156 -200 45 -200 45 -200 45
5828980046.6744 -3.8202243 -103.44217 -200 45 -200 45 -200 45
5829980163.3606 -3.8229508 -103.26472 -200 45 -200 45 -200 45
5830980280.0467 -3.8345816 -103.0711 -200 45 -200 45 -200 45
5831980396.7328 -3.8475883 -102.92164 -200 45 -200 45 -200 45
5832980513.4189 -3.8593669 -102.72987 -200 45 -200 45 -200 45
5833980630.105 -3.8624821 -102.55975 -200 45 -200 45 -200 45
5834980746.7911 -3.8662405 -102.39838 -200 45 -200 45 -200 45
5835980863.4772 -3.8729703 -102.22835 -200 45 -200 45 -200 45
5836980980.1634 -3.8791146 -102.1205 -200 45 -200 45 -200 45
5837981096.8495 -3.8797338 -102.01206 -200 45 -200 45 -200 45
5838981213.5356 -3.8814161 -101.95206 -200 45 -200 45 -200 45
5839981330.2217 -3.9031947 -101.82285 -200 45 -200 45 -200 45
5840981446.9078 -3.9368994 -101.67029 -200 45 -200 45 -200 45
5841981563.5939 -3.977756 -101.5006 -200 45 -200 45 -200 45
5842981680.28 -4.0099678 -101.41348 -200 45 -200 45 -200 45
5843981796.9662 -4.0357084 -101.33418 -200 45 -200 45 -200 45
5844981913.6523 -4.0606136 -101.28474 -200 45 -200 45 -200 45
5845982030.3384 -4.0872769 -101.2444 -200 45 -200 45 -200 45
5846982147.0245 -4.1211495 -101.20666 -200 45 -200 45 -200 45
5847982263.7106 -4.147809 -101.20358 -200 45 -200 45 -200 45
5848982380.3967 -4.1708159 -101.20831 -200 45 -200 45 -200 45
5849982497.0828 -4.1877208 -101.22393 -200 45 -200 45 -200 45
5850982613.769 -4.2053733 -101.26394 -200 45 -200 45 -200 45
5851982730.4551 -4.2242856 -101.32549 -200 45 -200 45 -200 45
5852982847.1412 -4.2426586 -101.42747 -200 45 -200 45 -200 45
5853982963.8273 -4.2477608 -101.55479 -200 45 -200 45 -200 45
5854983080.5134 -4.2669454 -101.72975 -200 45 -200 45 -200 45
5855983197.1995 -4.2943554 -101.81444 -200 45 -200 45 -200 45
5856983313.8856 -4.3389869 -101.85205 -200 45 -200 45 -200 45
5857983430.5718 -4.3817043 -101.95647 -200 45 -200 45 -200 45
5858983547.2579 -4.4152555 -102.10336 -200 45 -200 45 -200 45
5859983663.944 -4.4388752 -102.27639 -200 45 -200 45 -200 45
5860983780.6301 -4.4612393 -102.44825 -200 45 -200 45 -200 45
5861983897.3162 -4.4880676 -102.6328 -200 45 -200 45 -200 45
5862984014.0023 -4.51443 -102.84532 -200 45 -200 45 -200 45
5863984130.6884 -4.5349073 -103.04633 -200 45 -200 45 -200 45
5864984247.3746 -4.5494366 -103.24771 -200 45 -200 45 -200 45
5865984364.0607 -4.5562878 -103.48019 -200 45 -200 45 -200 45
5866984480.7468 -4.5639482 -103.71389 -200 45 -200 45 -200 45
5867984597.4329 -4.5715899 -103.93655 -200 45 -200 45 -200 45
5868984714.119 -4.571641 -104.20205 -200 45 -200 45 -200 45
5869984830.8051 -4.5670967 -104.49508 -200 45 -200 45 -200 45
5870984947.4912 -4.5723419 -104.71255 -200 45 -200 45 -200 45
5871985064.1774 -4.5861936 -104.90775 -200 45 -200 45 -200 45
5872985180.8635 -4.6205649 -105.02419 -200 45 -200 45 -200 45
5873985297.5496 -4.6465974 -105.19366 -200 45 -200 45 -200 45
5874985414.2357 -4.6597242 -105.34621 -200 45 -200 45 -200 45
5875985530.9218 -4.6627088 -105.52795 -200 45 -200 45 -200 45
5876985647.6079 -4.6661282 -105.66548 -200 45 -200 45 -200 45
5877985764.294 -4.6724014 -105.77943 -200 45 -200 45 -200 45
5878985880.9802 -4.6775293 -105.90893 -200 45 -200 45 -200 45
5879985997.6663 -4.6786761 -105.96637 -200 45 -200 45 -200 45
5880986114.3524 -4.662334 -106.02908 -200 45 -200 45 -200 45
5881986231.0385 -4.6506238 -106.06493 -200 45 -200 45 -200 45
5882986347.7246 -4.6340494 -106.04006 -200 45 -200 45 -200 45
5883986464.4107 -4.6129584 -106.06325 -200 45 -200 45 -200 45
5884986581.0968 -4.5851727 -106.047 -200 45 -200 45 -200 45
5885986697.783 -4.5474672 -106.05386 -200 45 -200 45 -200 45
5886986814.4691 -4.5275617 -105.97182 -200 45 -200 45 -200 45
5887986931.1552 -4.5150909 -105.83207 -200 45 -200 45 -200 45
5888987047.8413 -4.5187154 -105.67587 -200 45 -200 45 -200 45
5889987164.5274 -4.5008297 -105.53638 -200 45 -200 45 -200 45
5890987281.2135 -4.4752774 -105.39209 -200 45 -200 45 -200 45
5891987397.8997 -4.4454284 -105.26025 -200 45 -200 45 -200 45
5892987514.5858 -4.4157977 -105.08971 -200 45 -200 45 -200 45
5893987631.2719 -4.3902159 -104.95246 -200 45 -200 45 -200 45
5894987747.958 -4.3592367 -104.80626 -200 45 -200 45 -200 45
5895987864.6441 -4.3222275 -104.61079 -200 45 -200 45 -200 45
5896987981.3302 -4.278491 -104.41323 -200 45 -200 45 -200 45
5897988098.0163 -4.2331839 -104.25896 -200 45 -200 45 -200 45
5898988214.7025 -4.191781 -104.07745 -200 45 -200 45 -200 45
5899988331.3886 -4.1493793 -103.92276 -200 45 -200 45 -200 45
5900988448.0747 -4.0978904 -103.78721 -200 45 -200 45 -200 45
5901988564.7608 -4.0547132 -103.66016 -200 45 -200 45 -200 45
5902988681.4469 -4.0237074 -103.47466 -200 45 -200 45 -200 45
5903988798.133 -4.0125356 -103.23324 -200 45 -200 45 -200 45
5904988914.8191 -4.0017967 -103.02245 -200 45 -200 45 -200 45
5905989031.5053 -3.9872236 -102.83477 -200 45 -200 45 -200 45
5906989148.1914 -3.9682319 -102.65986 -200 45 -200 45 -200 45
5907989264.8775 -3.9421489 -102.47883 -200 45 -200 45 -200 45
5908989381.5636 -3.9282115 -102.31962 -200 45 -200 45 -200 45
5909989498.2497 -3.914953 -102.13642 -200 45 -200 45 -200 45
5910989614.9358 -3.9009583 -101.96126 -200 45 -200 45 -200 45
5911989731.6219 -3.8811531 -101.79363 -200 45 -200 45 -200 45
5912989848.3081 -3.8627782 -101.61557 -200 45 -200 45 -200 45
5913989964.9942 -3.8444865 -101.4641 -200 45 -200 45 -200 45
5914990081.6803 -3.8303463 -101.30634 -200 45 -200 45 -200 45
5915990198.3664 -3.8112943 -101.20457 -200 45 -200 45 -200 45
5916990315.0525 -3.7928169 -101.10866 -200 45 -200 45 -200 45
5917990431.7386 -3.7845459 -101.00064 -200 45 -200 45 -200 45
5918990548.4247 -3.7911696 -100.86499 -200 45 -200 45 -200 45
5919990665.1109 -3.8147345 -100.65034 -200 45 -200 45 -200 45
5920990781.797 -3.8375416 -100.49197 -200 45 -200 45 -200 45
5921990898.4831 -3.8527513 -100.37129 -200 45 -200 45 -200 45
5922991015.1692 -3.8621714 -100.29048 -200 45 -200 45 -200 45
5923991131.8553 -3.8734524 -100.16643 -200 45 -200 45 -200 45
5924991248.5414 -3.8936365 -100.09227 -200 45 -200 45 -200 45
5925991365.2275 -3.9113374 -100.01092 -200 45 -200 45 -200 45
5926991481.9137 -3.9278691 -99.954643 -200 45 -200 45 -200 45
5927991598.5998 -3.937995 -99.897156 -200 45 -200 45 -200 45
5928991715.2859 -3.9458196 -99.84552 -200 45 -200 45 -200 45
5929991831.972 -3.9557545 -99.808853 -200 45 -200 45 -200 45
5930991948.6581 -3.9665208 -99.814751 -200 45 -200 45 -200 45
5931992065.3442 -3.9738405 -99.854683 -200 45 -200 45 -200 45
5932992182.0303 -3.9791493 -99.947563 -200 45 -200 45 -200 45
5933992298.7165 -3.9950686 -99.951332 -200 45 -200 45 -200 45
5934992415.4026 -4.0185089 -99.971924 -200 45 -200 45 -200 45
5935992532.0887 -4.0656691 -99.932396 -200 45 -200 45 -200 45
5936992648.7748 -4.1004457 -99.975815 -200 45 -200 45 -200 45
5937992765.4609 -4.1259599 -100.04787 -200 45 -200 45 -200 45
5938992882.147 -4.1433954 -100.11355 -200 45 -200 45 -200 45
5939992998.8331 -4.1662979 -100.22559 -200 45 -200 45 -200 45
5940993115.5193 -4.1837602 -100.33485 -200 45 -200 45 -200 45
5941993232.2054 -4.2070694 -100.47653 -200 45 -200 45 -200 45
5942993348.8915 -4.2207065 -100.61477 -200 45 -200 45 -200 45
5943993465.5776 -4.2224441 -100.76497 -200 45 -200 45 -200 45
5944993582.2637 -4.2260394 -100.93225 -200 45 -200 45 -200 45
5945993698.9498 -4.2293153 -101.11059 -200 45 -200 45 -200 45
5946993815.6359 -4.2270169 -101.34868 -200 45 -200 45 -200 45
5947993932.3221 -4.2190294 -101.60056 -200 45 -200 45 -200 45
5948994049.0082 -4.2051077 -101.88966 -200 45 -200 45 -200 45
5949994165.6943 -4.213429 -102.10658 -200 45 -200 45 -200 45
5950994282.3804 -4.2240815 -102.29746 -200 45 -200 45 -200 45
5951994399.0665 -4.2468719 -102.48148 -200 45 -200 45 -200 45
5952994515.7526 -4.2580552 -102.72156 -200 45 -200 45 -200 45
5953994632.4387 -4.2597504 -102.99058 -200 45 -200 45 -200 45
5954994749.1249 -4.254796 -103.2431 -200 45 -200 45 -200 45
5955994865.811 -4.2488699 -103.5108 -200 45 -200 45 -200 45
5956994982.4971 -4.2531967 -103.75838 -200 45 -200 45 -200 45
5957995099.1832 -4.2449923 -104.02058 -200 45 -200 45 -200 45
5958995215.8693 -4.2277975 -104.28487 -200 45 -200 45 -200 45
5959995332.5554 -4.2059808 -104.54861 -200 45 -200 45 -200 45
5960995449.2415 -4.1860394 -104.79224 -200 45 -200 45 -200 45
5961995565.9277 -4.1649847 -105.00959 -200 45 -200 45 -200 45
5962995682.6138 -4.133709 -105.26145 -200 45 -200 45 -200 45
5963995799.2999 -4.1019011 -105.53181 -200 45 -200 45 -200 45
5964995915.986 -4.0737295 -105.77554 -200 45 -200 45 -200 45
5965996032.6721 -4.0593357 -105.97819 -200 45 -200 45 -200 45
5966996149.3582 -4.0631514 -106.06544 -200 45 -200 45 -200 45
5967996266.0443 -4.0647168 -106.19627 -200 45 -200 45 -200 45
5968996382.7305 -4.0533381 -106.33556 -200 45 -200 45 -200 45
5969996499.4166 -4.0350122 -106.46357 -200 45 -200 45 -200 45
5970996616.1027 -4.0136056 -106.58354 -200 45 -200 45 -200 45
5971996732.7888 -3.9989982 -106.67374 -200 45 -200 45 -200 45
5972996849.4749 -3.9831102 -106.77265 -200 45 -200 45 -200 45
5973996966.161 -3.9649038 -106.86023 -200 45 -200 45 -200 45
5974997082.8471 -3.934535 -106.88011 -200 45 -200 45 -200 45
5975997199.5333 -3.9095116 -106.92288 -200 45 -200 45 -200 45
5976997316.2194 -3.884733 -106.92403 -200 45 -200 45 -200 45
5977997432.9055 -3.8553615 -106.93948 -200 45 -200 45 -200 45
5978997549.5916 -3.8195713 -106.93922 -200 45 -200 45 -200 45
5979997666.2777 -3.7862248 -106.98051 -200 45 -200 45 -200 45
5980997782.9638 -3.7638297 -106.93702 -200 45 -200 45 -200 45
5981997899.6499 -3.7523847 -106.87402 -200 45 -200 45 -200 45
5982998016.3361 -3.7603965 -106.72601 -200 45 -200 45 -200 45
5983998133.0222 -3.7603581 -106.61589 -200 45 -200 45 -200 45
5984998249.7083 -3.753274 -106.51672 -200 45 -200 45 -200 45
5985998366.3944 -3.7416751 -106.40521 -200 45 -200 45 -200 45
5986998483.0805 -3.7280428 -106.26824 -200 45 -200 45 -200 45
5987998599.7666 -3.7245903 -106.14317 -200 45 -200 45 -200 45
5988998716.4527 -3.7215629 -106.00774 -200 45 -200 45 -200 45
5989998833.1389 -3.7123704 -105.82107 -200 45 -200 45 -200 45
5990998949.825 -3.697237 -105.69888 -200 45 -200 45 -200 45
5991999066.5111 -3.6811819 -105.51137 -200 45 -200 45 -200 45
5992999183.1972 -3.6737573 -105.37213 -200 45 -200 45 -200 45
5993999299.8833 -3.6614118 -105.20592 -200 45 -200 45 -200 45
5994999416.5694 -3.6467533 -105.06378 -200 45 -200 45 -200 45
5995999533.2555 -3.6307032 -104.9642 -200 45 -200 45 -200 45
5996999649.9417 -3.6367991 -104.7626 -200 45 -200 45 -200 45
5997999766.6278 -3.6458659 -104.57734 -200 45 -200 45 -200 45
5998999883.3139 -3.6733747 -104.31361 -200 45 -200 45 -200 45
6000000000 -3.688766 -104.1315 -200 45 -200 45 -200 45
