!Keysight Technologies,P9374A,MY57304198,A.17.20.09
!Date: Thursday, August 15, 2024 12:22:27
!Correction: S11(C  1-Port  ) 
!S21(C  1-Port  ) 
!S12(Off) 
!S22(Off) 
!S2P File: Measurements: S11, S21, S12, S22:
# Hz S  dB   R 50
300000 -0.0012307933 -0.017232448 -200 45 -200 45 -200 45
1300116.6861144 -0.0010239107 -0.046784632 -200 45 -200 45 -200 45
2300233.3722287 -0.00044189597 -0.097701482 -200 45 -200 45 -200 45
3300350.0583431 0.0020046644 -0.13617291 -200 45 -200 45 -200 45
4300466.7444574 0.0016957176 -0.18099059 -200 45 -200 45 -200 45
5300583.4305718 0.00052182976 -0.230562 -200 45 -200 45 -200 45
6300700.1166861 -0.000904291 -0.29657513 -200 45 -200 45 -200 45
7300816.8028005 -0.0067477576 -0.33642635 -200 45 -200 45 -200 45
8300933.4889148 -0.011897942 -0.34076384 -200 45 -200 45 -200 45
9301050.1750292 -0.0067739431 -0.35668987 -200 45 -200 45 -200 45
10301166.861144 0.00016825553 -0.4121975 -200 45 -200 45 -200 45
11301283.547258 0.00022986131 -0.45957404 -200 45 -200 45 -200 45
12301400.233372 -0.00066583813 -0.49292228 -200 45 -200 45 -200 45
13301516.919487 -0.0032071611 -0.54043448 -200 45 -200 45 -200 45
14301633.605601 -0.002047027 -0.57842577 -200 45 -200 45 -200 45
15301750.291715 -0.0042333831 -0.62296611 -200 45 -200 45 -200 45
16301866.97783 -0.0042243139 -0.64130598 -200 45 -200 45 -200 45
17301983.663944 -0.0044945758 -0.699543 -200 45 -200 45 -200 45
18302100.350058 -0.0044116559 -0.73521596 -200 45 -200 45 -200 45
19302217.036173 -0.0016751451 -0.76414078 -200 45 -200 45 -200 45
20302333.722287 -0.0027898501 -0.8078661 -200 45 -200 45 -200 45
21302450.408401 -0.0019509458 -0.86105204 -200 45 -200 45 -200 45
22302567.094516 -0.0057520457 -0.89061022 -200 45 -200 45 -200 45
23302683.78063 -0.0044614077 -0.91464484 -200 45 -200 45 -200 45
24302800.466744 -0.0040292074 -0.97923547 -200 45 -200 45 -200 45
25302917.152859 -0.0051061604 -1.0053717 -200 45 -200 45 -200 45
26303033.838973 -0.0063347723 -1.0432125 -200 45 -200 45 -200 45
27303150.525088 -0.0040141796 -1.0885048 -200 45 -200 45 -200 45
28303267.211202 -0.0089660529 -1.1083539 -200 45 -200 45 -200 45
29303383.897316 -0.0083715608 -1.1661745 -200 45 -200 45 -200 45
30303500.583431 -0.0065157241 -1.2074178 -200 45 -200 45 -200 45
31303617.269545 -0.0074519706 -1.2448268 -200 45 -200 45 -200 45
32303733.955659 -0.0066666091 -1.2761596 -200 45 -200 45 -200 45
33303850.641774 -0.0075829215 -1.3073281 -200 45 -200 45 -200 45
34303967.327888 -0.0082320282 -1.356781 -200 45 -200 45 -200 45
35304084.014002 -0.0091027562 -1.3906246 -200 45 -200 45 -200 45
36304200.700117 -0.011370788 -1.4280827 -200 45 -200 45 -200 45
37304317.386231 -0.0073083187 -1.482296 -200 45 -200 45 -200 45
38304434.072345 -0.010275934 -1.5030217 -200 45 -200 45 -200 45
39304550.75846 -0.010699155 -1.5538529 -200 45 -200 45 -200 45
40304667.444574 -0.010740155 -1.5940717 -200 45 -200 45 -200 45
41304784.130688 -0.013687006 -1.6261693 -200 45 -200 45 -200 45
42304900.816803 -0.012516282 -1.6696273 -200 45 -200 45 -200 45
43305017.502917 -0.012804195 -1.7016139 -200 45 -200 45 -200 45
44305134.189032 -0.01215752 -1.7511698 -200 45 -200 45 -200 45
45305250.875146 -0.013335938 -1.7889175 -200 45 -200 45 -200 45
46305367.56126 -0.014788955 -1.8262872 -200 45 -200 45 -200 45
47305484.247375 -0.016166329 -1.874812 -200 45 -200 45 -200 45
48305600.933489 -0.012213591 -1.9003578 -200 45 -200 45 -200 45
49305717.619603 -0.014143023 -1.9452548 -200 45 -200 45 -200 45
50305834.305718 -0.014858566 -1.9844607 -200 45 -200 45 -200 45
51305950.991832 -0.015058576 -2.0328257 -200 45 -200 45 -200 45
52306067.677946 -0.015460702 -2.0821705 -200 45 -200 45 -200 45
53306184.364061 -0.015825192 -2.1176341 -200 45 -200 45 -200 45
54306301.050175 -0.017422505 -2.1687655 -200 45 -200 45 -200 45
55306417.736289 -0.015846236 -2.192205 -200 45 -200 45 -200 45
56306534.422404 -0.017113755 -2.2519403 -200 45 -200 45 -200 45
57306651.108518 -0.018165363 -2.2792521 -200 45 -200 45 -200 45
58306767.794632 -0.018052028 -2.3120832 -200 45 -200 45 -200 45
59306884.480747 -0.018164843 -2.3640745 -200 45 -200 45 -200 45
60307001.166861 -0.019264808 -2.4106531 -200 45 -200 45 -200 45
61307117.852975 -0.02187714 -2.464968 -200 45 -200 45 -200 45
62307234.53909 -0.021075379 -2.516432 -200 45 -200 45 -200 45
63307351.225204 -0.021638053 -2.5396681 -200 45 -200 45 -200 45
64307467.911319 -0.021589404 -2.5908263 -200 45 -200 45 -200 45
65307584.597433 -0.023602128 -2.6317551 -200 45 -200 45 -200 45
66307701.283547 -0.022571841 -2.6719096 -200 45 -200 45 -200 45
67307817.969662 -0.023842106 -2.7118185 -200 45 -200 45 -200 45
68307934.655776 -0.025853269 -2.7664447 -200 45 -200 45 -200 45
69308051.34189 -0.025339 -2.7852573 -200 45 -200 45 -200 45
70308168.028005 -0.026261084 -2.8470526 -200 45 -200 45 -200 45
71308284.714119 -0.025997017 -2.8847466 -200 45 -200 45 -200 45
72308401.400233 -0.026078526 -2.9433167 -200 45 -200 45 -200 45
73308518.086348 -0.029109035 -2.968282 -200 45 -200 45 -200 45
74308634.772462 -0.030498518 -3.0084939 -200 45 -200 45 -200 45
75308751.458576 -0.031023828 -3.0473969 -200 45 -200 45 -200 45
76308868.144691 -0.030313697 -3.0922728 -200 45 -200 45 -200 45
77308984.830805 -0.032568321 -3.125052 -200 45 -200 45 -200 45
78309101.516919 -0.033009108 -3.1698372 -200 45 -200 45 -200 45
79309218.203034 -0.032402709 -3.2026837 -200 45 -200 45 -200 45
80309334.889148 -0.032384716 -3.2552664 -200 45 -200 45 -200 45
81309451.575263 -0.034114145 -3.2834246 -200 45 -200 45 -200 45
82309568.261377 -0.03506393 -3.3142092 -200 45 -200 45 -200 45
83309684.947491 -0.032926425 -3.3547373 -200 45 -200 45 -200 45
84309801.633606 -0.036170792 -3.4047496 -200 45 -200 45 -200 45
85309918.31972 -0.036888409 -3.4472001 -200 45 -200 45 -200 45
86310035.005834 -0.038066506 -3.4782982 -200 45 -200 45 -200 45
87310151.691949 -0.038068596 -3.5188756 -200 45 -200 45 -200 45
88310268.378063 -0.037205357 -3.5537698 -200 45 -200 45 -200 45
89310385.064177 -0.040787902 -3.5895371 -200 45 -200 45 -200 45
90310501.750292 -0.03932799 -3.6261654 -200 45 -200 45 -200 45
91310618.436406 -0.039640151 -3.6510026 -200 45 -200 45 -200 45
92310735.12252 -0.041213583 -3.7039182 -200 45 -200 45 -200 45
93310851.808635 -0.042071607 -3.7347949 -200 45 -200 45 -200 45
94310968.494749 -0.041938044 -3.7768581 -200 45 -200 45 -200 45
95311085.180863 -0.043978266 -3.8059666 -200 45 -200 45 -200 45
96311201.866978 -0.044669189 -3.8361232 -200 45 -200 45 -200 45
97311318.553092 -0.046826351 -3.8767557 -200 45 -200 45 -200 45
98311435.239207 -0.046396978 -3.9043634 -200 45 -200 45 -200 45
99311551.925321 -0.047675539 -3.9392357 -200 45 -200 45 -200 45
100311668.61144 -0.048512328 -3.9778736 -200 45 -200 45 -200 45
101311785.29755 -0.050085574 -4.0082717 -200 45 -200 45 -200 45
102311901.98366 -0.050677162 -4.0562339 -200 45 -200 45 -200 45
103312018.66978 -0.051485453 -4.0930061 -200 45 -200 45 -200 45
104312135.35589 -0.051286116 -4.1135716 -200 45 -200 45 -200 45
105312252.04201 -0.053397562 -4.1342254 -200 45 -200 45 -200 45
106312368.72812 -0.052113909 -4.178966 -200 45 -200 45 -200 45
107312485.41424 -0.05379172 -4.2082729 -200 45 -200 45 -200 45
108312602.10035 -0.055762269 -4.249743 -200 45 -200 45 -200 45
109312718.78646 -0.055351414 -4.2845469 -200 45 -200 45 -200 45
110312835.47258 -0.055230811 -4.3172507 -200 45 -200 45 -200 45
111312952.15869 -0.057429161 -4.3488107 -200 45 -200 45 -200 45
112313068.84481 -0.056805182 -4.3878422 -200 45 -200 45 -200 45
113313185.53092 -0.05903608 -4.4205055 -200 45 -200 45 -200 45
114313302.21704 -0.059573252 -4.4637465 -200 45 -200 45 -200 45
115313418.90315 -0.061966006 -4.5092263 -200 45 -200 45 -200 45
116313535.58926 -0.064060323 -4.525929 -200 45 -200 45 -200 45
117313652.27538 -0.064489342 -4.5821767 -200 45 -200 45 -200 45
118313768.96149 -0.064168558 -4.6116633 -200 45 -200 45 -200 45
119313885.64761 -0.066498652 -4.6469989 -200 45 -200 45 -200 45
120314002.33372 -0.068553872 -4.6785765 -200 45 -200 45 -200 45
121314119.01984 -0.068726391 -4.7291756 -200 45 -200 45 -200 45
122314235.70595 -0.071246289 -4.7498679 -200 45 -200 45 -200 45
123314352.39207 -0.072418742 -4.7907686 -200 45 -200 45 -200 45
124314469.07818 -0.073883235 -4.8265338 -200 45 -200 45 -200 45
125314585.76429 -0.076895393 -4.8620453 -200 45 -200 45 -200 45
126314702.45041 -0.076395594 -4.8963413 -200 45 -200 45 -200 45
127314819.13652 -0.079865605 -4.9284902 -200 45 -200 45 -200 45
128314935.82264 -0.079544477 -4.9604158 -200 45 -200 45 -200 45
129315052.50875 -0.081777595 -4.9990869 -200 45 -200 45 -200 45
130315169.19487 -0.080579929 -5.0529947 -200 45 -200 45 -200 45
131315285.88098 -0.081615373 -5.0852361 -200 45 -200 45 -200 45
132315402.56709 -0.082809888 -5.1310434 -200 45 -200 45 -200 45
133315519.25321 -0.081921622 -5.1645169 -200 45 -200 45 -200 45
134315635.93932 -0.084494062 -5.2155495 -200 45 -200 45 -200 45
135315752.62544 -0.085473672 -5.2553015 -200 45 -200 45 -200 45
136315869.31155 -0.087645918 -5.2892156 -200 45 -200 45 -200 45
137315985.99767 -0.087381527 -5.3343916 -200 45 -200 45 -200 45
138316102.68378 -0.089675494 -5.3703856 -200 45 -200 45 -200 45
139316219.36989 -0.089120843 -5.4183736 -200 45 -200 45 -200 45
140316336.05601 -0.089135639 -5.463131 -200 45 -200 45 -200 45
141316452.74212 -0.089184783 -5.5152245 -200 45 -200 45 -200 45
142316569.42824 -0.093035012 -5.536871 -200 45 -200 45 -200 45
143316686.11435 -0.093539111 -5.5880704 -200 45 -200 45 -200 45
144316802.80047 -0.0956847 -5.6310558 -200 45 -200 45 -200 45
145316919.48658 -0.098081283 -5.6865716 -200 45 -200 45 -200 45
146317036.1727 -0.09809982 -5.7232265 -200 45 -200 45 -200 45
147317152.85881 -0.097890653 -5.7718782 -200 45 -200 45 -200 45
148317269.54492 -0.09956453 -5.8055267 -200 45 -200 45 -200 45
149317386.23104 -0.10175338 -5.8702207 -200 45 -200 45 -200 45
150317502.91715 -0.10213896 -5.9198022 -200 45 -200 45 -200 45
151317619.60327 -0.10456059 -5.9586878 -200 45 -200 45 -200 45
152317736.28938 -0.10298366 -5.9871802 -200 45 -200 45 -200 45
153317852.9755 -0.10609008 -6.0444074 -200 45 -200 45 -200 45
154317969.66161 -0.1062503 -6.0813603 -200 45 -200 45 -200 45
155318086.34772 -0.10716293 -6.1227508 -200 45 -200 45 -200 45
156318203.03384 -0.10861929 -6.1621232 -200 45 -200 45 -200 45
157318319.71995 -0.11011596 -6.2209592 -200 45 -200 45 -200 45
158318436.40607 -0.11136827 -6.2503524 -200 45 -200 45 -200 45
159318553.09218 -0.11197809 -6.283627 -200 45 -200 45 -200 45
160318669.7783 -0.11200093 -6.3230405 -200 45 -200 45 -200 45
161318786.46441 -0.11586799 -6.3629375 -200 45 -200 45 -200 45
162318903.15053 -0.11398878 -6.3917408 -200 45 -200 45 -200 45
163319019.83664 -0.11813343 -6.4295549 -200 45 -200 45 -200 45
164319136.52275 -0.11790495 -6.4729943 -200 45 -200 45 -200 45
165319253.20887 -0.11924066 -6.5216408 -200 45 -200 45 -200 45
166319369.89498 -0.12099971 -6.5463052 -200 45 -200 45 -200 45
167319486.5811 -0.12173707 -6.5841322 -200 45 -200 45 -200 45
168319603.26721 -0.12203631 -6.635632 -200 45 -200 45 -200 45
169319719.95333 -0.12464008 -6.6561289 -200 45 -200 45 -200 45
170319836.63944 -0.12563865 -6.697608 -200 45 -200 45 -200 45
171319953.32555 -0.12588221 -6.7216697 -200 45 -200 45 -200 45
172320070.01167 -0.12732886 -6.7409768 -200 45 -200 45 -200 45
173320186.69778 -0.127303 -6.8027287 -200 45 -200 45 -200 45
174320303.3839 -0.12915172 -6.8098197 -200 45 -200 45 -200 45
175320420.07001 -0.13096681 -6.8562708 -200 45 -200 45 -200 45
176320536.75613 -0.13195777 -6.8743811 -200 45 -200 45 -200 45
177320653.44224 -0.13408959 -6.9121294 -200 45 -200 45 -200 45
178320770.12835 -0.13483664 -6.9408431 -200 45 -200 45 -200 45
179320886.81447 -0.1357895 -6.9680619 -200 45 -200 45 -200 45
180321003.50058 -0.13578762 -7.0088787 -200 45 -200 45 -200 45
181321120.1867 -0.13753282 -7.0329123 -200 45 -200 45 -200 45
182321236.87281 -0.13940915 -7.0669417 -200 45 -200 45 -200 45
183321353.55893 -0.1418201 -7.0830903 -200 45 -200 45 -200 45
184321470.24504 -0.14267549 -7.1181102 -200 45 -200 45 -200 45
185321586.93116 -0.1451616 -7.1451344 -200 45 -200 45 -200 45
186321703.61727 -0.14430973 -7.1779118 -200 45 -200 45 -200 45
187321820.30338 -0.14743568 -7.2113695 -200 45 -200 45 -200 45
188321936.9895 -0.14804791 -7.2346706 -200 45 -200 45 -200 45
189322053.67561 -0.1509801 -7.2642326 -200 45 -200 45 -200 45
190322170.36173 -0.15136124 -7.2902417 -200 45 -200 45 -200 45
191322287.04784 -0.15285823 -7.3206568 -200 45 -200 45 -200 45
192322403.73396 -0.15327412 -7.3512669 -200 45 -200 45 -200 45
193322520.42007 -0.15579769 -7.35748 -200 45 -200 45 -200 45
194322637.10618 -0.15775684 -7.3917751 -200 45 -200 45 -200 45
195322753.7923 -0.16110444 -7.4249263 -200 45 -200 45 -200 45
196322870.47841 -0.16053845 -7.4643998 -200 45 -200 45 -200 45
197322987.16453 -0.16380353 -7.4884281 -200 45 -200 45 -200 45
198323103.85064 -0.16434199 -7.5160489 -200 45 -200 45 -200 45
199323220.53676 -0.16638352 -7.5544915 -200 45 -200 45 -200 45
200323337.22287 -0.16789943 -7.5812993 -200 45 -200 45 -200 45
201323453.90898 -0.16848092 -7.6178365 -200 45 -200 45 -200 45
202323570.5951 -0.17181256 -7.6564541 -200 45 -200 45 -200 45
203323687.28121 -0.17394464 -7.6779652 -200 45 -200 45 -200 45
204323803.96733 -0.17247269 -7.7044134 -200 45 -200 45 -200 45
205323920.65344 -0.17642094 -7.7540627 -200 45 -200 45 -200 45
206324037.33956 -0.18085691 -7.790617 -200 45 -200 45 -200 45
207324154.02567 -0.17976084 -7.8262529 -200 45 -200 45 -200 45
208324270.71179 -0.18007679 -7.8441463 -200 45 -200 45 -200 45
209324387.3979 -0.18114758 -7.8834853 -200 45 -200 45 -200 45
210324504.08401 -0.18229473 -7.937212 -200 45 -200 45 -200 45
211324620.77013 -0.18611901 -7.9641252 -200 45 -200 45 -200 45
212324737.45624 -0.18717748 -8.0316648 -200 45 -200 45 -200 45
213324854.14236 -0.18851277 -8.053442 -200 45 -200 45 -200 45
214324970.82847 -0.18967594 -8.0923433 -200 45 -200 45 -200 45
215325087.51459 -0.19490081 -8.1395473 -200 45 -200 45 -200 45
216325204.2007 -0.19522329 -8.1926928 -200 45 -200 45 -200 45
217325320.88681 -0.19358088 -8.2264748 -200 45 -200 45 -200 45
218325437.57293 -0.1962848 -8.2625427 -200 45 -200 45 -200 45
219325554.25904 -0.19632758 -8.3145514 -200 45 -200 45 -200 45
220325670.94516 -0.20071237 -8.3500519 -200 45 -200 45 -200 45
221325787.63127 -0.20221455 -8.3872995 -200 45 -200 45 -200 45
222325904.31739 -0.20215298 -8.4397364 -200 45 -200 45 -200 45
223326021.0035 -0.20583411 -8.4789562 -200 45 -200 45 -200 45
224326137.68961 -0.20959713 -8.5303993 -200 45 -200 45 -200 45
225326254.37573 -0.20812553 -8.5722837 -200 45 -200 45 -200 45
226326371.06184 -0.20873931 -8.6250286 -200 45 -200 45 -200 45
227326487.74796 -0.21251844 -8.6628046 -200 45 -200 45 -200 45
228326604.43407 -0.2136897 -8.7063971 -200 45 -200 45 -200 45
229326721.12019 -0.21438421 -8.7481174 -200 45 -200 45 -200 45
230326837.8063 -0.21722658 -8.8029423 -200 45 -200 45 -200 45
231326954.49242 -0.21690683 -8.8539352 -200 45 -200 45 -200 45
232327071.17853 -0.21995969 -8.8948593 -200 45 -200 45 -200 45
233327187.86464 -0.22058794 -8.9406185 -200 45 -200 45 -200 45
234327304.55076 -0.22218992 -8.9768295 -200 45 -200 45 -200 45
235327421.23687 -0.22494115 -9.0262671 -200 45 -200 45 -200 45
236327537.92299 -0.22681691 -9.0650959 -200 45 -200 45 -200 45
237327654.6091 -0.22852977 -9.1159029 -200 45 -200 45 -200 45
238327771.29522 -0.22827549 -9.1626911 -200 45 -200 45 -200 45
239327887.98133 -0.231599 -9.1951809 -200 45 -200 45 -200 45
240328004.66744 -0.23325776 -9.2238464 -200 45 -200 45 -200 45
241328121.35356 -0.23249768 -9.2834797 -200 45 -200 45 -200 45
242328238.03967 -0.23477779 -9.3069191 -200 45 -200 45 -200 45
243328354.72579 -0.23724502 -9.357955 -200 45 -200 45 -200 45
244328471.4119 -0.23999679 -9.3926353 -200 45 -200 45 -200 45
245328588.09802 -0.24193762 -9.425209 -200 45 -200 45 -200 45
246328704.78413 -0.24258605 -9.4576073 -200 45 -200 45 -200 45
247328821.47025 -0.24371259 -9.5011177 -200 45 -200 45 -200 45
248328938.15636 -0.24636489 -9.5292816 -200 45 -200 45 -200 45
249329054.84247 -0.24549048 -9.5707464 -200 45 -200 45 -200 45
250329171.52859 -0.24715838 -9.6146717 -200 45 -200 45 -200 45
251329288.2147 -0.24858928 -9.6409454 -200 45 -200 45 -200 45
252329404.90082 -0.25102624 -9.6670637 -200 45 -200 45 -200 45
253329521.58693 -0.24962251 -9.6960688 -200 45 -200 45 -200 45
254329638.27305 -0.25426483 -9.7360582 -200 45 -200 45 -200 45
255329754.95916 -0.25416082 -9.7690468 -200 45 -200 45 -200 45
256329871.64527 -0.25624338 -9.7948914 -200 45 -200 45 -200 45
257329988.33139 -0.25733694 -9.8154373 -200 45 -200 45 -200 45
258330105.0175 -0.25750285 -9.8442125 -200 45 -200 45 -200 45
259330221.70362 -0.26154763 -9.8634539 -200 45 -200 45 -200 45
260330338.38973 -0.26460922 -9.8899488 -200 45 -200 45 -200 45
261330455.07585 -0.26594487 -9.9247313 -200 45 -200 45 -200 45
262330571.76196 -0.2665264 -9.9462099 -200 45 -200 45 -200 45
263330688.44807 -0.26976091 -9.9783649 -200 45 -200 45 -200 45
264330805.13419 -0.27151945 -9.9892073 -200 45 -200 45 -200 45
265330921.8203 -0.27266648 -10.020632 -200 45 -200 45 -200 45
266331038.50642 -0.27782828 -10.038976 -200 45 -200 45 -200 45
267331155.19253 -0.27726617 -10.075691 -200 45 -200 45 -200 45
268331271.87865 -0.27931762 -10.091398 -200 45 -200 45 -200 45
269331388.56476 -0.28103557 -10.107942 -200 45 -200 45 -200 45
270331505.25088 -0.2831645 -10.136228 -200 45 -200 45 -200 45
271331621.93699 -0.28576913 -10.14926 -200 45 -200 45 -200 45
272331738.6231 -0.28662929 -10.175708 -200 45 -200 45 -200 45
273331855.30922 -0.287595 -10.192073 -200 45 -200 45 -200 45
274331971.99533 -0.29111901 -10.214046 -200 45 -200 45 -200 45
275332088.68145 -0.29259157 -10.222669 -200 45 -200 45 -200 45
276332205.36756 -0.29511043 -10.257861 -200 45 -200 45 -200 45
277332322.05368 -0.29713401 -10.282975 -200 45 -200 45 -200 45
278332438.73979 -0.30083662 -10.292769 -200 45 -200 45 -200 45
279332555.4259 -0.30131105 -10.320605 -200 45 -200 45 -200 45
280332672.11202 -0.3047826 -10.359093 -200 45 -200 45 -200 45
281332788.79813 -0.30510139 -10.38658 -200 45 -200 45 -200 45
282332905.48425 -0.30905652 -10.407434 -200 45 -200 45 -200 45
283333022.17036 -0.31077319 -10.441175 -200 45 -200 45 -200 45
284333138.85648 -0.31326675 -10.46164 -200 45 -200 45 -200 45
285333255.54259 -0.31441987 -10.495111 -200 45 -200 45 -200 45
286333372.2287 -0.31852889 -10.527556 -200 45 -200 45 -200 45
287333488.91482 -0.31965858 -10.555573 -200 45 -200 45 -200 45
288333605.60093 -0.32159299 -10.583598 -200 45 -200 45 -200 45
289333722.28705 -0.32383645 -10.597879 -200 45 -200 45 -200 45
290333838.97316 -0.32636821 -10.643994 -200 45 -200 45 -200 45
291333955.65928 -0.32698861 -10.687991 -200 45 -200 45 -200 45
292334072.34539 -0.3299869 -10.713228 -200 45 -200 45 -200 45
293334189.03151 -0.33169514 -10.741098 -200 45 -200 45 -200 45
294334305.71762 -0.33394745 -10.793308 -200 45 -200 45 -200 45
295334422.40373 -0.33800533 -10.836336 -200 45 -200 45 -200 45
296334539.08985 -0.33908722 -10.867445 -200 45 -200 45 -200 45
297334655.77596 -0.34438327 -10.918087 -200 45 -200 45 -200 45
298334772.46208 -0.34409016 -10.936323 -200 45 -200 45 -200 45
299334889.14819 -0.34789336 -10.994725 -200 45 -200 45 -200 45
300335005.83431 -0.34852189 -11.028843 -200 45 -200 45 -200 45
301335122.52042 -0.35011899 -11.093009 -200 45 -200 45 -200 45
302335239.20653 -0.35439146 -11.113602 -200 45 -200 45 -200 45
303335355.89265 -0.35541138 -11.155503 -200 45 -200 45 -200 45
304335472.57876 -0.35761112 -11.208474 -200 45 -200 45 -200 45
305335589.26488 -0.3571586 -11.233616 -200 45 -200 45 -200 45
306335705.95099 -0.36043489 -11.288009 -200 45 -200 45 -200 45
307335822.63711 -0.36203584 -11.328444 -200 45 -200 45 -200 45
308335939.32322 -0.36584464 -11.373927 -200 45 -200 45 -200 45
309336056.00933 -0.36630905 -11.421451 -200 45 -200 45 -200 45
310336172.69545 -0.36967736 -11.456089 -200 45 -200 45 -200 45
311336289.38156 -0.37222695 -11.515268 -200 45 -200 45 -200 45
312336406.06768 -0.37216321 -11.559778 -200 45 -200 45 -200 45
313336522.75379 -0.37511218 -11.616594 -200 45 -200 45 -200 45
314336639.43991 -0.37679139 -11.665322 -200 45 -200 45 -200 45
315336756.12602 -0.37750629 -11.71075 -200 45 -200 45 -200 45
316336872.81214 -0.38074541 -11.757215 -200 45 -200 45 -200 45
317336989.49825 -0.38297269 -11.80564 -200 45 -200 45 -200 45
318337106.18436 -0.38510919 -11.838668 -200 45 -200 45 -200 45
319337222.87048 -0.3839694 -11.886073 -200 45 -200 45 -200 45
320337339.55659 -0.38753316 -11.930916 -200 45 -200 45 -200 45
321337456.24271 -0.38924718 -11.972762 -200 45 -200 45 -200 45
322337572.92882 -0.38846862 -12.004832 -200 45 -200 45 -200 45
323337689.61494 -0.39150771 -12.034185 -200 45 -200 45 -200 45
324337806.30105 -0.39295524 -12.096467 -200 45 -200 45 -200 45
325337922.98716 -0.39421955 -12.13226 -200 45 -200 45 -200 45
326338039.67328 -0.39692995 -12.164445 -200 45 -200 45 -200 45
327338156.35939 -0.39641008 -12.215598 -200 45 -200 45 -200 45
328338273.04551 -0.40179756 -12.240743 -200 45 -200 45 -200 45
329338389.73162 -0.40087822 -12.278454 -200 45 -200 45 -200 45
330338506.41774 -0.40375271 -12.316625 -200 45 -200 45 -200 45
331338623.10385 -0.40430728 -12.338314 -200 45 -200 45 -200 45
332338739.78997 -0.40903443 -12.378765 -200 45 -200 45 -200 45
333338856.47608 -0.40722358 -12.412206 -200 45 -200 45 -200 45
334338973.16219 -0.41154519 -12.430369 -200 45 -200 45 -200 45
335339089.84831 -0.41214886 -12.457895 -200 45 -200 45 -200 45
336339206.53442 -0.41604203 -12.48439 -200 45 -200 45 -200 45
337339323.22054 -0.41627994 -12.518489 -200 45 -200 45 -200 45
338339439.90665 -0.41728604 -12.533351 -200 45 -200 45 -200 45
339339556.59277 -0.41832969 -12.561571 -200 45 -200 45 -200 45
340339673.27888 -0.42062512 -12.576152 -200 45 -200 45 -200 45
341339789.96499 -0.42371392 -12.618189 -200 45 -200 45 -200 45
342339906.65111 -0.42510426 -12.630983 -200 45 -200 45 -200 45
343340023.33722 -0.4257749 -12.652902 -200 45 -200 45 -200 45
344340140.02334 -0.42811856 -12.671505 -200 45 -200 45 -200 45
345340256.70945 -0.43355438 -12.693642 -200 45 -200 45 -200 45
346340373.39557 -0.43427011 -12.711417 -200 45 -200 45 -200 45
347340490.08168 -0.43920785 -12.735246 -200 45 -200 45 -200 45
348340606.76779 -0.44023961 -12.741353 -200 45 -200 45 -200 45
349340723.45391 -0.44182554 -12.750636 -200 45 -200 45 -200 45
350340840.14002 -0.44343928 -12.782167 -200 45 -200 45 -200 45
351340956.82614 -0.44549131 -12.79971 -200 45 -200 45 -200 45
352341073.51225 -0.44689122 -12.81061 -200 45 -200 45 -200 45
353341190.19837 -0.44856656 -12.810623 -200 45 -200 45 -200 45
354341306.88448 -0.44996431 -12.832878 -200 45 -200 45 -200 45
355341423.5706 -0.45426661 -12.831502 -200 45 -200 45 -200 45
356341540.25671 -0.45317835 -12.861619 -200 45 -200 45 -200 45
357341656.94282 -0.45851162 -12.87589 -200 45 -200 45 -200 45
358341773.62894 -0.46330881 -12.908044 -200 45 -200 45 -200 45
359341890.31505 -0.46466696 -12.910255 -200 45 -200 45 -200 45
360342007.00117 -0.46363917 -12.927128 -200 45 -200 45 -200 45
361342123.68728 -0.46656013 -12.960828 -200 45 -200 45 -200 45
362342240.3734 -0.47090515 -12.975402 -200 45 -200 45 -200 45
363342357.05951 -0.47433311 -12.991 -200 45 -200 45 -200 45
364342473.74562 -0.47605315 -13.023819 -200 45 -200 45 -200 45
365342590.43174 -0.47929579 -13.033752 -200 45 -200 45 -200 45
366342707.11785 -0.48191696 -13.060854 -200 45 -200 45 -200 45
367342823.80397 -0.483787 -13.092722 -200 45 -200 45 -200 45
368342940.49008 -0.48492318 -13.098289 -200 45 -200 45 -200 45
369343057.1762 -0.48928258 -13.137907 -200 45 -200 45 -200 45
370343173.86231 -0.49224928 -13.154648 -200 45 -200 45 -200 45
371343290.54842 -0.49321425 -13.19465 -200 45 -200 45 -200 45
372343407.23454 -0.49823374 -13.230995 -200 45 -200 45 -200 45
373343523.92065 -0.49988106 -13.252621 -200 45 -200 45 -200 45
374343640.60677 -0.50134975 -13.282811 -200 45 -200 45 -200 45
375343757.29288 -0.50569457 -13.321384 -200 45 -200 45 -200 45
376343873.979 -0.50736862 -13.360122 -200 45 -200 45 -200 45
377343990.66511 -0.51253581 -13.38683 -200 45 -200 45 -200 45
378344107.35123 -0.51719421 -13.433466 -200 45 -200 45 -200 45
379344224.03734 -0.51813793 -13.470951 -200 45 -200 45 -200 45
380344340.72345 -0.52288353 -13.509306 -200 45 -200 45 -200 45
381344457.40957 -0.52422917 -13.540883 -200 45 -200 45 -200 45
382344574.09568 -0.52834725 -13.579031 -200 45 -200 45 -200 45
383344690.7818 -0.52937847 -13.6274 -200 45 -200 45 -200 45
384344807.46791 -0.53409392 -13.664555 -200 45 -200 45 -200 45
385344924.15403 -0.53575963 -13.704077 -200 45 -200 45 -200 45
386345040.84014 -0.53779775 -13.729317 -200 45 -200 45 -200 45
387345157.52625 -0.5412305 -13.784769 -200 45 -200 45 -200 45
388345274.21237 -0.54238361 -13.828191 -200 45 -200 45 -200 45
389345390.89848 -0.54542875 -13.867193 -200 45 -200 45 -200 45
390345507.5846 -0.54863733 -13.921772 -200 45 -200 45 -200 45
391345624.27071 -0.55275601 -13.948003 -200 45 -200 45 -200 45
392345740.95683 -0.55247378 -14.009005 -200 45 -200 45 -200 45
393345857.64294 -0.55592996 -14.056334 -200 45 -200 45 -200 45
394345974.32905 -0.55844086 -14.108302 -200 45 -200 45 -200 45
395346091.01517 -0.56378949 -14.142008 -200 45 -200 45 -200 45
396346207.70128 -0.5650686 -14.187667 -200 45 -200 45 -200 45
397346324.3874 -0.56660932 -14.224331 -200 45 -200 45 -200 45
398346441.07351 -0.56790048 -14.28356 -200 45 -200 45 -200 45
399346557.75963 -0.56999624 -14.323455 -200 45 -200 45 -200 45
400346674.44574 -0.57161552 -14.360422 -200 45 -200 45 -200 45
401346791.13186 -0.57431513 -14.405554 -200 45 -200 45 -200 45
402346907.81797 -0.57320082 -14.437596 -200 45 -200 45 -200 45
403347024.50408 -0.57838166 -14.476753 -200 45 -200 45 -200 45
404347141.1902 -0.58007181 -14.513602 -200 45 -200 45 -200 45
405347257.87631 -0.58270448 -14.550393 -200 45 -200 45 -200 45
406347374.56243 -0.58376884 -14.595355 -200 45 -200 45 -200 45
407347491.24854 -0.5865922 -14.629408 -200 45 -200 45 -200 45
408347607.93466 -0.58713061 -14.668533 -200 45 -200 45 -200 45
409347724.62077 -0.5903123 -14.70635 -200 45 -200 45 -200 45
410347841.30688 -0.58996391 -14.73224 -200 45 -200 45 -200 45
411347957.993 -0.59535927 -14.759623 -200 45 -200 45 -200 45
412348074.67911 -0.59434545 -14.793606 -200 45 -200 45 -200 45
413348191.36523 -0.59698325 -14.824921 -200 45 -200 45 -200 45
414348308.05134 -0.59808469 -14.851912 -200 45 -200 45 -200 45
415348424.73746 -0.6014201 -14.88012 -200 45 -200 45 -200 45
416348541.42357 -0.59993708 -14.907477 -200 45 -200 45 -200 45
417348658.10968 -0.60572278 -14.920859 -200 45 -200 45 -200 45
418348774.7958 -0.60688359 -14.950306 -200 45 -200 45 -200 45
419348891.48191 -0.60705745 -14.970938 -200 45 -200 45 -200 45
420349008.16803 -0.60799646 -14.989479 -200 45 -200 45 -200 45
421349124.85414 -0.60921329 -14.993141 -200 45 -200 45 -200 45
422349241.54026 -0.60984176 -15.00732 -200 45 -200 45 -200 45
423349358.22637 -0.6127975 -15.043782 -200 45 -200 45 -200 45
424349474.91249 -0.61429983 -15.047757 -200 45 -200 45 -200 45
425349591.5986 -0.61596704 -15.071132 -200 45 -200 45 -200 45
426349708.28471 -0.61784285 -15.069648 -200 45 -200 45 -200 45
427349824.97083 -0.62320459 -15.099129 -200 45 -200 45 -200 45
428349941.65694 -0.62457991 -15.099189 -200 45 -200 45 -200 45
429350058.34306 -0.62779301 -15.11801 -200 45 -200 45 -200 45
430350175.02917 -0.62803531 -15.144051 -200 45 -200 45 -200 45
431350291.71529 -0.62854296 -15.136287 -200 45 -200 45 -200 45
432350408.4014 -0.6305263 -15.139632 -200 45 -200 45 -200 45
433350525.08751 -0.63268846 -15.144999 -200 45 -200 45 -200 45
434350641.77363 -0.63471478 -15.169261 -200 45 -200 45 -200 45
435350758.45974 -0.63740027 -15.157084 -200 45 -200 45 -200 45
436350875.14586 -0.64019871 -15.168015 -200 45 -200 45 -200 45
437350991.83197 -0.6415863 -15.180888 -200 45 -200 45 -200 45
438351108.51809 -0.64420253 -15.186252 -200 45 -200 45 -200 45
439351225.2042 -0.64517665 -15.195089 -200 45 -200 45 -200 45
440351341.89032 -0.64631081 -15.212478 -200 45 -200 45 -200 45
441351458.57643 -0.64961791 -15.214511 -200 45 -200 45 -200 45
442351575.26254 -0.65234905 -15.226916 -200 45 -200 45 -200 45
443351691.94866 -0.65781468 -15.255393 -200 45 -200 45 -200 45
444351808.63477 -0.65951586 -15.256416 -200 45 -200 45 -200 45
445351925.32089 -0.66138834 -15.27066 -200 45 -200 45 -200 45
446352042.007 -0.6640023 -15.290707 -200 45 -200 45 -200 45
447352158.69312 -0.66703743 -15.293447 -200 45 -200 45 -200 45
448352275.37923 -0.66969043 -15.322503 -200 45 -200 45 -200 45
449352392.06534 -0.67551905 -15.333988 -200 45 -200 45 -200 45
450352508.75146 -0.6750077 -15.354243 -200 45 -200 45 -200 45
451352625.43757 -0.67716247 -15.373434 -200 45 -200 45 -200 45
452352742.12369 -0.68004966 -15.379501 -200 45 -200 45 -200 45
453352858.8098 -0.68105608 -15.399426 -200 45 -200 45 -200 45
454352975.49592 -0.68514591 -15.439825 -200 45 -200 45 -200 45
455353092.18203 -0.68832046 -15.461156 -200 45 -200 45 -200 45
456353208.86814 -0.69254893 -15.480959 -200 45 -200 45 -200 45
457353325.55426 -0.69454265 -15.515914 -200 45 -200 45 -200 45
458353442.24037 -0.69711769 -15.53658 -200 45 -200 45 -200 45
459353558.92649 -0.70077521 -15.57603 -200 45 -200 45 -200 45
460353675.6126 -0.70407176 -15.607803 -200 45 -200 45 -200 45
461353792.29872 -0.70794779 -15.629495 -200 45 -200 45 -200 45
462353908.98483 -0.7092908 -15.677492 -200 45 -200 45 -200 45
463354025.67095 -0.71109396 -15.725056 -200 45 -200 45 -200 45
464354142.35706 -0.71602565 -15.756751 -200 45 -200 45 -200 45
465354259.04317 -0.71782005 -15.773089 -200 45 -200 45 -200 45
466354375.72929 -0.71649516 -15.836526 -200 45 -200 45 -200 45
467354492.4154 -0.72001046 -15.871219 -200 45 -200 45 -200 45
468354609.10152 -0.72189212 -15.902366 -200 45 -200 45 -200 45
469354725.78763 -0.72351462 -15.961654 -200 45 -200 45 -200 45
470354842.47375 -0.72749591 -15.986425 -200 45 -200 45 -200 45
471354959.15986 -0.72787511 -16.029037 -200 45 -200 45 -200 45
472355075.84597 -0.73017818 -16.082685 -200 45 -200 45 -200 45
473355192.53209 -0.73210126 -16.129631 -200 45 -200 45 -200 45
474355309.2182 -0.73432589 -16.185368 -200 45 -200 45 -200 45
475355425.90432 -0.73617417 -16.234434 -200 45 -200 45 -200 45
476355542.59043 -0.73942894 -16.279373 -200 45 -200 45 -200 45
477355659.27655 -0.74089497 -16.333233 -200 45 -200 45 -200 45
478355775.96266 -0.73962104 -16.390497 -200 45 -200 45 -200 45
479355892.64877 -0.74439138 -16.430012 -200 45 -200 45 -200 45
480356009.33489 -0.74404204 -16.500057 -200 45 -200 45 -200 45
481356126.021 -0.74756527 -16.544098 -200 45 -200 45 -200 45
482356242.70712 -0.74838328 -16.588036 -200 45 -200 45 -200 45
483356359.39323 -0.75233787 -16.635536 -200 45 -200 45 -200 45
484356476.07935 -0.75379103 -16.692085 -200 45 -200 45 -200 45
485356592.76546 -0.75582844 -16.738607 -200 45 -200 45 -200 45
486356709.45158 -0.7571919 -16.792868 -200 45 -200 45 -200 45
487356826.13769 -0.76288682 -16.833395 -200 45 -200 45 -200 45
488356942.8238 -0.76378912 -16.85107 -200 45 -200 45 -200 45
489357059.50992 -0.76596773 -16.906685 -200 45 -200 45 -200 45
490357176.19603 -0.76892751 -16.942663 -200 45 -200 45 -200 45
491357292.88215 -0.77122033 -16.981779 -200 45 -200 45 -200 45
492357409.56826 -0.77456546 -17.007553 -200 45 -200 45 -200 45
493357526.25438 -0.77910244 -17.053629 -200 45 -200 45 -200 45
494357642.94049 -0.7792474 -17.083618 -200 45 -200 45 -200 45
495357759.6266 -0.78001434 -17.117004 -200 45 -200 45 -200 45
496357876.31272 -0.78517324 -17.147594 -200 45 -200 45 -200 45
497357992.99883 -0.78366894 -17.173126 -200 45 -200 45 -200 45
498358109.68495 -0.78748578 -17.20577 -200 45 -200 45 -200 45
499358226.37106 -0.78926766 -17.222931 -200 45 -200 45 -200 45
500358343.05718 -0.79440683 -17.23049 -200 45 -200 45 -200 45
501358459.74329 -0.79257739 -17.265638 -200 45 -200 45 -200 45
502358576.4294 -0.79646617 -17.267859 -200 45 -200 45 -200 45
503358693.11552 -0.79581875 -17.283768 -200 45 -200 45 -200 45
504358809.80163 -0.79912448 -17.288799 -200 45 -200 45 -200 45
505358926.48775 -0.8012315 -17.297054 -200 45 -200 45 -200 45
506359043.17386 -0.80531025 -17.30872 -200 45 -200 45 -200 45
507359159.85998 -0.80735201 -17.327486 -200 45 -200 45 -200 45
508359276.54609 -0.80860323 -17.343225 -200 45 -200 45 -200 45
509359393.23221 -0.81117195 -17.352043 -200 45 -200 45 -200 45
510359509.91832 -0.81383777 -17.347349 -200 45 -200 45 -200 45
511359626.60443 -0.81428701 -17.359249 -200 45 -200 45 -200 45
512359743.29055 -0.81697381 -17.367352 -200 45 -200 45 -200 45
513359859.97666 -0.81987697 -17.36796 -200 45 -200 45 -200 45
514359976.66278 -0.81982476 -17.369635 -200 45 -200 45 -200 45
515360093.34889 -0.82313377 -17.378056 -200 45 -200 45 -200 45
516360210.03501 -0.82636893 -17.371613 -200 45 -200 45 -200 45
517360326.72112 -0.82408005 -17.375345 -200 45 -200 45 -200 45
518360443.40723 -0.82850891 -17.377895 -200 45 -200 45 -200 45
519360560.09335 -0.831644 -17.371016 -200 45 -200 45 -200 45
520360676.77946 -0.8344425 -17.374477 -200 45 -200 45 -200 45
521360793.46558 -0.83563596 -17.370031 -200 45 -200 45 -200 45
522360910.15169 -0.83711255 -17.378086 -200 45 -200 45 -200 45
523361026.83781 -0.84092546 -17.36722 -200 45 -200 45 -200 45
524361143.52392 -0.84477067 -17.390293 -200 45 -200 45 -200 45
525361260.21004 -0.84790552 -17.416243 -200 45 -200 45 -200 45
526361376.89615 -0.85079831 -17.399349 -200 45 -200 45 -200 45
527361493.58226 -0.85233742 -17.409529 -200 45 -200 45 -200 45
528361610.26838 -0.85472131 -17.415257 -200 45 -200 45 -200 45
529361726.95449 -0.85757947 -17.41255 -200 45 -200 45 -200 45
530361843.64061 -0.86066747 -17.422125 -200 45 -200 45 -200 45
531361960.32672 -0.86199158 -17.427954 -200 45 -200 45 -200 45
532362077.01284 -0.86536413 -17.45129 -200 45 -200 45 -200 45
533362193.69895 -0.86584187 -17.465355 -200 45 -200 45 -200 45
534362310.38506 -0.87107438 -17.455933 -200 45 -200 45 -200 45
535362427.07118 -0.87305015 -17.495201 -200 45 -200 45 -200 45
536362543.75729 -0.87394685 -17.498693 -200 45 -200 45 -200 45
537362660.44341 -0.87970734 -17.511475 -200 45 -200 45 -200 45
538362777.12952 -0.88250816 -17.543346 -200 45 -200 45 -200 45
539362893.81564 -0.88276988 -17.567722 -200 45 -200 45 -200 45
540363010.50175 -0.88571233 -17.592117 -200 45 -200 45 -200 45
541363127.18786 -0.89018899 -17.624237 -200 45 -200 45 -200 45
542363243.87398 -0.8949753 -17.650156 -200 45 -200 45 -200 45
543363360.56009 -0.89581168 -17.668205 -200 45 -200 45 -200 45
544363477.24621 -0.8987633 -17.711544 -200 45 -200 45 -200 45
545363593.93232 -0.90156657 -17.743942 -200 45 -200 45 -200 45
546363710.61844 -0.90164399 -17.789848 -200 45 -200 45 -200 45
547363827.30455 -0.90663397 -17.797491 -200 45 -200 45 -200 45
548363943.99067 -0.90892786 -17.860083 -200 45 -200 45 -200 45
549364060.67678 -0.90753227 -17.882965 -200 45 -200 45 -200 45
550364177.36289 -0.91094518 -17.91995 -200 45 -200 45 -200 45
551364294.04901 -0.91209376 -17.969582 -200 45 -200 45 -200 45
552364410.73512 -0.91417933 -18.003775 -200 45 -200 45 -200 45
553364527.42124 -0.91863686 -18.054029 -200 45 -200 45 -200 45
554364644.10735 -0.91847408 -18.108028 -200 45 -200 45 -200 45
555364760.79347 -0.92121935 -18.149061 -200 45 -200 45 -200 45
556364877.47958 -0.92619926 -18.196375 -200 45 -200 45 -200 45
557364994.16569 -0.93035352 -18.235266 -200 45 -200 45 -200 45
558365110.85181 -0.92987829 -18.291622 -200 45 -200 45 -200 45
559365227.53792 -0.93389583 -18.342173 -200 45 -200 45 -200 45
560365344.22404 -0.93362302 -18.377457 -200 45 -200 45 -200 45
561365460.91015 -0.93697655 -18.430338 -200 45 -200 45 -200 45
562365577.59627 -0.93662459 -18.485579 -200 45 -200 45 -200 45
563365694.28238 -0.93946457 -18.528118 -200 45 -200 45 -200 45
564365810.96849 -0.9414894 -18.563911 -200 45 -200 45 -200 45
565365927.65461 -0.9408586 -18.615469 -200 45 -200 45 -200 45
566366044.34072 -0.9426229 -18.663132 -200 45 -200 45 -200 45
567366161.02684 -0.94257981 -18.706476 -200 45 -200 45 -200 45
568366277.71295 -0.94549066 -18.739721 -200 45 -200 45 -200 45
569366394.39907 -0.94749057 -18.788946 -200 45 -200 45 -200 45
570366511.08518 -0.94661784 -18.826288 -200 45 -200 45 -200 45
571366627.7713 -0.94755852 -18.862238 -200 45 -200 45 -200 45
572366744.45741 -0.95279956 -18.918013 -200 45 -200 45 -200 45
573366861.14352 -0.9517923 -18.94389 -200 45 -200 45 -200 45
574366977.82964 -0.95299941 -18.993807 -200 45 -200 45 -200 45
575367094.51575 -0.95653766 -19.012072 -200 45 -200 45 -200 45
576367211.20187 -0.95707619 -19.06427 -200 45 -200 45 -200 45
577367327.88798 -0.95666546 -19.098507 -200 45 -200 45 -200 45
578367444.5741 -0.96060872 -19.123617 -200 45 -200 45 -200 45
579367561.26021 -0.96154118 -19.161057 -200 45 -200 45 -200 45
580367677.94632 -0.96167779 -19.177782 -200 45 -200 45 -200 45
581367794.63244 -0.9630838 -19.206175 -200 45 -200 45 -200 45
582367911.31855 -0.96282303 -19.223621 -200 45 -200 45 -200 45
583368028.00467 -0.96533269 -19.24859 -200 45 -200 45 -200 45
584368144.69078 -0.96843094 -19.263742 -200 45 -200 45 -200 45
585368261.3769 -0.96891791 -19.278845 -200 45 -200 45 -200 45
586368378.06301 -0.96960098 -19.304594 -200 45 -200 45 -200 45
587368494.74912 -0.96977091 -19.315956 -200 45 -200 45 -200 45
588368611.43524 -0.97275573 -19.335379 -200 45 -200 45 -200 45
589368728.12135 -0.97479707 -19.347584 -200 45 -200 45 -200 45
590368844.80747 -0.97634643 -19.359707 -200 45 -200 45 -200 45
591368961.49358 -0.97827405 -19.373125 -200 45 -200 45 -200 45
592369078.1797 -0.98051947 -19.383972 -200 45 -200 45 -200 45
593369194.86581 -0.98501706 -19.384516 -200 45 -200 45 -200 45
594369311.55193 -0.98558283 -19.383913 -200 45 -200 45 -200 45
595369428.23804 -0.98561335 -19.384371 -200 45 -200 45 -200 45
596369544.92415 -0.99059224 -19.394194 -200 45 -200 45 -200 45
597369661.61027 -0.99063939 -19.387558 -200 45 -200 45 -200 45
598369778.29638 -0.99470055 -19.396101 -200 45 -200 45 -200 45
599369894.9825 -0.9956755 -19.392691 -200 45 -200 45 -200 45
600370011.66861 -0.99871176 -19.393171 -200 45 -200 45 -200 45
601370128.35473 -1.0004518 -19.385889 -200 45 -200 45 -200 45
602370245.04084 -1.00111 -19.407661 -200 45 -200 45 -200 45
603370361.72695 -1.0066079 -19.395887 -200 45 -200 45 -200 45
604370478.41307 -1.0058224 -19.391653 -200 45 -200 45 -200 45
605370595.09918 -1.008245 -19.394545 -200 45 -200 45 -200 45
606370711.7853 -1.0120066 -19.40383 -200 45 -200 45 -200 45
607370828.47141 -1.0167401 -19.41416 -200 45 -200 45 -200 45
608370945.15753 -1.0203798 -19.42351 -200 45 -200 45 -200 45
609371061.84364 -1.0242916 -19.420427 -200 45 -200 45 -200 45
610371178.52976 -1.0272394 -19.426922 -200 45 -200 45 -200 45
611371295.21587 -1.0314758 -19.42337 -200 45 -200 45 -200 45
612371411.90198 -1.0345089 -19.439974 -200 45 -200 45 -200 45
613371528.5881 -1.0374436 -19.436281 -200 45 -200 45 -200 45
614371645.27421 -1.0397834 -19.450945 -200 45 -200 45 -200 45
615371761.96033 -1.0422134 -19.459076 -200 45 -200 45 -200 45
616371878.64644 -1.0442413 -19.46501 -200 45 -200 45 -200 45
617371995.33256 -1.0507487 -19.465864 -200 45 -200 45 -200 45
618372112.01867 -1.0541626 -19.486143 -200 45 -200 45 -200 45
619372228.70478 -1.055181 -19.501726 -200 45 -200 45 -200 45
620372345.3909 -1.0596694 -19.531801 -200 45 -200 45 -200 45
621372462.07701 -1.0626231 -19.544386 -200 45 -200 45 -200 45
622372578.76313 -1.0659428 -19.558823 -200 45 -200 45 -200 45
623372695.44924 -1.0699499 -19.584715 -200 45 -200 45 -200 45
624372812.13536 -1.0722939 -19.608047 -200 45 -200 45 -200 45
625372928.82147 -1.0784246 -19.642204 -200 45 -200 45 -200 45
626373045.50758 -1.0794762 -19.667898 -200 45 -200 45 -200 45
627373162.1937 -1.0840629 -19.692526 -200 45 -200 45 -200 45
628373278.87981 -1.0869648 -19.734964 -200 45 -200 45 -200 45
629373395.56593 -1.0905471 -19.758715 -200 45 -200 45 -200 45
630373512.25204 -1.0942218 -19.779808 -200 45 -200 45 -200 45
631373628.93816 -1.0962045 -19.82305 -200 45 -200 45 -200 45
632373745.62427 -1.0987635 -19.859224 -200 45 -200 45 -200 45
633373862.31039 -1.1014711 -19.880669 -200 45 -200 45 -200 45
634373978.9965 -1.106245 -19.92194 -200 45 -200 45 -200 45
635374095.68261 -1.1067894 -19.959791 -200 45 -200 45 -200 45
636374212.36873 -1.1095344 -20.008808 -200 45 -200 45 -200 45
637374329.05484 -1.1115956 -20.048613 -200 45 -200 45 -200 45
638374445.74096 -1.1144153 -20.080603 -200 45 -200 45 -200 45
639374562.42707 -1.1155336 -20.141605 -200 45 -200 45 -200 45
640374679.11319 -1.1219395 -20.178514 -200 45 -200 45 -200 45
641374795.7993 -1.1200231 -20.222395 -200 45 -200 45 -200 45
642374912.48541 -1.1239735 -20.265856 -200 45 -200 45 -200 45
643375029.17153 -1.1248837 -20.300604 -200 45 -200 45 -200 45
644375145.85764 -1.124679 -20.354471 -200 45 -200 45 -200 45
645375262.54376 -1.126682 -20.400553 -200 45 -200 45 -200 45
646375379.22987 -1.1262707 -20.452015 -200 45 -200 45 -200 45
647375495.91599 -1.1275021 -20.481703 -200 45 -200 45 -200 45
648375612.6021 -1.1289608 -20.543592 -200 45 -200 45 -200 45
649375729.28821 -1.1311905 -20.575071 -200 45 -200 45 -200 45
650375845.97433 -1.1318781 -20.62038 -200 45 -200 45 -200 45
651375962.66044 -1.1343133 -20.664696 -200 45 -200 45 -200 45
652376079.34656 -1.1343433 -20.71047 -200 45 -200 45 -200 45
653376196.03267 -1.1343213 -20.752888 -200 45 -200 45 -200 45
654376312.71879 -1.1351527 -20.794424 -200 45 -200 45 -200 45
655376429.4049 -1.1385579 -20.83005 -200 45 -200 45 -200 45
656376546.09102 -1.1406542 -20.863472 -200 45 -200 45 -200 45
657376662.77713 -1.1398177 -20.904625 -200 45 -200 45 -200 45
658376779.46324 -1.1398764 -20.935564 -200 45 -200 45 -200 45
659376896.14936 -1.1408235 -20.962248 -200 45 -200 45 -200 45
660377012.83547 -1.1416008 -20.999344 -200 45 -200 45 -200 45
661377129.52159 -1.1424062 -21.037397 -200 45 -200 45 -200 45
662377246.2077 -1.142184 -21.053438 -200 45 -200 45 -200 45
663377362.89382 -1.1421224 -21.061148 -200 45 -200 45 -200 45
664377479.57993 -1.142648 -21.094643 -200 45 -200 45 -200 45
665377596.26604 -1.1447699 -21.09927 -200 45 -200 45 -200 45
666377712.95216 -1.1447039 -21.146347 -200 45 -200 45 -200 45
667377829.63827 -1.1453258 -21.140831 -200 45 -200 45 -200 45
668377946.32439 -1.1428849 -21.158644 -200 45 -200 45 -200 45
669378063.0105 -1.1461117 -21.165064 -200 45 -200 45 -200 45
670378179.69662 -1.1463439 -21.176237 -200 45 -200 45 -200 45
671378296.38273 -1.1464208 -21.200937 -200 45 -200 45 -200 45
672378413.06884 -1.1505524 -21.226732 -200 45 -200 45 -200 45
673378529.75496 -1.1507953 -21.216259 -200 45 -200 45 -200 45
674378646.44107 -1.1498828 -21.230967 -200 45 -200 45 -200 45
675378763.12719 -1.1502043 -21.236771 -200 45 -200 45 -200 45
676378879.8133 -1.1530832 -21.243103 -200 45 -200 45 -200 45
677378996.49942 -1.1527689 -21.245056 -200 45 -200 45 -200 45
678379113.18553 -1.153178 -21.248243 -200 45 -200 45 -200 45
679379229.87165 -1.154712 -21.247694 -200 45 -200 45 -200 45
680379346.55776 -1.1553016 -21.262421 -200 45 -200 45 -200 45
681379463.24387 -1.1578108 -21.249592 -200 45 -200 45 -200 45
682379579.92999 -1.1598721 -21.257158 -200 45 -200 45 -200 45
683379696.6161 -1.1609274 -21.264282 -200 45 -200 45 -200 45
684379813.30222 -1.1645435 -21.253187 -200 45 -200 45 -200 45
685379929.98833 -1.1633915 -21.253784 -200 45 -200 45 -200 45
686380046.67445 -1.1676697 -21.250311 -200 45 -200 45 -200 45
687380163.36056 -1.1726425 -21.231388 -200 45 -200 45 -200 45
688380280.04667 -1.1737427 -21.257927 -200 45 -200 45 -200 45
689380396.73279 -1.1757165 -21.261959 -200 45 -200 45 -200 45
690380513.4189 -1.1802915 -21.256618 -200 45 -200 45 -200 45
691380630.10502 -1.1821198 -21.254013 -200 45 -200 45 -200 45
692380746.79113 -1.1843086 -21.261389 -200 45 -200 45 -200 45
693380863.47725 -1.1880649 -21.265648 -200 45 -200 45 -200 45
694380980.16336 -1.1900892 -21.26236 -200 45 -200 45 -200 45
695381096.84947 -1.1899045 -21.278746 -200 45 -200 45 -200 45
696381213.53559 -1.1947197 -21.288853 -200 45 -200 45 -200 45
697381330.2217 -1.1986113 -21.290239 -200 45 -200 45 -200 45
698381446.90782 -1.2015904 -21.302376 -200 45 -200 45 -200 45
699381563.59393 -1.2059772 -21.316149 -200 45 -200 45 -200 45
700381680.28005 -1.2063941 -21.327227 -200 45 -200 45 -200 45
701381796.96616 -1.2115753 -21.340158 -200 45 -200 45 -200 45
702381913.65228 -1.2162188 -21.346231 -200 45 -200 45 -200 45
703382030.33839 -1.2199093 -21.369976 -200 45 -200 45 -200 45
704382147.0245 -1.2253606 -21.398367 -200 45 -200 45 -200 45
705382263.71062 -1.2295139 -21.423964 -200 45 -200 45 -200 45
706382380.39673 -1.2304027 -21.447655 -200 45 -200 45 -200 45
707382497.08285 -1.2342143 -21.464655 -200 45 -200 45 -200 45
708382613.76896 -1.2385939 -21.511282 -200 45 -200 45 -200 45
709382730.45508 -1.241192 -21.531437 -200 45 -200 45 -200 45
710382847.14119 -1.24362 -21.557314 -200 45 -200 45 -200 45
711382963.8273 -1.2472867 -21.598345 -200 45 -200 45 -200 45
712383080.51342 -1.2514294 -21.644009 -200 45 -200 45 -200 45
713383197.19953 -1.2547929 -21.671988 -200 45 -200 45 -200 45
714383313.88565 -1.2603666 -21.722557 -200 45 -200 45 -200 45
715383430.57176 -1.2630126 -21.759367 -200 45 -200 45 -200 45
716383547.25788 -1.2653198 -21.795191 -200 45 -200 45 -200 45
717383663.94399 -1.2696348 -21.854553 -200 45 -200 45 -200 45
718383780.63011 -1.2734499 -21.886719 -200 45 -200 45 -200 45
719383897.31622 -1.2805934 -21.958931 -200 45 -200 45 -200 45
720384014.00233 -1.2827903 -21.988699 -200 45 -200 45 -200 45
721384130.68845 -1.2909026 -22.037556 -200 45 -200 45 -200 45
722384247.37456 -1.291877 -22.077488 -200 45 -200 45 -200 45
723384364.06068 -1.2943624 -22.131155 -200 45 -200 45 -200 45
724384480.74679 -1.2981566 -22.160633 -200 45 -200 45 -200 45
725384597.43291 -1.3003876 -22.205231 -200 45 -200 45 -200 45
726384714.11902 -1.3030152 -22.252668 -200 45 -200 45 -200 45
727384830.80513 -1.302676 -22.301737 -200 45 -200 45 -200 45
728384947.49125 -1.3045181 -22.333586 -200 45 -200 45 -200 45
729385064.17736 -1.3075359 -22.395262 -200 45 -200 45 -200 45
730385180.86348 -1.3091861 -22.432676 -200 45 -200 45 -200 45
731385297.54959 -1.3111392 -22.482302 -200 45 -200 45 -200 45
732385414.23571 -1.3133278 -22.516058 -200 45 -200 45 -200 45
733385530.92182 -1.3163912 -22.563709 -200 45 -200 45 -200 45
734385647.60793 -1.3173065 -22.609558 -200 45 -200 45 -200 45
735385764.29405 -1.3183503 -22.643723 -200 45 -200 45 -200 45
736385880.98016 -1.3200738 -22.682501 -200 45 -200 45 -200 45
737385997.66628 -1.3220221 -22.697968 -200 45 -200 45 -200 45
738386114.35239 -1.3253038 -22.744078 -200 45 -200 45 -200 45
739386231.03851 -1.3245431 -22.783403 -200 45 -200 45 -200 45
740386347.72462 -1.3274623 -22.823389 -200 45 -200 45 -200 45
741386464.41074 -1.3255465 -22.847301 -200 45 -200 45 -200 45
742386581.09685 -1.3245294 -22.874313 -200 45 -200 45 -200 45
743386697.78296 -1.3281134 -22.898533 -200 45 -200 45 -200 45
744386814.46908 -1.3271625 -22.921564 -200 45 -200 45 -200 45
745386931.15519 -1.3273772 -22.945889 -200 45 -200 45 -200 45
746387047.84131 -1.3300719 -22.975271 -200 45 -200 45 -200 45
747387164.52742 -1.3308343 -22.993843 -200 45 -200 45 -200 45
748387281.21354 -1.3305666 -22.998735 -200 45 -200 45 -200 45
749387397.89965 -1.3300216 -23.012579 -200 45 -200 45 -200 45
750387514.58576 -1.3323921 -23.031019 -200 45 -200 45 -200 45
751387631.27188 -1.3320509 -23.046082 -200 45 -200 45 -200 45
752387747.95799 -1.3341241 -23.064899 -200 45 -200 45 -200 45
753387864.64411 -1.3341329 -23.071218 -200 45 -200 45 -200 45
754387981.33022 -1.3353976 -23.077366 -200 45 -200 45 -200 45
755388098.01634 -1.3378961 -23.077972 -200 45 -200 45 -200 45
756388214.70245 -1.3378927 -23.069733 -200 45 -200 45 -200 45
757388331.38856 -1.3385602 -23.100124 -200 45 -200 45 -200 45
758388448.07468 -1.33819 -23.094559 -200 45 -200 45 -200 45
759388564.76079 -1.3408363 -23.076262 -200 45 -200 45 -200 45
760388681.44691 -1.339829 -23.079762 -200 45 -200 45 -200 45
761388798.13302 -1.3398763 -23.070408 -200 45 -200 45 -200 45
762388914.81914 -1.3415607 -23.08296 -200 45 -200 45 -200 45
763389031.50525 -1.3427377 -23.070433 -200 45 -200 45 -200 45
764389148.19137 -1.3458297 -23.049299 -200 45 -200 45 -200 45
765389264.87748 -1.3467231 -23.049131 -200 45 -200 45 -200 45
766389381.56359 -1.3502107 -23.022816 -200 45 -200 45 -200 45
767389498.24971 -1.3501997 -23.025661 -200 45 -200 45 -200 45
768389614.93582 -1.353266 -23.031898 -200 45 -200 45 -200 45
769389731.62194 -1.3557636 -23.02475 -200 45 -200 45 -200 45
770389848.30805 -1.3572882 -23.011759 -200 45 -200 45 -200 45
771389964.99417 -1.3588004 -23.003956 -200 45 -200 45 -200 45
772390081.68028 -1.3612642 -22.986423 -200 45 -200 45 -200 45
773390198.36639 -1.3638875 -22.982969 -200 45 -200 45 -200 45
774390315.05251 -1.3659264 -22.997038 -200 45 -200 45 -200 45
775390431.73862 -1.3670702 -22.987698 -200 45 -200 45 -200 45
776390548.42474 -1.3686036 -22.977661 -200 45 -200 45 -200 45
777390665.11085 -1.3701335 -22.967468 -200 45 -200 45 -200 45
778390781.79697 -1.3714936 -22.972555 -200 45 -200 45 -200 45
779390898.48308 -1.3736717 -22.96224 -200 45 -200 45 -200 45
780391015.16919 -1.377533 -22.981863 -200 45 -200 45 -200 45
781391131.85531 -1.3799758 -22.987906 -200 45 -200 45 -200 45
782391248.54142 -1.3835016 -22.987564 -200 45 -200 45 -200 45
783391365.22754 -1.3860334 -23.002596 -200 45 -200 45 -200 45
784391481.91365 -1.3902109 -23.024593 -200 45 -200 45 -200 45
785391598.59977 -1.3939409 -23.028452 -200 45 -200 45 -200 45
786391715.28588 -1.3968358 -23.04035 -200 45 -200 45 -200 45
787391831.972 -1.399634 -23.068403 -200 45 -200 45 -200 45
788391948.65811 -1.4017911 -23.093653 -200 45 -200 45 -200 45
789392065.34422 -1.4040678 -23.113674 -200 45 -200 45 -200 45
790392182.03034 -1.4095836 -23.12756 -200 45 -200 45 -200 45
791392298.71645 -1.411626 -23.174706 -200 45 -200 45 -200 45
792392415.40257 -1.4128698 -23.197876 -200 45 -200 45 -200 45
793392532.08868 -1.4151917 -23.22633 -200 45 -200 45 -200 45
794392648.7748 -1.418171 -23.255499 -200 45 -200 45 -200 45
795392765.46091 -1.420868 -23.289686 -200 45 -200 45 -200 45
796392882.14702 -1.4268733 -23.326286 -200 45 -200 45 -200 45
797392998.83314 -1.4280549 -23.385439 -200 45 -200 45 -200 45
798393115.51925 -1.430707 -23.427343 -200 45 -200 45 -200 45
799393232.20537 -1.4334648 -23.454857 -200 45 -200 45 -200 45
800393348.89148 -1.4395088 -23.513525 -200 45 -200 45 -200 45
801393465.5776 -1.440595 -23.560146 -200 45 -200 45 -200 45
802393582.26371 -1.4450641 -23.611965 -200 45 -200 45 -200 45
803393698.94983 -1.4477854 -23.669067 -200 45 -200 45 -200 45
804393815.63594 -1.4503407 -23.719435 -200 45 -200 45 -200 45
805393932.32205 -1.4559692 -23.765137 -200 45 -200 45 -200 45
806394049.00817 -1.4565806 -23.819836 -200 45 -200 45 -200 45
807394165.69428 -1.4590951 -23.872124 -200 45 -200 45 -200 45
808394282.3804 -1.4599634 -23.924812 -200 45 -200 45 -200 45
809394399.06651 -1.4628371 -23.981873 -200 45 -200 45 -200 45
810394515.75263 -1.464805 -24.012144 -200 45 -200 45 -200 45
811394632.43874 -1.4667894 -24.076586 -200 45 -200 45 -200 45
812394749.12485 -1.4696544 -24.12528 -200 45 -200 45 -200 45
813394865.81097 -1.4712019 -24.188364 -200 45 -200 45 -200 45
814394982.49708 -1.473352 -24.217873 -200 45 -200 45 -200 45
815395099.1832 -1.4756465 -24.265238 -200 45 -200 45 -200 45
816395215.86931 -1.4775701 -24.333973 -200 45 -200 45 -200 45
817395332.55543 -1.4808412 -24.374781 -200 45 -200 45 -200 45
818395449.24154 -1.4807439 -24.427885 -200 45 -200 45 -200 45
819395565.92765 -1.4831446 -24.472157 -200 45 -200 45 -200 45
820395682.61377 -1.4834232 -24.522802 -200 45 -200 45 -200 45
821395799.29988 -1.4865639 -24.556286 -200 45 -200 45 -200 45
822395915.986 -1.485882 -24.593338 -200 45 -200 45 -200 45
823396032.67211 -1.4901012 -24.639368 -200 45 -200 45 -200 45
824396149.35823 -1.4912597 -24.681015 -200 45 -200 45 -200 45
825396266.04434 -1.4906204 -24.710484 -200 45 -200 45 -200 45
826396382.73046 -1.4904906 -24.746586 -200 45 -200 45 -200 45
827396499.41657 -1.4935341 -24.787052 -200 45 -200 45 -200 45
828396616.10268 -1.4952565 -24.795439 -200 45 -200 45 -200 45
829396732.7888 -1.4941314 -24.832802 -200 45 -200 45 -200 45
830396849.47491 -1.4985301 -24.845123 -200 45 -200 45 -200 45
831396966.16103 -1.500421 -24.870745 -200 45 -200 45 -200 45
832397082.84714 -1.5022286 -24.889425 -200 45 -200 45 -200 45
833397199.53326 -1.5035557 -24.893219 -200 45 -200 45 -200 45
834397316.21937 -1.504307 -24.90736 -200 45 -200 45 -200 45
835397432.90548 -1.5090997 -24.923954 -200 45 -200 45 -200 45
836397549.5916 -1.5102588 -24.937666 -200 45 -200 45 -200 45
837397666.27771 -1.5120624 -24.931789 -200 45 -200 45 -200 45
838397782.96383 -1.5134879 -24.938103 -200 45 -200 45 -200 45
839397899.64994 -1.5154506 -24.95079 -200 45 -200 45 -200 45
840398016.33606 -1.5181992 -24.945282 -200 45 -200 45 -200 45
841398133.02217 -1.5181923 -24.916763 -200 45 -200 45 -200 45
842398249.70828 -1.5173258 -24.918343 -200 45 -200 45 -200 45
843398366.3944 -1.5211462 -24.901279 -200 45 -200 45 -200 45
844398483.08051 -1.5256146 -24.891298 -200 45 -200 45 -200 45
845398599.76663 -1.5290201 -24.874016 -200 45 -200 45 -200 45
846398716.45274 -1.528504 -24.853796 -200 45 -200 45 -200 45
847398833.13886 -1.5317788 -24.842794 -200 45 -200 45 -200 45
848398949.82497 -1.5325387 -24.824924 -200 45 -200 45 -200 45
849399066.51109 -1.5332612 -24.81418 -200 45 -200 45 -200 45
850399183.1972 -1.5371723 -24.800716 -200 45 -200 45 -200 45
851399299.88331 -1.5383677 -24.793825 -200 45 -200 45 -200 45
852399416.56943 -1.5405071 -24.768534 -200 45 -200 45 -200 45
853399533.25554 -1.5406861 -24.757448 -200 45 -200 45 -200 45
854399649.94166 -1.5432668 -24.753618 -200 45 -200 45 -200 45
855399766.62777 -1.5428865 -24.729074 -200 45 -200 45 -200 45
856399883.31389 -1.5495038 -24.721096 -200 45 -200 45 -200 45
857400000 -1.5499675 -24.698259 -200 45 -200 45 -200 45
858400116.68611 -1.5520957 -24.693859 -200 45 -200 45 -200 45
859400233.37223 -1.5539989 -24.676722 -200 45 -200 45 -200 45
860400350.05834 -1.5569106 -24.660757 -200 45 -200 45 -200 45
861400466.74446 -1.5615098 -24.668856 -200 45 -200 45 -200 45
862400583.43057 -1.5626456 -24.65214 -200 45 -200 45 -200 45
863400700.11669 -1.5669876 -24.640652 -200 45 -200 45 -200 45
864400816.8028 -1.5692381 -24.647665 -200 45 -200 45 -200 45
865400933.48891 -1.5729773 -24.649174 -200 45 -200 45 -200 45
866401050.17503 -1.5745996 -24.641987 -200 45 -200 45 -200 45
867401166.86114 -1.5804373 -24.650412 -200 45 -200 45 -200 45
868401283.54726 -1.5843655 -24.648031 -200 45 -200 45 -200 45
869401400.23337 -1.5882232 -24.643175 -200 45 -200 45 -200 45
870401516.91949 -1.5890976 -24.651264 -200 45 -200 45 -200 45
871401633.6056 -1.5883994 -24.662342 -200 45 -200 45 -200 45
872401750.29172 -1.5930882 -24.681005 -200 45 -200 45 -200 45
873401866.97783 -1.5953997 -24.678972 -200 45 -200 45 -200 45
874401983.66394 -1.5979005 -24.694048 -200 45 -200 45 -200 45
875402100.35006 -1.6026311 -24.720385 -200 45 -200 45 -200 45
876402217.03617 -1.6057726 -24.755144 -200 45 -200 45 -200 45
877402333.72229 -1.6073719 -24.76874 -200 45 -200 45 -200 45
878402450.4084 -1.6106284 -24.778778 -200 45 -200 45 -200 45
879402567.09452 -1.6128659 -24.81011 -200 45 -200 45 -200 45
880402683.78063 -1.6142062 -24.828489 -200 45 -200 45 -200 45
881402800.46674 -1.6186132 -24.856632 -200 45 -200 45 -200 45
882402917.15286 -1.6200076 -24.893625 -200 45 -200 45 -200 45
883403033.83897 -1.6216247 -24.927885 -200 45 -200 45 -200 45
884403150.52509 -1.6238277 -24.969437 -200 45 -200 45 -200 45
885403267.2112 -1.6230667 -24.989843 -200 45 -200 45 -200 45
886403383.89732 -1.6260991 -25.033302 -200 45 -200 45 -200 45
887403500.58343 -1.6256809 -25.073858 -200 45 -200 45 -200 45
888403617.26954 -1.6265312 -25.130199 -200 45 -200 45 -200 45
889403733.95566 -1.6260856 -25.160334 -200 45 -200 45 -200 45
890403850.64177 -1.6238333 -25.203102 -200 45 -200 45 -200 45
891403967.32789 -1.6215457 -25.254454 -200 45 -200 45 -200 45
892404084.014 -1.6226758 -25.301327 -200 45 -200 45 -200 45
893404200.70012 -1.6221215 -25.352057 -200 45 -200 45 -200 45
894404317.38623 -1.6219747 -25.401628 -200 45 -200 45 -200 45
895404434.07235 -1.6221473 -25.440258 -200 45 -200 45 -200 45
896404550.75846 -1.6208836 -25.490286 -200 45 -200 45 -200 45
897404667.44457 -1.6205167 -25.556057 -200 45 -200 45 -200 45
898404784.13069 -1.6208076 -25.607895 -200 45 -200 45 -200 45
899404900.8168 -1.6190259 -25.663359 -200 45 -200 45 -200 45
900405017.50292 -1.6190846 -25.707499 -200 45 -200 45 -200 45
901405134.18903 -1.6174816 -25.773567 -200 45 -200 45 -200 45
902405250.87515 -1.6168824 -25.824629 -200 45 -200 45 -200 45
903405367.56126 -1.6154699 -25.882097 -200 45 -200 45 -200 45
904405484.24737 -1.6106085 -25.912582 -200 45 -200 45 -200 45
905405600.93349 -1.608711 -25.970894 -200 45 -200 45 -200 45
906405717.6196 -1.6096776 -26.039034 -200 45 -200 45 -200 45
907405834.30572 -1.6051129 -26.076611 -200 45 -200 45 -200 45
908405950.99183 -1.6031204 -26.135881 -200 45 -200 45 -200 45
909406067.67795 -1.6024985 -26.168592 -200 45 -200 45 -200 45
910406184.36406 -1.5994712 -26.236404 -200 45 -200 45 -200 45
911406301.05018 -1.5997193 -26.279997 -200 45 -200 45 -200 45
912406417.73629 -1.6008033 -26.327841 -200 45 -200 45 -200 45
913406534.4224 -1.5992912 -26.372139 -200 45 -200 45 -200 45
914406651.10852 -1.5998054 -26.416113 -200 45 -200 45 -200 45
915406767.79463 -1.5997986 -26.45507 -200 45 -200 45 -200 45
916406884.48075 -1.6016128 -26.476 -200 45 -200 45 -200 45
917407001.16686 -1.6022567 -26.513412 -200 45 -200 45 -200 45
918407117.85298 -1.5997354 -26.551294 -200 45 -200 45 -200 45
919407234.53909 -1.6053553 -26.567171 -200 45 -200 45 -200 45
920407351.2252 -1.6050802 -26.593071 -200 45 -200 45 -200 45
921407467.91132 -1.6048559 -26.629498 -200 45 -200 45 -200 45
922407584.59743 -1.603942 -26.643442 -200 45 -200 45 -200 45
923407701.28355 -1.605969 -26.660915 -200 45 -200 45 -200 45
924407817.96966 -1.6085067 -26.676966 -200 45 -200 45 -200 45
925407934.65578 -1.6060585 -26.692116 -200 45 -200 45 -200 45
926408051.34189 -1.6102469 -26.683855 -200 45 -200 45 -200 45
927408168.028 -1.6127248 -26.713331 -200 45 -200 45 -200 45
928408284.71412 -1.6161677 -26.722765 -200 45 -200 45 -200 45
929408401.40023 -1.6203384 -26.723528 -200 45 -200 45 -200 45
930408518.08635 -1.6221696 -26.743086 -200 45 -200 45 -200 45
931408634.77246 -1.624675 -26.741777 -200 45 -200 45 -200 45
932408751.45858 -1.6279455 -26.760674 -200 45 -200 45 -200 45
933408868.14469 -1.6313949 -26.73863 -200 45 -200 45 -200 45
934408984.83081 -1.6349952 -26.755009 -200 45 -200 45 -200 45
935409101.51692 -1.6409302 -26.748196 -200 45 -200 45 -200 45
936409218.20303 -1.6449263 -26.742085 -200 45 -200 45 -200 45
937409334.88915 -1.6478323 -26.738117 -200 45 -200 45 -200 45
938409451.57526 -1.6509207 -26.745794 -200 45 -200 45 -200 45
939409568.26138 -1.6563492 -26.744179 -200 45 -200 45 -200 45
940409684.94749 -1.6623833 -26.742723 -200 45 -200 45 -200 45
941409801.63361 -1.6652186 -26.740135 -200 45 -200 45 -200 45
942409918.31972 -1.6711943 -26.733294 -200 45 -200 45 -200 45
943410035.00583 -1.6772233 -26.713139 -200 45 -200 45 -200 45
944410151.69195 -1.6818485 -26.718271 -200 45 -200 45 -200 45
945410268.37806 -1.688161 -26.718668 -200 45 -200 45 -200 45
946410385.06418 -1.6934577 -26.716389 -200 45 -200 45 -200 45
947410501.75029 -1.7018263 -26.707689 -200 45 -200 45 -200 45
948410618.43641 -1.7066547 -26.705324 -200 45 -200 45 -200 45
949410735.12252 -1.7121371 -26.700142 -200 45 -200 45 -200 45
950410851.80863 -1.7161908 -26.702583 -200 45 -200 45 -200 45
951410968.49475 -1.7224265 -26.701838 -200 45 -200 45 -200 45
952411085.18086 -1.7278422 -26.69837 -200 45 -200 45 -200 45
953411201.86698 -1.733867 -26.720598 -200 45 -200 45 -200 45
954411318.55309 -1.735873 -26.712488 -200 45 -200 45 -200 45
955411435.23921 -1.7446774 -26.719013 -200 45 -200 45 -200 45
956411551.92532 -1.7469379 -26.722824 -200 45 -200 45 -200 45
957411668.61144 -1.7535762 -26.71302 -200 45 -200 45 -200 45
958411785.29755 -1.7573913 -26.740574 -200 45 -200 45 -200 45
959411901.98366 -1.7618511 -26.736464 -200 45 -200 45 -200 45
960412018.66978 -1.7642184 -26.753428 -200 45 -200 45 -200 45
961412135.35589 -1.7663442 -26.763611 -200 45 -200 45 -200 45
962412252.04201 -1.7729151 -26.792439 -200 45 -200 45 -200 45
963412368.72812 -1.774268 -26.801107 -200 45 -200 45 -200 45
964412485.41424 -1.7778636 -26.835756 -200 45 -200 45 -200 45
965412602.10035 -1.7819527 -26.865379 -200 45 -200 45 -200 45
966412718.78646 -1.7816457 -26.899559 -200 45 -200 45 -200 45
967412835.47258 -1.7863784 -26.920855 -200 45 -200 45 -200 45
968412952.15869 -1.7858949 -26.94734 -200 45 -200 45 -200 45
969413068.84481 -1.7862979 -26.994818 -200 45 -200 45 -200 45
970413185.53092 -1.7899903 -27.038336 -200 45 -200 45 -200 45
971413302.21704 -1.7902038 -27.062906 -200 45 -200 45 -200 45
972413418.90315 -1.7902452 -27.114691 -200 45 -200 45 -200 45
973413535.58926 -1.7912759 -27.160645 -200 45 -200 45 -200 45
974413652.27538 -1.7926306 -27.196196 -200 45 -200 45 -200 45
975413768.96149 -1.7939297 -27.234388 -200 45 -200 45 -200 45
976413885.64761 -1.7947588 -27.292414 -200 45 -200 45 -200 45
977414002.33372 -1.7954997 -27.325579 -200 45 -200 45 -200 45
978414119.01984 -1.7942148 -27.382683 -200 45 -200 45 -200 45
979414235.70595 -1.7938776 -27.442949 -200 45 -200 45 -200 45
980414352.39207 -1.7932693 -27.484295 -200 45 -200 45 -200 45
981414469.07818 -1.7949369 -27.529213 -200 45 -200 45 -200 45
982414585.76429 -1.7944214 -27.598757 -200 45 -200 45 -200 45
983414702.45041 -1.7937109 -27.65963 -200 45 -200 45 -200 45
984414819.13652 -1.791896 -27.696302 -200 45 -200 45 -200 45
985414935.82264 -1.7915981 -27.750374 -200 45 -200 45 -200 45
986415052.50875 -1.7880672 -27.79273 -200 45 -200 45 -200 45
987415169.19487 -1.7876909 -27.842972 -200 45 -200 45 -200 45
988415285.88098 -1.7848105 -27.904757 -200 45 -200 45 -200 45
989415402.56709 -1.782144 -27.929585 -200 45 -200 45 -200 45
990415519.25321 -1.7835016 -27.989336 -200 45 -200 45 -200 45
991415635.93932 -1.7818556 -28.036278 -200 45 -200 45 -200 45
992415752.62544 -1.7774045 -28.099039 -200 45 -200 45 -200 45
993415869.31155 -1.7787373 -28.135723 -200 45 -200 45 -200 45
994415985.99767 -1.7780032 -28.193325 -200 45 -200 45 -200 45
995416102.68378 -1.777189 -28.235174 -200 45 -200 45 -200 45
996416219.36989 -1.7775584 -28.280544 -200 45 -200 45 -200 45
997416336.05601 -1.778363 -28.315878 -200 45 -200 45 -200 45
998416452.74212 -1.7775456 -28.357203 -200 45 -200 45 -200 45
999416569.42824 -1.7786036 -28.404289 -200 45 -200 45 -200 45
1000416686.1144 -1.7750845 -28.42161 -200 45 -200 45 -200 45
1001416802.8005 -1.7780305 -28.456854 -200 45 -200 45 -200 45
1002416919.4866 -1.7771714 -28.486536 -200 45 -200 45 -200 45
1003417036.1727 -1.7776937 -28.508879 -200 45 -200 45 -200 45
1004417152.8588 -1.7783755 -28.556408 -200 45 -200 45 -200 45
1005417269.5449 -1.7799208 -28.568758 -200 45 -200 45 -200 45
1006417386.231 -1.7804676 -28.599403 -200 45 -200 45 -200 45
1007417502.9172 -1.7822633 -28.625664 -200 45 -200 45 -200 45
1008417619.6033 -1.784408 -28.633215 -200 45 -200 45 -200 45
1009417736.2894 -1.7894627 -28.648746 -200 45 -200 45 -200 45
1010417852.9755 -1.7918444 -28.668585 -200 45 -200 45 -200 45
1011417969.6616 -1.7958132 -28.690329 -200 45 -200 45 -200 45
1012418086.3477 -1.799885 -28.661383 -200 45 -200 45 -200 45
1013418203.0338 -1.8021564 -28.668701 -200 45 -200 45 -200 45
1014418319.72 -1.8051413 -28.677799 -200 45 -200 45 -200 45
1015418436.4061 -1.8069081 -28.693024 -200 45 -200 45 -200 45
1016418553.0922 -1.8092189 -28.684452 -200 45 -200 45 -200 45
1017418669.7783 -1.8136595 -28.702637 -200 45 -200 45 -200 45
1018418786.4644 -1.8149606 -28.705828 -200 45 -200 45 -200 45
1019418903.1505 -1.8171978 -28.702269 -200 45 -200 45 -200 45
1020419019.8366 -1.8228954 -28.710831 -200 45 -200 45 -200 45
1021419136.5228 -1.8265324 -28.716866 -200 45 -200 45 -200 45
1022419253.2089 -1.8326689 -28.74424 -200 45 -200 45 -200 45
1023419369.895 -1.8394578 -28.765598 -200 45 -200 45 -200 45
1024419486.5811 -1.8451592 -28.750805 -200 45 -200 45 -200 45
1025419603.2672 -1.8519882 -28.774361 -200 45 -200 45 -200 45
1026419719.9533 -1.8608352 -28.780699 -200 45 -200 45 -200 45
1027419836.6394 -1.8715914 -28.778811 -200 45 -200 45 -200 45
1028419953.3256 -1.8792291 -28.77989 -200 45 -200 45 -200 45
1029420070.0117 -1.8881538 -28.784624 -200 45 -200 45 -200 45
1030420186.6978 -1.8996562 -28.75993 -200 45 -200 45 -200 45
1031420303.3839 -1.9062222 -28.76321 -200 45 -200 45 -200 45
1032420420.07 -1.9148611 -28.757538 -200 45 -200 45 -200 45
1033420536.7561 -1.9217237 -28.732985 -200 45 -200 45 -200 45
1034420653.4422 -1.9299961 -28.728661 -200 45 -200 45 -200 45
1035420770.1284 -1.9377903 -28.71277 -200 45 -200 45 -200 45
1036420886.8145 -1.9436483 -28.727154 -200 45 -200 45 -200 45
1037421003.5006 -1.9494607 -28.719118 -200 45 -200 45 -200 45
1038421120.1867 -1.9584486 -28.699686 -200 45 -200 45 -200 45
1039421236.8728 -1.9646178 -28.696669 -200 45 -200 45 -200 45
1040421353.5589 -1.9729592 -28.695309 -200 45 -200 45 -200 45
1041421470.245 -1.9789885 -28.694817 -200 45 -200 45 -200 45
1042421586.9312 -1.9874054 -28.698822 -200 45 -200 45 -200 45
1043421703.6173 -1.9929801 -28.700069 -200 45 -200 45 -200 45
1044421820.3034 -1.9983582 -28.697857 -200 45 -200 45 -200 45
1045421936.9895 -2.003185 -28.712435 -200 45 -200 45 -200 45
1046422053.6756 -2.0092161 -28.739176 -200 45 -200 45 -200 45
1047422170.3617 -2.0123441 -28.741911 -200 45 -200 45 -200 45
1048422287.0478 -2.0160339 -28.764208 -200 45 -200 45 -200 45
1049422403.734 -2.0220575 -28.775242 -200 45 -200 45 -200 45
1050422520.4201 -2.025424 -28.801741 -200 45 -200 45 -200 45
1051422637.1062 -2.0299988 -28.810236 -200 45 -200 45 -200 45
1052422753.7923 -2.0317276 -28.858959 -200 45 -200 45 -200 45
1053422870.4784 -2.0328515 -28.871702 -200 45 -200 45 -200 45
1054422987.1645 -2.0374126 -28.905802 -200 45 -200 45 -200 45
1055423103.8506 -2.0395601 -28.941868 -200 45 -200 45 -200 45
1056423220.5368 -2.0417831 -28.952541 -200 45 -200 45 -200 45
1057423337.2229 -2.046252 -28.993242 -200 45 -200 45 -200 45
1058423453.909 -2.0479627 -29.020197 -200 45 -200 45 -200 45
1059423570.5951 -2.0487843 -29.066109 -200 45 -200 45 -200 45
1060423687.2812 -2.0511377 -29.105021 -200 45 -200 45 -200 45
1061423803.9673 -2.0555253 -29.147314 -200 45 -200 45 -200 45
1062423920.6534 -2.0578916 -29.182329 -200 45 -200 45 -200 45
1063424037.3396 -2.0575337 -29.221796 -200 45 -200 45 -200 45
1064424154.0257 -2.0594037 -29.236034 -200 45 -200 45 -200 45
1065424270.7118 -2.0600674 -29.277073 -200 45 -200 45 -200 45
1066424387.3979 -2.0589952 -29.320421 -200 45 -200 45 -200 45
1067424504.084 -2.0593708 -29.352335 -200 45 -200 45 -200 45
1068424620.7701 -2.0587761 -29.377859 -200 45 -200 45 -200 45
1069424737.4562 -2.0588214 -29.413893 -200 45 -200 45 -200 45
1070424854.1424 -2.0581934 -29.447443 -200 45 -200 45 -200 45
1071424970.8285 -2.057569 -29.485897 -200 45 -200 45 -200 45
1072425087.5146 -2.0572755 -29.521955 -200 45 -200 45 -200 45
1073425204.2007 -2.0584779 -29.562777 -200 45 -200 45 -200 45
1074425320.8868 -2.0572722 -29.570642 -200 45 -200 45 -200 45
1075425437.5729 -2.0522916 -29.606016 -200 45 -200 45 -200 45
1076425554.259 -2.0531421 -29.616913 -200 45 -200 45 -200 45
1077425670.9452 -2.051491 -29.671213 -200 45 -200 45 -200 45
1078425787.6313 -2.0516355 -29.686274 -200 45 -200 45 -200 45
1079425904.3174 -2.051609 -29.701464 -200 45 -200 45 -200 45
1080426021.0035 -2.0496407 -29.734907 -200 45 -200 45 -200 45
1081426137.6896 -2.0481429 -29.753885 -200 45 -200 45 -200 45
1082426254.3757 -2.0473423 -29.767635 -200 45 -200 45 -200 45
1083426371.0618 -2.0437884 -29.800224 -200 45 -200 45 -200 45
1084426487.748 -2.0438232 -29.810505 -200 45 -200 45 -200 45
1085426604.4341 -2.0402448 -29.810328 -200 45 -200 45 -200 45
1086426721.1202 -2.0400238 -29.816782 -200 45 -200 45 -200 45
1087426837.8063 -2.0369058 -29.840855 -200 45 -200 45 -200 45
1088426954.4924 -2.0389743 -29.848623 -200 45 -200 45 -200 45
1089427071.1785 -2.0375214 -29.865273 -200 45 -200 45 -200 45
1090427187.8646 -2.0368044 -29.883797 -200 45 -200 45 -200 45
1091427304.5508 -2.0348821 -29.878483 -200 45 -200 45 -200 45
1092427421.2369 -2.0353606 -29.884434 -200 45 -200 45 -200 45
1093427537.923 -2.0361056 -29.904566 -200 45 -200 45 -200 45
1094427654.6091 -2.0357056 -29.900724 -200 45 -200 45 -200 45
1095427771.2952 -2.0372343 -29.910103 -200 45 -200 45 -200 45
1096427887.9813 -2.0384159 -29.904604 -200 45 -200 45 -200 45
1097428004.6674 -2.0387626 -29.901545 -200 45 -200 45 -200 45
1098428121.3536 -2.0414617 -29.910969 -200 45 -200 45 -200 45
1099428238.0397 -2.0419044 -29.924019 -200 45 -200 45 -200 45
1100428354.7258 -2.040241 -29.914553 -200 45 -200 45 -200 45
1101428471.4119 -2.0432208 -29.915953 -200 45 -200 45 -200 45
1102428588.098 -2.0481195 -29.917698 -200 45 -200 45 -200 45
1103428704.7841 -2.0493186 -29.901127 -200 45 -200 45 -200 45
1104428821.4702 -2.0529256 -29.910151 -200 45 -200 45 -200 45
1105428938.1564 -2.0559306 -29.916376 -200 45 -200 45 -200 45
1106429054.8425 -2.061049 -29.918575 -200 45 -200 45 -200 45
1107429171.5286 -2.0651929 -29.914846 -200 45 -200 45 -200 45
1108429288.2147 -2.0692053 -29.918636 -200 45 -200 45 -200 45
1109429404.9008 -2.07582 -29.918957 -200 45 -200 45 -200 45
1110429521.5869 -2.0780792 -29.914471 -200 45 -200 45 -200 45
1111429638.273 -2.084933 -29.919004 -200 45 -200 45 -200 45
1112429754.9592 -2.0894227 -29.920835 -200 45 -200 45 -200 45
1113429871.6453 -2.0969982 -29.922964 -200 45 -200 45 -200 45
1114429988.3314 -2.1004696 -29.927704 -200 45 -200 45 -200 45
1115430105.0175 -2.1068785 -29.932632 -200 45 -200 45 -200 45
1116430221.7036 -2.111882 -29.934729 -200 45 -200 45 -200 45
1117430338.3897 -2.1197991 -29.954277 -200 45 -200 45 -200 45
1118430455.0758 -2.1236095 -29.948904 -200 45 -200 45 -200 45
1119430571.762 -2.1327689 -29.960161 -200 45 -200 45 -200 45
1120430688.4481 -2.1380672 -29.968491 -200 45 -200 45 -200 45
1121430805.1342 -2.1467037 -30.002676 -200 45 -200 45 -200 45
1122430921.8203 -2.1540344 -30.000496 -200 45 -200 45 -200 45
1123431038.5064 -2.1637697 -30.022579 -200 45 -200 45 -200 45
1124431155.1925 -2.172904 -30.02627 -200 45 -200 45 -200 45
1125431271.8786 -2.1806922 -30.049248 -200 45 -200 45 -200 45
1126431388.5648 -2.1883886 -30.07279 -200 45 -200 45 -200 45
1127431505.2509 -2.1941602 -30.076094 -200 45 -200 45 -200 45
1128431621.937 -2.2023373 -30.114336 -200 45 -200 45 -200 45
1129431738.6231 -2.2089093 -30.145905 -200 45 -200 45 -200 45
1130431855.3092 -2.2151294 -30.169449 -200 45 -200 45 -200 45
1131431971.9953 -2.2240598 -30.211637 -200 45 -200 45 -200 45
1132432088.6814 -2.2331553 -30.280783 -200 45 -200 45 -200 45
1133432205.3676 -2.2432652 -30.327341 -200 45 -200 45 -200 45
1134432322.0537 -2.2533364 -30.378475 -200 45 -200 45 -200 45
1135432438.7398 -2.271055 -30.446852 -200 45 -200 45 -200 45
1136432555.4259 -2.2880085 -30.464239 -200 45 -200 45 -200 45
1137432672.112 -2.3041101 -30.498852 -200 45 -200 45 -200 45
1138432788.7981 -2.3206441 -30.526022 -200 45 -200 45 -200 45
1139432905.4842 -2.3379035 -30.575165 -200 45 -200 45 -200 45
1140433022.1704 -2.3673928 -30.621153 -200 45 -200 45 -200 45
1141433138.8565 -2.4050076 -30.663471 -200 45 -200 45 -200 45
1142433255.5426 -2.4591227 -30.597301 -200 45 -200 45 -200 45
1143433372.2287 -2.524116 -30.260406 -200 45 -200 45 -200 45
1144433488.9148 -2.5429459 -29.572336 -200 45 -200 45 -200 45
1145433605.6009 -2.4863534 -29.078957 -200 45 -200 45 -200 45
1146433722.287 -2.4333942 -28.929516 -200 45 -200 45 -200 45
1147433838.9732 -2.3901017 -28.836903 -200 45 -200 45 -200 45
1148433955.6593 -2.3496115 -28.781843 -200 45 -200 45 -200 45
1149434072.3454 -2.2976589 -28.738079 -200 45 -200 45 -200 45
1150434189.0315 -2.2487209 -28.919359 -200 45 -200 45 -200 45
1151434305.7176 -2.2285752 -29.064764 -200 45 -200 45 -200 45
1152434422.4037 -2.2006445 -29.174194 -200 45 -200 45 -200 45
1153434539.0898 -2.1753695 -29.39399 -200 45 -200 45 -200 45
1154434655.776 -2.163307 -29.588493 -200 45 -200 45 -200 45
1155434772.4621 -2.1607485 -29.778006 -200 45 -200 45 -200 45
1156434889.1482 -2.1610656 -29.905891 -200 45 -200 45 -200 45
1157435005.8343 -2.1624117 -30.033035 -200 45 -200 45 -200 45
1158435122.5204 -2.1650996 -30.137554 -200 45 -200 45 -200 45
1159435239.2065 -2.16625 -30.19359 -200 45 -200 45 -200 45
1160435355.8926 -2.166065 -30.265177 -200 45 -200 45 -200 45
1161435472.5788 -2.1669803 -30.323521 -200 45 -200 45 -200 45
1162435589.2649 -2.1691384 -30.385254 -200 45 -200 45 -200 45
1163435705.951 -2.1668165 -30.440979 -200 45 -200 45 -200 45
1164435822.6371 -2.1680355 -30.496344 -200 45 -200 45 -200 45
1165435939.3232 -2.1665244 -30.51243 -200 45 -200 45 -200 45
1166436056.0093 -2.1625569 -30.573395 -200 45 -200 45 -200 45
1167436172.6954 -2.167424 -30.607121 -200 45 -200 45 -200 45
1168436289.3816 -2.1653664 -30.636459 -200 45 -200 45 -200 45
1169436406.0677 -2.165472 -30.665155 -200 45 -200 45 -200 45
1170436522.7538 -2.1658425 -30.691639 -200 45 -200 45 -200 45
1171436639.4399 -2.1666856 -30.702711 -200 45 -200 45 -200 45
1172436756.126 -2.1675076 -30.703375 -200 45 -200 45 -200 45
1173436872.8121 -2.1669674 -30.724159 -200 45 -200 45 -200 45
1174436989.4982 -2.1668293 -30.729055 -200 45 -200 45 -200 45
1175437106.1844 -2.168273 -30.741467 -200 45 -200 45 -200 45
1176437222.8705 -2.1664124 -30.755245 -200 45 -200 45 -200 45
1177437339.5566 -2.1661477 -30.761997 -200 45 -200 45 -200 45
1178437456.2427 -2.1679826 -30.748137 -200 45 -200 45 -200 45
1179437572.9288 -2.1687913 -30.755245 -200 45 -200 45 -200 45
1180437689.6149 -2.1672168 -30.762083 -200 45 -200 45 -200 45
1181437806.3011 -2.169138 -30.758986 -200 45 -200 45 -200 45
1182437922.9872 -2.1680381 -30.745564 -200 45 -200 45 -200 45
1183438039.6733 -2.1674736 -30.751982 -200 45 -200 45 -200 45
1184438156.3594 -2.1704624 -30.742331 -200 45 -200 45 -200 45
1185438273.0455 -2.1700995 -30.739515 -200 45 -200 45 -200 45
1186438389.7316 -2.1742017 -30.723171 -200 45 -200 45 -200 45
1187438506.4177 -2.1735291 -30.705717 -200 45 -200 45 -200 45
1188438623.1039 -2.174917 -30.716825 -200 45 -200 45 -200 45
1189438739.79 -2.1788869 -30.704317 -200 45 -200 45 -200 45
1190438856.4761 -2.1795907 -30.711624 -200 45 -200 45 -200 45
1191438973.1622 -2.1838918 -30.711834 -200 45 -200 45 -200 45
1192439089.8483 -2.1841793 -30.692226 -200 45 -200 45 -200 45
1193439206.5344 -2.1861737 -30.691643 -200 45 -200 45 -200 45
1194439323.2205 -2.1905468 -30.681732 -200 45 -200 45 -200 45
1195439439.9067 -2.1938748 -30.676266 -200 45 -200 45 -200 45
1196439556.5928 -2.1981328 -30.670498 -200 45 -200 45 -200 45
1197439673.2789 -2.1988876 -30.668236 -200 45 -200 45 -200 45
1198439789.965 -2.2008767 -30.679926 -200 45 -200 45 -200 45
1199439906.6511 -2.2054222 -30.682873 -200 45 -200 45 -200 45
1200440023.3372 -2.20857 -30.67827 -200 45 -200 45 -200 45
1201440140.0233 -2.2117794 -30.690014 -200 45 -200 45 -200 45
1202440256.7095 -2.215714 -30.702555 -200 45 -200 45 -200 45
1203440373.3956 -2.2189786 -30.709743 -200 45 -200 45 -200 45
1204440490.0817 -2.2259462 -30.725283 -200 45 -200 45 -200 45
1205440606.7678 -2.2346325 -30.732723 -200 45 -200 45 -200 45
1206440723.4539 -2.242893 -30.762999 -200 45 -200 45 -200 45
1207440840.14 -2.2505999 -30.772602 -200 45 -200 45 -200 45
1208440956.8261 -2.2624769 -30.753603 -200 45 -200 45 -200 45
1209441073.5123 -2.2666075 -30.69133 -200 45 -200 45 -200 45
1210441190.1984 -2.2656407 -30.694256 -200 45 -200 45 -200 45
1211441306.8845 -2.266634 -30.664671 -200 45 -200 45 -200 45
1212441423.5706 -2.2638717 -30.644478 -200 45 -200 45 -200 45
1213441540.2567 -2.2613299 -30.66935 -200 45 -200 45 -200 45
1214441656.9428 -2.2602739 -30.71838 -200 45 -200 45 -200 45
1215441773.6289 -2.2591419 -30.764084 -200 45 -200 45 -200 45
1216441890.3151 -2.2603724 -30.811155 -200 45 -200 45 -200 45
1217442007.0012 -2.261059 -30.862333 -200 45 -200 45 -200 45
1218442123.6873 -2.2625875 -30.903761 -200 45 -200 45 -200 45
1219442240.3734 -2.265743 -30.951805 -200 45 -200 45 -200 45
1220442357.0595 -2.2685688 -31.005238 -200 45 -200 45 -200 45
1221442473.7456 -2.2731831 -31.047533 -200 45 -200 45 -200 45
1222442590.4317 -2.2756758 -31.109545 -200 45 -200 45 -200 45
1223442707.1179 -2.2778001 -31.147631 -200 45 -200 45 -200 45
1224442823.804 -2.2818148 -31.211369 -200 45 -200 45 -200 45
1225442940.4901 -2.2859402 -31.263176 -200 45 -200 45 -200 45
1226443057.1762 -2.2891119 -31.298243 -200 45 -200 45 -200 45
1227443173.8623 -2.2892759 -31.361504 -200 45 -200 45 -200 45
1228443290.5484 -2.2910779 -31.398909 -200 45 -200 45 -200 45
1229443407.2345 -2.2924547 -31.449701 -200 45 -200 45 -200 45
1230443523.9207 -2.2948136 -31.483665 -200 45 -200 45 -200 45
1231443640.6068 -2.2972555 -31.545021 -200 45 -200 45 -200 45
1232443757.2929 -2.2953379 -31.597996 -200 45 -200 45 -200 45
1233443873.979 -2.2985194 -31.63442 -200 45 -200 45 -200 45
1234443990.6651 -2.2998295 -31.695887 -200 45 -200 45 -200 45
1235444107.3512 -2.3014467 -31.731503 -200 45 -200 45 -200 45
1236444224.0373 -2.3024902 -31.766829 -200 45 -200 45 -200 45
1237444340.7235 -2.3031123 -31.818089 -200 45 -200 45 -200 45
1238444457.4096 -2.3053436 -31.859779 -200 45 -200 45 -200 45
1239444574.0957 -2.3030436 -31.885885 -200 45 -200 45 -200 45
1240444690.7818 -2.3053908 -31.915005 -200 45 -200 45 -200 45
1241444807.4679 -2.3043935 -31.985401 -200 45 -200 45 -200 45
1242444924.154 -2.3052347 -32.017982 -200 45 -200 45 -200 45
1243445040.8401 -2.3031757 -32.044235 -200 45 -200 45 -200 45
1244445157.5263 -2.3041387 -32.079502 -200 45 -200 45 -200 45
1245445274.2124 -2.3025141 -32.105568 -200 45 -200 45 -200 45
1246445390.8985 -2.3010931 -32.137318 -200 45 -200 45 -200 45
1247445507.5846 -2.2988207 -32.158405 -200 45 -200 45 -200 45
1248445624.2707 -2.2994351 -32.205097 -200 45 -200 45 -200 45
1249445740.9568 -2.296844 -32.206779 -200 45 -200 45 -200 45
1250445857.6429 -2.2978716 -32.230068 -200 45 -200 45 -200 45
1251445974.3291 -2.296834 -32.266865 -200 45 -200 45 -200 45
1252446091.0152 -2.2982314 -32.271175 -200 45 -200 45 -200 45
1253446207.7013 -2.2956858 -32.292355 -200 45 -200 45 -200 45
1254446324.3874 -2.2959325 -32.301735 -200 45 -200 45 -200 45
1255446441.0735 -2.2956848 -32.30143 -200 45 -200 45 -200 45
1256446557.7596 -2.2963274 -32.327606 -200 45 -200 45 -200 45
1257446674.4457 -2.2942569 -32.323349 -200 45 -200 45 -200 45
1258446791.1319 -2.2949111 -32.343861 -200 45 -200 45 -200 45
1259446907.818 -2.2937033 -32.343399 -200 45 -200 45 -200 45
1260447024.5041 -2.2937346 -32.34687 -200 45 -200 45 -200 45
1261447141.1902 -2.295789 -32.347485 -200 45 -200 45 -200 45
1262447257.8763 -2.2924528 -32.352726 -200 45 -200 45 -200 45
1263447374.5624 -2.2935598 -32.354652 -200 45 -200 45 -200 45
1264447491.2485 -2.2915411 -32.34058 -200 45 -200 45 -200 45
1265447607.9347 -2.294173 -32.343601 -200 45 -200 45 -200 45
1266447724.6208 -2.2945063 -32.337212 -200 45 -200 45 -200 45
1267447841.3069 -2.2952571 -32.321301 -200 45 -200 45 -200 45
1268447957.993 -2.2949393 -32.316578 -200 45 -200 45 -200 45
1269448074.6791 -2.2979541 -32.308521 -200 45 -200 45 -200 45
1270448191.3652 -2.2974362 -32.301872 -200 45 -200 45 -200 45
1271448308.0513 -2.2999773 -32.285904 -200 45 -200 45 -200 45
1272448424.7375 -2.3019476 -32.272659 -200 45 -200 45 -200 45
1273448541.4236 -2.3038487 -32.264019 -200 45 -200 45 -200 45
1274448658.1097 -2.306133 -32.254848 -200 45 -200 45 -200 45
1275448774.7958 -2.308181 -32.235775 -200 45 -200 45 -200 45
1276448891.4819 -2.3107133 -32.225128 -200 45 -200 45 -200 45
1277449008.168 -2.3120012 -32.226212 -200 45 -200 45 -200 45
1278449124.8541 -2.3143895 -32.21056 -200 45 -200 45 -200 45
1279449241.5403 -2.3169656 -32.205666 -200 45 -200 45 -200 45
1280449358.2264 -2.3164964 -32.199184 -200 45 -200 45 -200 45
1281449474.9125 -2.3217571 -32.196846 -200 45 -200 45 -200 45
1282449591.5986 -2.3237765 -32.172222 -200 45 -200 45 -200 45
1283449708.2847 -2.3271439 -32.184914 -200 45 -200 45 -200 45
1284449824.9708 -2.3297768 -32.177872 -200 45 -200 45 -200 45
1285449941.6569 -2.3334079 -32.16634 -200 45 -200 45 -200 45
1286450058.3431 -2.3386765 -32.169201 -200 45 -200 45 -200 45
1287450175.0292 -2.3427556 -32.161713 -200 45 -200 45 -200 45
1288450291.7153 -2.3457336 -32.187168 -200 45 -200 45 -200 45
1289450408.4014 -2.3487689 -32.185989 -200 45 -200 45 -200 45
1290450525.0875 -2.3526113 -32.187523 -200 45 -200 45 -200 45
1291450641.7736 -2.3569808 -32.198891 -200 45 -200 45 -200 45
1292450758.4597 -2.3577988 -32.221577 -200 45 -200 45 -200 45
1293450875.1459 -2.3633027 -32.228462 -200 45 -200 45 -200 45
1294450991.832 -2.3673804 -32.243755 -200 45 -200 45 -200 45
1295451108.5181 -2.3677406 -32.252686 -200 45 -200 45 -200 45
1296451225.2042 -2.373606 -32.289158 -200 45 -200 45 -200 45
1297451341.8903 -2.373631 -32.290882 -200 45 -200 45 -200 45
1298451458.5764 -2.3783574 -32.3158 -200 45 -200 45 -200 45
1299451575.2625 -2.3806303 -32.355385 -200 45 -200 45 -200 45
1300451691.9487 -2.3837345 -32.356121 -200 45 -200 45 -200 45
1301451808.6348 -2.3871069 -32.401241 -200 45 -200 45 -200 45
1302451925.3209 -2.3895743 -32.426239 -200 45 -200 45 -200 45
1303452042.007 -2.393069 -32.468479 -200 45 -200 45 -200 45
1304452158.6931 -2.3987029 -32.513885 -200 45 -200 45 -200 45
1305452275.3792 -2.4000411 -32.550232 -200 45 -200 45 -200 45
1306452392.0653 -2.4037826 -32.568649 -200 45 -200 45 -200 45
1307452508.7515 -2.4064188 -32.608749 -200 45 -200 45 -200 45
1308452625.4376 -2.4048619 -32.657242 -200 45 -200 45 -200 45
1309452742.1237 -2.4061975 -32.685104 -200 45 -200 45 -200 45
1310452858.8098 -2.4070458 -32.739918 -200 45 -200 45 -200 45
1311452975.4959 -2.4081626 -32.787037 -200 45 -200 45 -200 45
1312453092.182 -2.4098186 -32.835629 -200 45 -200 45 -200 45
1313453208.8681 -2.4121833 -32.881321 -200 45 -200 45 -200 45
1314453325.5543 -2.4131687 -32.928631 -200 45 -200 45 -200 45
1315453442.2404 -2.4152687 -32.957737 -200 45 -200 45 -200 45
1316453558.9265 -2.4152875 -33.016033 -200 45 -200 45 -200 45
1317453675.6126 -2.4160807 -33.06435 -200 45 -200 45 -200 45
1318453792.2987 -2.4151719 -33.103634 -200 45 -200 45 -200 45
1319453908.9848 -2.418376 -33.158104 -200 45 -200 45 -200 45
1320454025.6709 -2.4179842 -33.185532 -200 45 -200 45 -200 45
1321454142.3571 -2.4176879 -33.230812 -200 45 -200 45 -200 45
1322454259.0432 -2.417752 -33.290825 -200 45 -200 45 -200 45
1323454375.7293 -2.417769 -33.316933 -200 45 -200 45 -200 45
1324454492.4154 -2.4147065 -33.358974 -200 45 -200 45 -200 45
1325454609.1015 -2.4129119 -33.411659 -200 45 -200 45 -200 45
1326454725.7876 -2.4132891 -33.439137 -200 45 -200 45 -200 45
1327454842.4737 -2.4121549 -33.471161 -200 45 -200 45 -200 45
1328454959.1599 -2.4089599 -33.525604 -200 45 -200 45 -200 45
1329455075.846 -2.4104419 -33.555904 -200 45 -200 45 -200 45
1330455192.5321 -2.4087782 -33.591911 -200 45 -200 45 -200 45
1331455309.2182 -2.4066362 -33.625267 -200 45 -200 45 -200 45
1332455425.9043 -2.4070225 -33.663597 -200 45 -200 45 -200 45
1333455542.5904 -2.4057178 -33.687756 -200 45 -200 45 -200 45
1334455659.2765 -2.4036076 -33.719734 -200 45 -200 45 -200 45
1335455775.9627 -2.4047818 -33.736923 -200 45 -200 45 -200 45
1336455892.6488 -2.4058979 -33.775654 -200 45 -200 45 -200 45
1337456009.3349 -2.404654 -33.789047 -200 45 -200 45 -200 45
1338456126.021 -2.4028165 -33.798759 -200 45 -200 45 -200 45
1339456242.7071 -2.403295 -33.822586 -200 45 -200 45 -200 45
1340456359.3932 -2.4046621 -33.840092 -200 45 -200 45 -200 45
1341456476.0793 -2.4013362 -33.850922 -200 45 -200 45 -200 45
1342456592.7655 -2.4016397 -33.869324 -200 45 -200 45 -200 45
1343456709.4516 -2.4010286 -33.865223 -200 45 -200 45 -200 45
1344456826.1377 -2.4003932 -33.872581 -200 45 -200 45 -200 45
1345456942.8238 -2.398998 -33.890511 -200 45 -200 45 -200 45
1346457059.5099 -2.3995171 -33.895065 -200 45 -200 45 -200 45
1347457176.196 -2.4004593 -33.892624 -200 45 -200 45 -200 45
1348457292.8821 -2.4016864 -33.878925 -200 45 -200 45 -200 45
1349457409.5683 -2.402338 -33.88139 -200 45 -200 45 -200 45
1350457526.2544 -2.4018061 -33.90506 -200 45 -200 45 -200 45
1351457642.9405 -2.4039028 -33.877319 -200 45 -200 45 -200 45
1352457759.6266 -2.4074943 -33.879326 -200 45 -200 45 -200 45
1353457876.3127 -2.4084678 -33.872581 -200 45 -200 45 -200 45
1354457992.9988 -2.4095974 -33.867058 -200 45 -200 45 -200 45
1355458109.6849 -2.4100645 -33.856915 -200 45 -200 45 -200 45
1356458226.3711 -2.4120755 -33.856583 -200 45 -200 45 -200 45
1357458343.0572 -2.4139311 -33.852772 -200 45 -200 45 -200 45
1358458459.7433 -2.4164379 -33.830135 -200 45 -200 45 -200 45
1359458576.4294 -2.4191771 -33.83754 -200 45 -200 45 -200 45
1360458693.1155 -2.4175994 -33.819695 -200 45 -200 45 -200 45
1361458809.8016 -2.4215608 -33.814636 -200 45 -200 45 -200 45
1362458926.4877 -2.4259391 -33.800026 -200 45 -200 45 -200 45
1363459043.1739 -2.4294336 -33.784542 -200 45 -200 45 -200 45
1364459159.86 -2.4320984 -33.778545 -200 45 -200 45 -200 45
1365459276.5461 -2.435461 -33.776348 -200 45 -200 45 -200 45
1366459393.2322 -2.4390645 -33.773205 -200 45 -200 45 -200 45
1367459509.9183 -2.4420555 -33.77726 -200 45 -200 45 -200 45
1368459626.6044 -2.4465437 -33.760277 -200 45 -200 45 -200 45
1369459743.2905 -2.4512851 -33.76104 -200 45 -200 45 -200 45
1370459859.9767 -2.4529095 -33.758179 -200 45 -200 45 -200 45
1371459976.6628 -2.456846 -33.764687 -200 45 -200 45 -200 45
1372460093.3489 -2.4619541 -33.756245 -200 45 -200 45 -200 45
1373460210.035 -2.4677546 -33.757809 -200 45 -200 45 -200 45
1374460326.7211 -2.4656508 -33.770287 -200 45 -200 45 -200 45
1375460443.4072 -2.4712696 -33.764313 -200 45 -200 45 -200 45
1376460560.0933 -2.4739456 -33.786594 -200 45 -200 45 -200 45
1377460676.7795 -2.4773915 -33.802826 -200 45 -200 45 -200 45
1378460793.4656 -2.4830699 -33.814884 -200 45 -200 45 -200 45
1379460910.1517 -2.482718 -33.831364 -200 45 -200 45 -200 45
1380461026.8378 -2.4893689 -33.843479 -200 45 -200 45 -200 45
1381461143.5239 -2.4929039 -33.866974 -200 45 -200 45 -200 45
1382461260.21 -2.496202 -33.8708 -200 45 -200 45 -200 45
1383461376.8961 -2.5015497 -33.908001 -200 45 -200 45 -200 45
1384461493.5823 -2.5061064 -33.928051 -200 45 -200 45 -200 45
1385461610.2684 -2.511034 -33.950924 -200 45 -200 45 -200 45
1386461726.9545 -2.5120981 -33.990128 -200 45 -200 45 -200 45
1387461843.6406 -2.5149803 -34.018467 -200 45 -200 45 -200 45
1388461960.3267 -2.5181692 -34.064537 -200 45 -200 45 -200 45
1389462077.0128 -2.5230269 -34.083546 -200 45 -200 45 -200 45
1390462193.6989 -2.5252786 -34.128834 -200 45 -200 45 -200 45
1391462310.3851 -2.5266306 -34.15633 -200 45 -200 45 -200 45
1392462427.0712 -2.531714 -34.181564 -200 45 -200 45 -200 45
1393462543.7573 -2.5316265 -34.230179 -200 45 -200 45 -200 45
1394462660.4434 -2.5340638 -34.250019 -200 45 -200 45 -200 45
1395462777.1295 -2.5354116 -34.311615 -200 45 -200 45 -200 45
1396462893.8156 -2.534806 -34.336868 -200 45 -200 45 -200 45
1397463010.5018 -2.5372179 -34.363251 -200 45 -200 45 -200 45
1398463127.1879 -2.5406244 -34.435528 -200 45 -200 45 -200 45
1399463243.874 -2.5432782 -34.466358 -200 45 -200 45 -200 45
1400463360.5601 -2.5433559 -34.515072 -200 45 -200 45 -200 45
1401463477.2462 -2.5441422 -34.547607 -200 45 -200 45 -200 45
1402463593.9323 -2.5438986 -34.599056 -200 45 -200 45 -200 45
1403463710.6184 -2.5450292 -34.646034 -200 45 -200 45 -200 45
1404463827.3046 -2.5459306 -34.693436 -200 45 -200 45 -200 45
1405463943.9907 -2.5445747 -34.725655 -200 45 -200 45 -200 45
1406464060.6768 -2.5447807 -34.76368 -200 45 -200 45 -200 45
1407464177.3629 -2.5437837 -34.820328 -200 45 -200 45 -200 45
1408464294.049 -2.5433927 -34.866028 -200 45 -200 45 -200 45
1409464410.7351 -2.5388603 -34.903038 -200 45 -200 45 -200 45
1410464527.4212 -2.5420046 -34.939316 -200 45 -200 45 -200 45
1411464644.1074 -2.542244 -34.968105 -200 45 -200 45 -200 45
1412464760.7935 -2.5399051 -35.006271 -200 45 -200 45 -200 45
1413464877.4796 -2.5378759 -35.042305 -200 45 -200 45 -200 45
1414464994.1657 -2.5389705 -35.073238 -200 45 -200 45 -200 45
1415465110.8518 -2.5364254 -35.101593 -200 45 -200 45 -200 45
1416465227.5379 -2.539449 -35.140202 -200 45 -200 45 -200 45
1417465344.224 -2.5377021 -35.156189 -200 45 -200 45 -200 45
1418465460.9102 -2.5342841 -35.186478 -200 45 -200 45 -200 45
1419465577.5963 -2.5327969 -35.20536 -200 45 -200 45 -200 45
1420465694.2824 -2.5341306 -35.229862 -200 45 -200 45 -200 45
1421465810.9685 -2.5303597 -35.254883 -200 45 -200 45 -200 45
1422465927.6546 -2.5294402 -35.265583 -200 45 -200 45 -200 45
1423466044.3407 -2.5275297 -35.283573 -200 45 -200 45 -200 45
1424466161.0268 -2.525516 -35.306999 -200 45 -200 45 -200 45
1425466277.713 -2.5226557 -35.311584 -200 45 -200 45 -200 45
1426466394.3991 -2.5213165 -35.329193 -200 45 -200 45 -200 45
1427466511.0852 -2.5209551 -35.353596 -200 45 -200 45 -200 45
1428466627.7713 -2.5211926 -35.369881 -200 45 -200 45 -200 45
1429466744.4574 -2.5200334 -35.370144 -200 45 -200 45 -200 45
1430466861.1435 -2.5186393 -35.374996 -200 45 -200 45 -200 45
1431466977.8296 -2.5171533 -35.381268 -200 45 -200 45 -200 45
1432467094.5158 -2.5208206 -35.391209 -200 45 -200 45 -200 45
1433467211.2019 -2.5197892 -35.38871 -200 45 -200 45 -200 45
1434467327.888 -2.5190041 -35.400219 -200 45 -200 45 -200 45
1435467444.5741 -2.5197375 -35.385677 -200 45 -200 45 -200 45
1436467561.2602 -2.5210977 -35.389385 -200 45 -200 45 -200 45
1437467677.9463 -2.5215838 -35.383438 -200 45 -200 45 -200 45
1438467794.6324 -2.522059 -35.384575 -200 45 -200 45 -200 45
1439467911.3186 -2.5211232 -35.391724 -200 45 -200 45 -200 45
1440468028.0047 -2.5212905 -35.381744 -200 45 -200 45 -200 45
1441468144.6908 -2.5226767 -35.379753 -200 45 -200 45 -200 45
1442468261.3769 -2.5245748 -35.350742 -200 45 -200 45 -200 45
1443468378.063 -2.5261598 -35.361656 -200 45 -200 45 -200 45
1444468494.7491 -2.5289791 -35.364498 -200 45 -200 45 -200 45
1445468611.4352 -2.5291858 -35.356873 -200 45 -200 45 -200 45
1446468728.1214 -2.5344181 -35.357872 -200 45 -200 45 -200 45
1447468844.8075 -2.536386 -35.348068 -200 45 -200 45 -200 45
1448468961.4936 -2.540674 -35.344624 -200 45 -200 45 -200 45
1449469078.1797 -2.5437274 -35.349308 -200 45 -200 45 -200 45
1450469194.8658 -2.546917 -35.348885 -200 45 -200 45 -200 45
1451469311.5519 -2.5494025 -35.342476 -200 45 -200 45 -200 45
1452469428.238 -2.5541689 -35.35294 -200 45 -200 45 -200 45
1453469544.9242 -2.5604515 -35.346828 -200 45 -200 45 -200 45
1454469661.6103 -2.5622699 -35.353539 -200 45 -200 45 -200 45
1455469778.2964 -2.5676861 -35.345062 -200 45 -200 45 -200 45
1456469894.9825 -2.5714104 -35.373196 -200 45 -200 45 -200 45
1457470011.6686 -2.5728922 -35.362209 -200 45 -200 45 -200 45
1458470128.3547 -2.5778406 -35.373528 -200 45 -200 45 -200 45
1459470245.0408 -2.5832164 -35.379723 -200 45 -200 45 -200 45
1460470361.727 -2.5876276 -35.37426 -200 45 -200 45 -200 45
1461470478.4131 -2.5917408 -35.386814 -200 45 -200 45 -200 45
1462470595.0992 -2.5969326 -35.405067 -200 45 -200 45 -200 45
1463470711.7853 -2.6012409 -35.405594 -200 45 -200 45 -200 45
1464470828.4714 -2.6081638 -35.411835 -200 45 -200 45 -200 45
1465470945.1575 -2.615061 -35.403141 -200 45 -200 45 -200 45
1466471061.8436 -2.6192808 -35.431366 -200 45 -200 45 -200 45
1467471178.5298 -2.6225467 -35.466511 -200 45 -200 45 -200 45
1468471295.2159 -2.6279995 -35.459446 -200 45 -200 45 -200 45
1469471411.902 -2.6318614 -35.485474 -200 45 -200 45 -200 45
1470471528.5881 -2.6354597 -35.509617 -200 45 -200 45 -200 45
1471471645.2742 -2.6387317 -35.533684 -200 45 -200 45 -200 45
1472471761.9603 -2.6405184 -35.563702 -200 45 -200 45 -200 45
1473471878.6464 -2.6451216 -35.588852 -200 45 -200 45 -200 45
1474471995.3326 -2.6468811 -35.614868 -200 45 -200 45 -200 45
1475472112.0187 -2.6524496 -35.634865 -200 45 -200 45 -200 45
1476472228.7048 -2.6524482 -35.67506 -200 45 -200 45 -200 45
1477472345.3909 -2.6552544 -35.710953 -200 45 -200 45 -200 45
1478472462.077 -2.6585808 -35.74646 -200 45 -200 45 -200 45
1479472578.7631 -2.6630065 -35.772408 -200 45 -200 45 -200 45
1480472695.4492 -2.6641419 -35.803432 -200 45 -200 45 -200 45
1481472812.1354 -2.6690905 -35.851826 -200 45 -200 45 -200 45
1482472928.8215 -2.6678896 -35.891006 -200 45 -200 45 -200 45
1483473045.5076 -2.6699336 -35.926689 -200 45 -200 45 -200 45
1484473162.1937 -2.6714981 -35.964863 -200 45 -200 45 -200 45
1485473278.8798 -2.6733541 -36.023148 -200 45 -200 45 -200 45
1486473395.5659 -2.673336 -36.057735 -200 45 -200 45 -200 45
1487473512.252 -2.6752033 -36.104847 -200 45 -200 45 -200 45
1488473628.9382 -2.6734192 -36.130566 -200 45 -200 45 -200 45
1489473745.6243 -2.6725159 -36.203671 -200 45 -200 45 -200 45
1490473862.3104 -2.6735592 -36.231899 -200 45 -200 45 -200 45
1491473978.9965 -2.6742749 -36.269524 -200 45 -200 45 -200 45
1492474095.6826 -2.6732147 -36.316242 -200 45 -200 45 -200 45
1493474212.3687 -2.6752517 -36.350037 -200 45 -200 45 -200 45
1494474329.0548 -2.6734922 -36.382751 -200 45 -200 45 -200 45
1495474445.741 -2.6752498 -36.437038 -200 45 -200 45 -200 45
1496474562.4271 -2.6746805 -36.463745 -200 45 -200 45 -200 45
1497474679.1132 -2.6734998 -36.504498 -200 45 -200 45 -200 45
1498474795.7993 -2.6745257 -36.54187 -200 45 -200 45 -200 45
1499474912.4854 -2.6745021 -36.572868 -200 45 -200 45 -200 45
1500475029.1715 -2.6716959 -36.613449 -200 45 -200 45 -200 45
1501475145.8576 -2.6726394 -36.65147 -200 45 -200 45 -200 45
1502475262.5438 -2.6683493 -36.671436 -200 45 -200 45 -200 45
1503475379.2299 -2.6671488 -36.689686 -200 45 -200 45 -200 45
1504475495.916 -2.6661999 -36.736317 -200 45 -200 45 -200 45
1505475612.6021 -2.6666269 -36.749962 -200 45 -200 45 -200 45
1506475729.2882 -2.6646323 -36.768787 -200 45 -200 45 -200 45
1507475845.9743 -2.6602211 -36.777664 -200 45 -200 45 -200 45
1508475962.6604 -2.6612127 -36.801865 -200 45 -200 45 -200 45
1509476079.3466 -2.6585789 -36.830463 -200 45 -200 45 -200 45
1510476196.0327 -2.6610432 -36.843384 -200 45 -200 45 -200 45
1511476312.7188 -2.656944 -36.835667 -200 45 -200 45 -200 45
1512476429.4049 -2.658757 -36.869606 -200 45 -200 45 -200 45
1513476546.091 -2.6567082 -36.869907 -200 45 -200 45 -200 45
1514476662.7771 -2.6575854 -36.871132 -200 45 -200 45 -200 45
1515476779.4632 -2.6579974 -36.881966 -200 45 -200 45 -200 45
1516476896.1494 -2.659786 -36.884464 -200 45 -200 45 -200 45
1517477012.8355 -2.6599901 -36.881214 -200 45 -200 45 -200 45
1518477129.5216 -2.6582484 -36.877689 -200 45 -200 45 -200 45
1519477246.2077 -2.6564901 -36.880947 -200 45 -200 45 -200 45
1520477362.8938 -2.6553545 -36.873394 -200 45 -200 45 -200 45
1521477479.5799 -2.6546142 -36.849022 -200 45 -200 45 -200 45
1522477596.266 -2.6545043 -36.84367 -200 45 -200 45 -200 45
1523477712.9522 -2.6572318 -36.841892 -200 45 -200 45 -200 45
1524477829.6383 -2.6572318 -36.828342 -200 45 -200 45 -200 45
1525477946.3244 -2.6578991 -36.825592 -200 45 -200 45 -200 45
1526478063.0105 -2.6587894 -36.815887 -200 45 -200 45 -200 45
1527478179.6966 -2.6607728 -36.793888 -200 45 -200 45 -200 45
1528478296.3827 -2.6625674 -36.786839 -200 45 -200 45 -200 45
1529478413.0688 -2.6660659 -36.77216 -200 45 -200 45 -200 45
1530478529.755 -2.6667929 -36.76371 -200 45 -200 45 -200 45
1531478646.4411 -2.6683302 -36.742622 -200 45 -200 45 -200 45
1532478763.1272 -2.6741495 -36.75106 -200 45 -200 45 -200 45
1533478879.8133 -2.6733253 -36.727524 -200 45 -200 45 -200 45
1534478996.4994 -2.6758409 -36.715931 -200 45 -200 45 -200 45
1535479113.1855 -2.6780851 -36.713604 -200 45 -200 45 -200 45
1536479229.8716 -2.6808724 -36.697708 -200 45 -200 45 -200 45
1537479346.5578 -2.6822155 -36.713959 -200 45 -200 45 -200 45
1538479463.2439 -2.6856377 -36.706654 -200 45 -200 45 -200 45
1539479579.93 -2.6891601 -36.697338 -200 45 -200 45 -200 45
1540479696.6161 -2.6910036 -36.701546 -200 45 -200 45 -200 45
1541479813.3022 -2.6930671 -36.689575 -200 45 -200 45 -200 45
1542479929.9883 -2.6962893 -36.693439 -200 45 -200 45 -200 45
1543480046.6744 -2.7012663 -36.701801 -200 45 -200 45 -200 45
1544480163.3606 -2.7059987 -36.701008 -200 45 -200 45 -200 45
1545480280.0467 -2.709919 -36.713223 -200 45 -200 45 -200 45
1546480396.7328 -2.7152359 -36.693821 -200 45 -200 45 -200 45
1547480513.4189 -2.7181838 -36.719898 -200 45 -200 45 -200 45
1548480630.105 -2.7206953 -36.72607 -200 45 -200 45 -200 45
1549480746.7911 -2.7260339 -36.741859 -200 45 -200 45 -200 45
1550480863.4772 -2.7287712 -36.753067 -200 45 -200 45 -200 45
1551480980.1634 -2.7327197 -36.761776 -200 45 -200 45 -200 45
1552481096.8495 -2.7342732 -36.787605 -200 45 -200 45 -200 45
1553481213.5356 -2.7366199 -36.813068 -200 45 -200 45 -200 45
1554481330.2217 -2.7430139 -36.827633 -200 45 -200 45 -200 45
1555481446.9078 -2.7451973 -36.862328 -200 45 -200 45 -200 45
1556481563.5939 -2.7471538 -36.872028 -200 45 -200 45 -200 45
1557481680.28 -2.7527416 -36.898254 -200 45 -200 45 -200 45
1558481796.9662 -2.7567589 -36.943111 -200 45 -200 45 -200 45
1559481913.6523 -2.7568762 -36.976456 -200 45 -200 45 -200 45
1560482030.3384 -2.7628205 -36.997845 -200 45 -200 45 -200 45
1561482147.0245 -2.7679887 -37.027851 -200 45 -200 45 -200 45
1562482263.7106 -2.7712233 -37.082111 -200 45 -200 45 -200 45
1563482380.3967 -2.7746453 -37.116821 -200 45 -200 45 -200 45
1564482497.0828 -2.7749956 -37.146866 -200 45 -200 45 -200 45
1565482613.769 -2.7767153 -37.193302 -200 45 -200 45 -200 45
1566482730.4551 -2.7771063 -37.234032 -200 45 -200 45 -200 45
1567482847.1412 -2.781745 -37.283249 -200 45 -200 45 -200 45
1568482963.8273 -2.7815642 -37.321278 -200 45 -200 45 -200 45
1569483080.5134 -2.7822902 -37.375549 -200 45 -200 45 -200 45
1570483197.1995 -2.7818618 -37.398525 -200 45 -200 45 -200 45
1571483313.8856 -2.7834792 -37.444836 -200 45 -200 45 -200 45
1572483430.5718 -2.7854829 -37.490795 -200 45 -200 45 -200 45
1573483547.2579 -2.7872689 -37.53149 -200 45 -200 45 -200 45
1574483663.944 -2.7878861 -37.571503 -200 45 -200 45 -200 45
1575483780.6301 -2.7876451 -37.629448 -200 45 -200 45 -200 45
1576483897.3162 -2.7888877 -37.663025 -200 45 -200 45 -200 45
1577484014.0023 -2.7876711 -37.724735 -200 45 -200 45 -200 45
1578484130.6884 -2.7890933 -37.748901 -200 45 -200 45 -200 45
1579484247.3746 -2.7870705 -37.780785 -200 45 -200 45 -200 45
1580484364.0607 -2.7876341 -37.833321 -200 45 -200 45 -200 45
1581484480.7468 -2.788137 -37.865345 -200 45 -200 45 -200 45
1582484597.4329 -2.7876706 -37.901939 -200 45 -200 45 -200 45
1583484714.119 -2.7873545 -37.952541 -200 45 -200 45 -200 45
1584484830.8051 -2.7851644 -37.972275 -200 45 -200 45 -200 45
1585484947.4912 -2.781415 -38.021351 -200 45 -200 45 -200 45
1586485064.1774 -2.7826223 -38.043156 -200 45 -200 45 -200 45
1587485180.8635 -2.7794435 -38.081959 -200 45 -200 45 -200 45
1588485297.5496 -2.7782054 -38.114479 -200 45 -200 45 -200 45
1589485414.2357 -2.7766619 -38.134804 -200 45 -200 45 -200 45
1590485530.9218 -2.7757421 -38.174793 -200 45 -200 45 -200 45
1591485647.6079 -2.7745724 -38.177696 -200 45 -200 45 -200 45
1592485764.294 -2.7759519 -38.204895 -200 45 -200 45 -200 45
1593485880.9802 -2.7730107 -38.231144 -200 45 -200 45 -200 45
1594485997.6663 -2.7762992 -38.264076 -200 45 -200 45 -200 45
1595486114.3524 -2.7733314 -38.277802 -200 45 -200 45 -200 45
1596486231.0385 -2.7723112 -38.276531 -200 45 -200 45 -200 45
1597486347.7246 -2.7713816 -38.291451 -200 45 -200 45 -200 45
1598486464.4107 -2.770117 -38.302952 -200 45 -200 45 -200 45
1599486581.0968 -2.7698531 -38.313133 -200 45 -200 45 -200 45
1600486697.783 -2.7682099 -38.311844 -200 45 -200 45 -200 45
1601486814.4691 -2.7681494 -38.325314 -200 45 -200 45 -200 45
1602486931.1552 -2.7652531 -38.328094 -200 45 -200 45 -200 45
1603487047.8413 -2.7646732 -38.328903 -200 45 -200 45 -200 45
1604487164.5274 -2.7667649 -38.311264 -200 45 -200 45 -200 45
1605487281.2135 -2.7627642 -38.313313 -200 45 -200 45 -200 45
1606487397.8997 -2.7680626 -38.317459 -200 45 -200 45 -200 45
1607487514.5858 -2.7657993 -38.298523 -200 45 -200 45 -200 45
1608487631.2719 -2.7642941 -38.287628 -200 45 -200 45 -200 45
1609487747.958 -2.7695799 -38.297031 -200 45 -200 45 -200 45
1610487864.6441 -2.7699437 -38.276901 -200 45 -200 45 -200 45
1611487981.3302 -2.7706022 -38.274673 -200 45 -200 45 -200 45
1612488098.0163 -2.7717364 -38.246643 -200 45 -200 45 -200 45
1613488214.7025 -2.7733908 -38.252529 -200 45 -200 45 -200 45
1614488331.3886 -2.7728901 -38.237316 -200 45 -200 45 -200 45
1615488448.0747 -2.7752583 -38.222851 -200 45 -200 45 -200 45
1616488564.7608 -2.7767909 -38.218571 -200 45 -200 45 -200 45
1617488681.4469 -2.7770126 -38.195103 -200 45 -200 45 -200 45
1618488798.133 -2.7794223 -38.198479 -200 45 -200 45 -200 45
1619488914.8191 -2.7815778 -38.175751 -200 45 -200 45 -200 45
1620489031.5053 -2.7816768 -38.161095 -200 45 -200 45 -200 45
1621489148.1914 -2.7880819 -38.152142 -200 45 -200 45 -200 45
1622489264.8775 -2.7876086 -38.148365 -200 45 -200 45 -200 45
1623489381.5636 -2.792465 -38.132202 -200 45 -200 45 -200 45
1624489498.2497 -2.7951393 -38.133324 -200 45 -200 45 -200 45
1625489614.9358 -2.7995315 -38.121269 -200 45 -200 45 -200 45
1626489731.6219 -2.8006926 -38.131805 -200 45 -200 45 -200 45
1627489848.3081 -2.8073246 -38.116604 -200 45 -200 45 -200 45
1628489964.9942 -2.8087611 -38.12479 -200 45 -200 45 -200 45
1629490081.6803 -2.8146515 -38.110733 -200 45 -200 45 -200 45
1630490198.3664 -2.8144109 -38.120514 -200 45 -200 45 -200 45
1631490315.0525 -2.8189518 -38.124851 -200 45 -200 45 -200 45
1632490431.7386 -2.8251474 -38.122482 -200 45 -200 45 -200 45
1633490548.4247 -2.8224797 -38.127823 -200 45 -200 45 -200 45
1634490665.1109 -2.8253562 -38.145466 -200 45 -200 45 -200 45
1635490781.797 -2.8323624 -38.158985 -200 45 -200 45 -200 45
1636490898.4831 -2.8343277 -38.151497 -200 45 -200 45 -200 45
1637491015.1692 -2.8365731 -38.177238 -200 45 -200 45 -200 45
1638491131.8553 -2.8411865 -38.210373 -200 45 -200 45 -200 45
1639491248.5414 -2.8424022 -38.231159 -200 45 -200 45 -200 45
1640491365.2275 -2.8490472 -38.245285 -200 45 -200 45 -200 45
1641491481.9137 -2.8519499 -38.253128 -200 45 -200 45 -200 45
1642491598.5998 -2.8544197 -38.298046 -200 45 -200 45 -200 45
1643491715.2859 -2.8595617 -38.33173 -200 45 -200 45 -200 45
1644491831.972 -2.8611932 -38.34787 -200 45 -200 45 -200 45
1645491948.6581 -2.8627143 -38.37389 -200 45 -200 45 -200 45
1646492065.3442 -2.867557 -38.404305 -200 45 -200 45 -200 45
1647492182.0303 -2.8694782 -38.436634 -200 45 -200 45 -200 45
1648492298.7165 -2.8704808 -38.478745 -200 45 -200 45 -200 45
1649492415.4026 -2.8733633 -38.526474 -200 45 -200 45 -200 45
1650492532.0887 -2.8737359 -38.566101 -200 45 -200 45 -200 45
1651492648.7748 -2.8738117 -38.594574 -200 45 -200 45 -200 45
1652492765.4609 -2.8769953 -38.665688 -200 45 -200 45 -200 45
1653492882.147 -2.8779719 -38.714764 -200 45 -200 45 -200 45
1654492998.8331 -2.8783143 -38.764198 -200 45 -200 45 -200 45
1655493115.5193 -2.877039 -38.798439 -200 45 -200 45 -200 45
1656493232.2054 -2.8807755 -38.841183 -200 45 -200 45 -200 45
1657493348.8915 -2.8816369 -38.893166 -200 45 -200 45 -200 45
1658493465.5776 -2.8837709 -38.946224 -200 45 -200 45 -200 45
1659493582.2637 -2.8850825 -38.994747 -200 45 -200 45 -200 45
1660493698.9498 -2.8846345 -39.05452 -200 45 -200 45 -200 45
1661493815.6359 -2.8847506 -39.09066 -200 45 -200 45 -200 45
1662493932.3221 -2.885469 -39.134872 -200 45 -200 45 -200 45
1663494049.0082 -2.885148 -39.183952 -200 45 -200 45 -200 45
1664494165.6943 -2.8845494 -39.240891 -200 45 -200 45 -200 45
1665494282.3804 -2.8826578 -39.285313 -200 45 -200 45 -200 45
1666494399.0665 -2.8808804 -39.335293 -200 45 -200 45 -200 45
1667494515.7526 -2.8801711 -39.364285 -200 45 -200 45 -200 45
1668494632.4387 -2.8804483 -39.421021 -200 45 -200 45 -200 45
1669494749.1249 -2.8775039 -39.459187 -200 45 -200 45 -200 45
1670494865.811 -2.8766859 -39.517975 -200 45 -200 45 -200 45
1671494982.4971 -2.8797488 -39.540562 -200 45 -200 45 -200 45
1672495099.1832 -2.8762639 -39.587044 -200 45 -200 45 -200 45
1673495215.8693 -2.8767648 -39.608555 -200 45 -200 45 -200 45
1674495332.5554 -2.8753638 -39.63731 -200 45 -200 45 -200 45
1675495449.2415 -2.8755651 -39.688419 -200 45 -200 45 -200 45
1676495565.9277 -2.8755872 -39.696461 -200 45 -200 45 -200 45
1677495682.6138 -2.8747275 -39.740005 -200 45 -200 45 -200 45
1678495799.2999 -2.8726194 -39.743725 -200 45 -200 45 -200 45
1679495915.986 -2.8717864 -39.762993 -200 45 -200 45 -200 45
1680496032.6721 -2.8692431 -39.777992 -200 45 -200 45 -200 45
1681496149.3582 -2.8682284 -39.800957 -200 45 -200 45 -200 45
1682496266.0443 -2.8667004 -39.814758 -200 45 -200 45 -200 45
1683496382.7305 -2.8652432 -39.821926 -200 45 -200 45 -200 45
1684496499.4166 -2.8647084 -39.834156 -200 45 -200 45 -200 45
1685496616.1027 -2.8610356 -39.827892 -200 45 -200 45 -200 45
1686496732.7888 -2.8628454 -39.849594 -200 45 -200 45 -200 45
1687496849.4749 -2.8613124 -39.851643 -200 45 -200 45 -200 45
1688496966.161 -2.8610721 -39.845459 -200 45 -200 45 -200 45
1689497082.8471 -2.8622239 -39.85107 -200 45 -200 45 -200 45
1690497199.5333 -2.862474 -39.858952 -200 45 -200 45 -200 45
1691497316.2194 -2.864336 -39.850109 -200 45 -200 45 -200 45
1692497432.9055 -2.8624351 -39.829102 -200 45 -200 45 -200 45
1693497549.5916 -2.8635499 -39.812553 -200 45 -200 45 -200 45
1694497666.2777 -2.8636682 -39.807922 -200 45 -200 45 -200 45
1695497782.9638 -2.867038 -39.790802 -200 45 -200 45 -200 45
1696497899.6499 -2.8654449 -39.787632 -200 45 -200 45 -200 45
1697498016.3361 -2.8673506 -39.770088 -200 45 -200 45 -200 45
1698498133.0222 -2.8664374 -39.785076 -200 45 -200 45 -200 45
1699498249.7083 -2.8671894 -39.752586 -200 45 -200 45 -200 45
1700498366.3944 -2.8695138 -39.733807 -200 45 -200 45 -200 45
1701498483.0805 -2.8693082 -39.72562 -200 45 -200 45 -200 45
1702498599.7666 -2.8731651 -39.699333 -200 45 -200 45 -200 45
1703498716.4527 -2.8745875 -39.683441 -200 45 -200 45 -200 45
1704498833.1389 -2.877739 -39.682602 -200 45 -200 45 -200 45
1705498949.825 -2.8790259 -39.663761 -200 45 -200 45 -200 45
1706499066.5111 -2.8833697 -39.64608 -200 45 -200 45 -200 45
1707499183.1972 -2.8865757 -39.631504 -200 45 -200 45 -200 45
1708499299.8833 -2.8880811 -39.621429 -200 45 -200 45 -200 45
1709499416.5694 -2.8912523 -39.607174 -200 45 -200 45 -200 45
1710499533.2555 -2.8940024 -39.605747 -200 45 -200 45 -200 45
1711499649.9417 -2.899014 -39.593929 -200 45 -200 45 -200 45
1712499766.6278 -2.9018266 -39.591076 -200 45 -200 45 -200 45
1713499883.3139 -2.9054112 -39.577518 -200 45 -200 45 -200 45
1714500000 -2.9078255 -39.586525 -200 45 -200 45 -200 45
1715500116.6861 -2.9109895 -39.572353 -200 45 -200 45 -200 45
1716500233.3722 -2.9147482 -39.574074 -200 45 -200 45 -200 45
1717500350.0583 -2.9179041 -39.566559 -200 45 -200 45 -200 45
1718500466.7445 -2.9193149 -39.583881 -200 45 -200 45 -200 45
1719500583.4306 -2.9260468 -39.586029 -200 45 -200 45 -200 45
1720500700.1167 -2.9270658 -39.599644 -200 45 -200 45 -200 45
1721500816.8028 -2.9327056 -39.594692 -200 45 -200 45 -200 45
1722500933.4889 -2.9377611 -39.615932 -200 45 -200 45 -200 45
1723501050.175 -2.9405084 -39.627354 -200 45 -200 45 -200 45
1724501166.8611 -2.943192 -39.65313 -200 45 -200 45 -200 45
1725501283.5473 -2.9478288 -39.696033 -200 45 -200 45 -200 45
1726501400.2334 -2.9535549 -39.718227 -200 45 -200 45 -200 45
1727501516.9195 -2.9535923 -39.724346 -200 45 -200 45 -200 45
1728501633.6056 -2.9598927 -39.756897 -200 45 -200 45 -200 45
1729501750.2917 -2.9619629 -39.798912 -200 45 -200 45 -200 45
1730501866.9778 -2.9628205 -39.817219 -200 45 -200 45 -200 45
1731501983.6639 -2.9649928 -39.856522 -200 45 -200 45 -200 45
1732502100.3501 -2.9702086 -39.893394 -200 45 -200 45 -200 45
1733502217.0362 -2.9715183 -39.945175 -200 45 -200 45 -200 45
1734502333.7223 -2.971936 -39.967285 -200 45 -200 45 -200 45
1735502450.4084 -2.9760561 -40.03265 -200 45 -200 45 -200 45
1736502567.0945 -2.9771879 -40.066925 -200 45 -200 45 -200 45
1737502683.7806 -2.9797468 -40.09082 -200 45 -200 45 -200 45
1738502800.4667 -2.9808569 -40.152058 -200 45 -200 45 -200 45
1739502917.1529 -2.9840658 -40.187187 -200 45 -200 45 -200 45
1740503033.839 -2.9858544 -40.261879 -200 45 -200 45 -200 45
1741503150.5251 -2.9872055 -40.305725 -200 45 -200 45 -200 45
1742503267.2112 -2.9887223 -40.350929 -200 45 -200 45 -200 45
1743503383.8973 -2.9881773 -40.414986 -200 45 -200 45 -200 45
1744503500.5834 -2.9896445 -40.474785 -200 45 -200 45 -200 45
1745503617.2695 -2.9901824 -40.502651 -200 45 -200 45 -200 45
1746503733.9557 -2.988646 -40.574089 -200 45 -200 45 -200 45
1747503850.6418 -2.9886656 -40.61496 -200 45 -200 45 -200 45
1748503967.3279 -2.9876127 -40.667389 -200 45 -200 45 -200 45
1749504084.014 -2.9847002 -40.717285 -200 45 -200 45 -200 45
1750504200.7001 -2.986275 -40.787724 -200 45 -200 45 -200 45
1751504317.3862 -2.9857211 -40.823353 -200 45 -200 45 -200 45
1752504434.0723 -2.9847734 -40.861366 -200 45 -200 45 -200 45
1753504550.7585 -2.9846463 -40.920662 -200 45 -200 45 -200 45
1754504667.4446 -2.9819255 -40.960373 -200 45 -200 45 -200 45
1755504784.1307 -2.982944 -40.986862 -200 45 -200 45 -200 45
1756504900.8168 -2.98226 -41.034695 -200 45 -200 45 -200 45
1757505017.5029 -2.9822898 -41.084644 -200 45 -200 45 -200 45
1758505134.189 -2.9804506 -41.134045 -200 45 -200 45 -200 45
1759505250.8751 -2.9771523 -41.15472 -200 45 -200 45 -200 45
1760505367.5613 -2.9775872 -41.190941 -200 45 -200 45 -200 45
1761505484.2474 -2.9761913 -41.218563 -200 45 -200 45 -200 45
1762505600.9335 -2.9723549 -41.252949 -200 45 -200 45 -200 45
1763505717.6196 -2.9696243 -41.288372 -200 45 -200 45 -200 45
1764505834.3057 -2.966258 -41.304142 -200 45 -200 45 -200 45
1765505950.9918 -2.9681966 -41.33176 -200 45 -200 45 -200 45
1766506067.6779 -2.9649847 -41.34222 -200 45 -200 45 -200 45
1767506184.3641 -2.9637568 -41.369915 -200 45 -200 45 -200 45
1768506301.0502 -2.9628713 -41.387848 -200 45 -200 45 -200 45
1769506417.7363 -2.9631124 -41.37627 -200 45 -200 45 -200 45
1770506534.4224 -2.9615006 -41.381565 -200 45 -200 45 -200 45
1771506651.1085 -2.9600494 -41.414352 -200 45 -200 45 -200 45
1772506767.7946 -2.9593222 -41.400898 -200 45 -200 45 -200 45
1773506884.4807 -2.9608064 -41.433815 -200 45 -200 45 -200 45
1774507001.1669 -2.9583056 -41.407536 -200 45 -200 45 -200 45
1775507117.853 -2.9578581 -41.408714 -200 45 -200 45 -200 45
1776507234.5391 -2.9576862 -41.407177 -200 45 -200 45 -200 45
1777507351.2252 -2.9556828 -41.394184 -200 45 -200 45 -200 45
1778507467.9113 -2.9577076 -41.384285 -200 45 -200 45 -200 45
1779507584.5974 -2.9569201 -41.380173 -200 45 -200 45 -200 45
1780507701.2835 -2.9563529 -41.35873 -200 45 -200 45 -200 45
1781507817.9697 -2.9593191 -41.350719 -200 45 -200 45 -200 45
1782507934.6558 -2.960201 -41.335381 -200 45 -200 45 -200 45
1783508051.3419 -2.9601984 -41.31654 -200 45 -200 45 -200 45
1784508168.028 -2.9617007 -41.2981 -200 45 -200 45 -200 45
1785508284.7141 -2.9650805 -41.282917 -200 45 -200 45 -200 45
1786508401.4002 -2.9682992 -41.262657 -200 45 -200 45 -200 45
1787508518.0863 -2.9690249 -41.240364 -200 45 -200 45 -200 45
1788508634.7725 -2.970736 -41.225979 -200 45 -200 45 -200 45
1789508751.4586 -2.9746618 -41.207104 -200 45 -200 45 -200 45
1790508868.1447 -2.9793422 -41.179554 -200 45 -200 45 -200 45
1791508984.8308 -2.979243 -41.171516 -200 45 -200 45 -200 45
1792509101.5169 -2.9832888 -41.157509 -200 45 -200 45 -200 45
1793509218.203 -2.9857359 -41.123085 -200 45 -200 45 -200 45
1794509334.8891 -2.9866853 -41.115662 -200 45 -200 45 -200 45
1795509451.5753 -2.9900362 -41.111832 -200 45 -200 45 -200 45
1796509568.2614 -2.9908767 -41.100075 -200 45 -200 45 -200 45
1797509684.9475 -2.9976239 -41.088402 -200 45 -200 45 -200 45
1798509801.6336 -3.0009072 -41.086658 -200 45 -200 45 -200 45
1799509918.3197 -3.0049646 -41.072754 -200 45 -200 45 -200 45
1800510035.0058 -3.0101757 -41.074417 -200 45 -200 45 -200 45
1801510151.6919 -3.011029 -41.073612 -200 45 -200 45 -200 45
1802510268.3781 -3.0166936 -41.065578 -200 45 -200 45 -200 45
1803510385.0642 -3.022078 -41.070415 -200 45 -200 45 -200 45
1804510501.7503 -3.0287609 -41.075504 -200 45 -200 45 -200 45
1805510618.4364 -3.0307145 -41.063164 -200 45 -200 45 -200 45
1806510735.1225 -3.0357985 -41.101486 -200 45 -200 45 -200 45
1807510851.8086 -3.0384343 -41.109234 -200 45 -200 45 -200 45
1808510968.4947 -3.0413964 -41.126839 -200 45 -200 45 -200 45
1809511085.1809 -3.0491264 -41.135365 -200 45 -200 45 -200 45
1810511201.867 -3.048625 -41.165913 -200 45 -200 45 -200 45
1811511318.5531 -3.0533006 -41.177895 -200 45 -200 45 -200 45
1812511435.2392 -3.0588179 -41.208668 -200 45 -200 45 -200 45
1813511551.9253 -3.0589676 -41.249176 -200 45 -200 45 -200 45
1814511668.6114 -3.0633259 -41.274002 -200 45 -200 45 -200 45
1815511785.2975 -3.0666578 -41.308605 -200 45 -200 45 -200 45
1816511901.9837 -3.070118 -41.345074 -200 45 -200 45 -200 45
1817512018.6698 -3.075707 -41.384117 -200 45 -200 45 -200 45
1818512135.3559 -3.0753558 -41.424046 -200 45 -200 45 -200 45
1819512252.042 -3.0786622 -41.465061 -200 45 -200 45 -200 45
1820512368.7281 -3.081574 -41.514004 -200 45 -200 45 -200 45
1821512485.4142 -3.0863764 -41.553078 -200 45 -200 45 -200 45
1822512602.1004 -3.0878551 -41.610966 -200 45 -200 45 -200 45
1823512718.7865 -3.089304 -41.662731 -200 45 -200 45 -200 45
1824512835.4726 -3.0899498 -41.707424 -200 45 -200 45 -200 45
1825512952.1587 -3.0922599 -41.779835 -200 45 -200 45 -200 45
1826513068.8448 -3.0906076 -41.826935 -200 45 -200 45 -200 45
1827513185.5309 -3.0923901 -41.878681 -200 45 -200 45 -200 45
1828513302.217 -3.0920289 -41.937901 -200 45 -200 45 -200 45
1829513418.9032 -3.0923002 -42.011528 -200 45 -200 45 -200 45
1830513535.5893 -3.0951707 -42.064854 -200 45 -200 45 -200 45
1831513652.2754 -3.0950375 -42.142826 -200 45 -200 45 -200 45
1832513768.9615 -3.0948083 -42.183533 -200 45 -200 45 -200 45
1833513885.6476 -3.093066 -42.265434 -200 45 -200 45 -200 45
1834514002.3337 -3.0929785 -42.290436 -200 45 -200 45 -200 45
1835514119.0198 -3.0940402 -42.357452 -200 45 -200 45 -200 45
1836514235.706 -3.0948062 -42.419502 -200 45 -200 45 -200 45
1837514352.3921 -3.0920293 -42.470989 -200 45 -200 45 -200 45
1838514469.0782 -3.0940385 -42.52219 -200 45 -200 45 -200 45
1839514585.7643 -3.0922678 -42.571732 -200 45 -200 45 -200 45
1840514702.4504 -3.0898497 -42.622494 -200 45 -200 45 -200 45
1841514819.1365 -3.0900664 -42.673092 -200 45 -200 45 -200 45
1842514935.8226 -3.086199 -42.71204 -200 45 -200 45 -200 45
1843515052.5088 -3.0847714 -42.766994 -200 45 -200 45 -200 45
1844515169.1949 -3.0821161 -42.783936 -200 45 -200 45 -200 45
1845515285.881 -3.0818973 -42.823769 -200 45 -200 45 -200 45
1846515402.5671 -3.0786552 -42.843613 -200 45 -200 45 -200 45
1847515519.2532 -3.0766959 -42.892471 -200 45 -200 45 -200 45
1848515635.9393 -3.0739892 -42.924789 -200 45 -200 45 -200 45
1849515752.6254 -3.0732541 -42.92498 -200 45 -200 45 -200 45
1850515869.3116 -3.0724316 -42.973122 -200 45 -200 45 -200 45
1851515985.9977 -3.0708077 -42.985809 -200 45 -200 45 -200 45
1852516102.6838 -3.070163 -42.997238 -200 45 -200 45 -200 45
1853516219.3699 -3.0708842 -43.00914 -200 45 -200 45 -200 45
1854516336.056 -3.0688784 -43.014633 -200 45 -200 45 -200 45
1855516452.7421 -3.0643084 -43.031265 -200 45 -200 45 -200 45
1856516569.4282 -3.0649705 -43.028854 -200 45 -200 45 -200 45
1857516686.1144 -3.0634735 -43.030235 -200 45 -200 45 -200 45
1858516802.8005 -3.0612042 -43.02895 -200 45 -200 45 -200 45
1859516919.4866 -3.0608125 -43.03178 -200 45 -200 45 -200 45
1860517036.1727 -3.0593305 -43.029411 -200 45 -200 45 -200 45
1861517152.8588 -3.0577447 -43.022442 -200 45 -200 45 -200 45
1862517269.5449 -3.0594339 -43.006771 -200 45 -200 45 -200 45
1863517386.231 -3.0591195 -43.001423 -200 45 -200 45 -200 45
1864517502.9172 -3.0608096 -42.993793 -200 45 -200 45 -200 45
1865517619.6033 -3.0580242 -42.969547 -200 45 -200 45 -200 45
1866517736.2894 -3.0656753 -42.943569 -200 45 -200 45 -200 45
1867517852.9755 -3.0663097 -42.919018 -200 45 -200 45 -200 45
1868517969.6616 -3.0665507 -42.906799 -200 45 -200 45 -200 45
1869518086.3477 -3.0705566 -42.879925 -200 45 -200 45 -200 45
1870518203.0338 -3.0754039 -42.87627 -200 45 -200 45 -200 45
1871518319.72 -3.0779874 -42.833794 -200 45 -200 45 -200 45
1872518436.4061 -3.0839784 -42.804127 -200 45 -200 45 -200 45
1873518553.0922 -3.0894902 -42.759651 -200 45 -200 45 -200 45
1874518669.7783 -3.0930381 -42.699265 -200 45 -200 45 -200 45
1875518786.4644 -3.0946612 -42.620464 -200 45 -200 45 -200 45
1876518903.1505 -3.0895948 -42.586063 -200 45 -200 45 -200 45
1877519019.8366 -3.0926054 -42.533024 -200 45 -200 45 -200 45
1878519136.5228 -3.0911701 -42.518665 -200 45 -200 45 -200 45
1879519253.2089 -3.0902059 -42.476006 -200 45 -200 45 -200 45
1880519369.895 -3.0902424 -42.491043 -200 45 -200 45 -200 45
1881519486.5811 -3.0940802 -42.480034 -200 45 -200 45 -200 45
1882519603.2672 -3.0960753 -42.455147 -200 45 -200 45 -200 45
1883519719.9533 -3.0996432 -42.421379 -200 45 -200 45 -200 45
1884519836.6394 -3.1021578 -42.423927 -200 45 -200 45 -200 45
1885519953.3256 -3.1048164 -42.429253 -200 45 -200 45 -200 45
1886520070.0117 -3.1082063 -42.431122 -200 45 -200 45 -200 45
1887520186.6978 -3.1111345 -42.436043 -200 45 -200 45 -200 45
1888520303.3839 -3.1146786 -42.428947 -200 45 -200 45 -200 45
1889520420.07 -3.1210599 -42.451305 -200 45 -200 45 -200 45
1890520536.7561 -3.1264062 -42.438915 -200 45 -200 45 -200 45
1891520653.4422 -3.1299388 -42.478981 -200 45 -200 45 -200 45
1892520770.1284 -3.1306937 -42.497879 -200 45 -200 45 -200 45
1893520886.8145 -3.1348009 -42.496941 -200 45 -200 45 -200 45
1894521003.5006 -3.1373954 -42.538025 -200 45 -200 45 -200 45
1895521120.1867 -3.1398339 -42.567974 -200 45 -200 45 -200 45
1896521236.8728 -3.1450911 -42.575542 -200 45 -200 45 -200 45
1897521353.5589 -3.1501505 -42.610416 -200 45 -200 45 -200 45
1898521470.245 -3.1561289 -42.65678 -200 45 -200 45 -200 45
1899521586.9312 -3.1591606 -42.686123 -200 45 -200 45 -200 45
1900521703.6173 -3.1649842 -42.720203 -200 45 -200 45 -200 45
1901521820.3034 -3.16941 -42.777588 -200 45 -200 45 -200 45
1902521936.9895 -3.1735911 -42.809238 -200 45 -200 45 -200 45
1903522053.6756 -3.1761088 -42.859619 -200 45 -200 45 -200 45
1904522170.3617 -3.1790783 -42.910255 -200 45 -200 45 -200 45
1905522287.0478 -3.1810241 -42.961391 -200 45 -200 45 -200 45
1906522403.734 -3.1857584 -43.025204 -200 45 -200 45 -200 45
1907522520.4201 -3.1869507 -43.069611 -200 45 -200 45 -200 45
1908522637.1062 -3.1880832 -43.123756 -200 45 -200 45 -200 45
1909522753.7923 -3.1906116 -43.182766 -200 45 -200 45 -200 45
1910522870.4784 -3.1935132 -43.237461 -200 45 -200 45 -200 45
1911522987.1645 -3.1932759 -43.320473 -200 45 -200 45 -200 45
1912523103.8506 -3.1948106 -43.364365 -200 45 -200 45 -200 45
1913523220.5368 -3.1960049 -43.427299 -200 45 -200 45 -200 45
1914523337.2229 -3.1948113 -43.495956 -200 45 -200 45 -200 45
1915523453.909 -3.1994064 -43.558167 -200 45 -200 45 -200 45
1916523570.5951 -3.1999185 -43.619743 -200 45 -200 45 -200 45
1917523687.2812 -3.1997814 -43.669491 -200 45 -200 45 -200 45
1918523803.9673 -3.1995866 -43.729683 -200 45 -200 45 -200 45
1919523920.6534 -3.1976624 -43.793152 -200 45 -200 45 -200 45
1920524037.3396 -3.1945372 -43.85358 -200 45 -200 45 -200 45
1921524154.0257 -3.1969123 -43.90694 -200 45 -200 45 -200 45
1922524270.7118 -3.1957395 -43.963379 -200 45 -200 45 -200 45
1923524387.3979 -3.1929486 -44.026794 -200 45 -200 45 -200 45
1924524504.084 -3.1894541 -44.074078 -200 45 -200 45 -200 45
1925524620.7701 -3.1886878 -44.111366 -200 45 -200 45 -200 45
1926524737.4562 -3.1841373 -44.172974 -200 45 -200 45 -200 45
1927524854.1424 -3.1857009 -44.194649 -200 45 -200 45 -200 45
1928524970.8285 -3.1823273 -44.256599 -200 45 -200 45 -200 45
1929525087.5146 -3.1795638 -44.291367 -200 45 -200 45 -200 45
1930525204.2007 -3.1771886 -44.327972 -200 45 -200 45 -200 45
1931525320.8868 -3.1753161 -44.363586 -200 45 -200 45 -200 45
1932525437.5729 -3.174839 -44.397045 -200 45 -200 45 -200 45
1933525554.259 -3.1741564 -44.411655 -200 45 -200 45 -200 45
1934525670.9452 -3.1713665 -44.457806 -200 45 -200 45 -200 45
1935525787.6313 -3.1690528 -44.46122 -200 45 -200 45 -200 45
1936525904.3174 -3.1640894 -44.492393 -200 45 -200 45 -200 45
1937526021.0035 -3.1643887 -44.49437 -200 45 -200 45 -200 45
1938526137.6896 -3.1615052 -44.518085 -200 45 -200 45 -200 45
1939526254.3757 -3.1584764 -44.519936 -200 45 -200 45 -200 45
1940526371.0618 -3.1576653 -44.514637 -200 45 -200 45 -200 45
1941526487.748 -3.1545088 -44.516212 -200 45 -200 45 -200 45
1942526604.4341 -3.1528764 -44.518326 -200 45 -200 45 -200 45
1943526721.1202 -3.1512561 -44.522408 -200 45 -200 45 -200 45
1944526837.8063 -3.1495275 -44.519489 -200 45 -200 45 -200 45
1945526954.4924 -3.1499982 -44.499405 -200 45 -200 45 -200 45
1946527071.1785 -3.1466258 -44.470207 -200 45 -200 45 -200 45
1947527187.8646 -3.1491003 -44.457592 -200 45 -200 45 -200 45
1948527304.5508 -3.1469922 -44.453312 -200 45 -200 45 -200 45
1949527421.2369 -3.1487675 -44.424881 -200 45 -200 45 -200 45
1950527537.923 -3.1481266 -44.398212 -200 45 -200 45 -200 45
1951527654.6091 -3.1494889 -44.376492 -200 45 -200 45 -200 45
1952527771.2952 -3.1489658 -44.343533 -200 45 -200 45 -200 45
1953527887.9813 -3.1522415 -44.320522 -200 45 -200 45 -200 45
1954528004.6674 -3.1482592 -44.279072 -200 45 -200 45 -200 45
1955528121.3536 -3.1543586 -44.26405 -200 45 -200 45 -200 45
1956528238.0397 -3.1493709 -44.220699 -200 45 -200 45 -200 45
1957528354.7258 -3.1497912 -44.192329 -200 45 -200 45 -200 45
1958528471.4119 -3.1529472 -44.160694 -200 45 -200 45 -200 45
1959528588.098 -3.1543903 -44.136829 -200 45 -200 45 -200 45
1960528704.7841 -3.1567469 -44.112694 -200 45 -200 45 -200 45
1961528821.4702 -3.1621158 -44.07473 -200 45 -200 45 -200 45
1962528938.1564 -3.1644237 -44.067085 -200 45 -200 45 -200 45
1963529054.8425 -3.1677952 -44.040215 -200 45 -200 45 -200 45
1964529171.5286 -3.1700306 -43.987 -200 45 -200 45 -200 45
1965529288.2147 -3.1753733 -43.968475 -200 45 -200 45 -200 45
1966529404.9008 -3.181546 -43.968647 -200 45 -200 45 -200 45
1967529521.5869 -3.1839721 -43.945511 -200 45 -200 45 -200 45
1968529638.273 -3.1874192 -43.923244 -200 45 -200 45 -200 45
1969529754.9592 -3.1909177 -43.916546 -200 45 -200 45 -200 45
1970529871.6453 -3.1966424 -43.906994 -200 45 -200 45 -200 45
1971529988.3314 -3.1987982 -43.889862 -200 45 -200 45 -200 45
1972530105.0175 -3.2031538 -43.888729 -200 45 -200 45 -200 45
1973530221.7036 -3.2079046 -43.878429 -200 45 -200 45 -200 45
1974530338.3897 -3.2108738 -43.884571 -200 45 -200 45 -200 45
1975530455.0758 -3.2173388 -43.885658 -200 45 -200 45 -200 45
1976530571.762 -3.2220283 -43.909286 -200 45 -200 45 -200 45
1977530688.4481 -3.225596 -43.91304 -200 45 -200 45 -200 45
1978530805.1342 -3.2301638 -43.925869 -200 45 -200 45 -200 45
1979530921.8203 -3.2356536 -43.950485 -200 45 -200 45 -200 45
1980531038.5064 -3.2385914 -43.975964 -200 45 -200 45 -200 45
1981531155.1925 -3.2444894 -44.004021 -200 45 -200 45 -200 45
1982531271.8786 -3.252461 -44.033047 -200 45 -200 45 -200 45
1983531388.5648 -3.2566538 -44.060623 -200 45 -200 45 -200 45
1984531505.2509 -3.2576935 -44.1036 -200 45 -200 45 -200 45
1985531621.937 -3.2631307 -44.150696 -200 45 -200 45 -200 45
1986531738.6231 -3.2642047 -44.186516 -200 45 -200 45 -200 45
1987531855.3092 -3.2680314 -44.249359 -200 45 -200 45 -200 45
1988531971.9953 -3.2708774 -44.282368 -200 45 -200 45 -200 45
1989532088.6814 -3.2747021 -44.343639 -200 45 -200 45 -200 45
1990532205.3676 -3.2777419 -44.40308 -200 45 -200 45 -200 45
1991532322.0537 -3.2807789 -44.474678 -200 45 -200 45 -200 45
1992532438.7398 -3.2844105 -44.510262 -200 45 -200 45 -200 45
1993532555.4259 -3.2840519 -44.582458 -200 45 -200 45 -200 45
1994532672.112 -3.2878528 -44.649937 -200 45 -200 45 -200 45
1995532788.7981 -3.2885947 -44.695812 -200 45 -200 45 -200 45
1996532905.4842 -3.2917829 -44.775444 -200 45 -200 45 -200 45
1997533022.1704 -3.2943401 -44.838234 -200 45 -200 45 -200 45
1998533138.8565 -3.2951627 -44.919781 -200 45 -200 45 -200 45
1999533255.5426 -3.2944927 -44.97559 -200 45 -200 45 -200 45
2000533372.2287 -3.29652 -45.045677 -200 45 -200 45 -200 45
2001533488.9148 -3.2963641 -45.120235 -200 45 -200 45 -200 45
2002533605.6009 -3.2958708 -45.174698 -200 45 -200 45 -200 45
2003533722.287 -3.2945399 -45.24781 -200 45 -200 45 -200 45
2004533838.9732 -3.2923088 -45.327126 -200 45 -200 45 -200 45
2005533955.6593 -3.2911031 -45.381313 -200 45 -200 45 -200 45
2006534072.3454 -3.2883723 -45.440987 -200 45 -200 45 -200 45
2007534189.0315 -3.2906594 -45.490643 -200 45 -200 45 -200 45
2008534305.7176 -3.2883844 -45.556862 -200 45 -200 45 -200 45
2009534422.4037 -3.2857168 -45.601597 -200 45 -200 45 -200 45
2010534539.0898 -3.2862985 -45.658504 -200 45 -200 45 -200 45
2011534655.776 -3.2845516 -45.714825 -200 45 -200 45 -200 45
2012534772.4621 -3.2838075 -45.74831 -200 45 -200 45 -200 45
2013534889.1482 -3.2838151 -45.775803 -200 45 -200 45 -200 45
2014535005.8343 -3.2831335 -45.817562 -200 45 -200 45 -200 45
2015535122.5204 -3.2760921 -45.849403 -200 45 -200 45 -200 45
2016535239.2065 -3.2756429 -45.86998 -200 45 -200 45 -200 45
2017535355.8926 -3.273263 -45.889088 -200 45 -200 45 -200 45
2018535472.5788 -3.2686653 -45.898636 -200 45 -200 45 -200 45
2019535589.2649 -3.2659116 -45.930962 -200 45 -200 45 -200 45
2020535705.951 -3.2598343 -45.94709 -200 45 -200 45 -200 45
2021535822.6371 -3.2579367 -45.952881 -200 45 -200 45 -200 45
2022535939.3232 -3.2520382 -45.961815 -200 45 -200 45 -200 45
2023536056.0093 -3.2484453 -45.980206 -200 45 -200 45 -200 45
2024536172.6954 -3.2443357 -45.989342 -200 45 -200 45 -200 45
2025536289.3816 -3.2403483 -45.974739 -200 45 -200 45 -200 45
2026536406.0677 -3.2373435 -45.976044 -200 45 -200 45 -200 45
2027536522.7538 -3.2356672 -45.976856 -200 45 -200 45 -200 45
2028536639.4399 -3.2341957 -45.959705 -200 45 -200 45 -200 45
2029536756.126 -3.2321284 -45.97353 -200 45 -200 45 -200 45
2030536872.8121 -3.2305772 -45.951836 -200 45 -200 45 -200 45
2031536989.4982 -3.2288401 -45.939079 -200 45 -200 45 -200 45
2032537106.1844 -3.2270706 -45.928722 -200 45 -200 45 -200 45
2033537222.8705 -3.2248087 -45.884052 -200 45 -200 45 -200 45
2034537339.5566 -3.2231979 -45.866074 -200 45 -200 45 -200 45
2035537456.2427 -3.2253461 -45.845268 -200 45 -200 45 -200 45
2036537572.9288 -3.2217333 -45.827606 -200 45 -200 45 -200 45
2037537689.6149 -3.2216485 -45.799995 -200 45 -200 45 -200 45
2038537806.3011 -3.2226026 -45.755405 -200 45 -200 45 -200 45
2039537922.9872 -3.2245209 -45.73312 -200 45 -200 45 -200 45
2040538039.6733 -3.2258005 -45.707825 -200 45 -200 45 -200 45
2041538156.3594 -3.2282429 -45.68359 -200 45 -200 45 -200 45
2042538273.0455 -3.228852 -45.655514 -200 45 -200 45 -200 45
2043538389.7316 -3.2308674 -45.606468 -200 45 -200 45 -200 45
2044538506.4177 -3.2344933 -45.582596 -200 45 -200 45 -200 45
2045538623.1039 -3.2376406 -45.539967 -200 45 -200 45 -200 45
2046538739.79 -3.2437599 -45.504261 -200 45 -200 45 -200 45
2047538856.4761 -3.2443969 -45.4673 -200 45 -200 45 -200 45
2048538973.1622 -3.2463102 -45.443085 -200 45 -200 45 -200 45
2049539089.8483 -3.2512257 -45.426132 -200 45 -200 45 -200 45
2050539206.5344 -3.2555263 -45.392822 -200 45 -200 45 -200 45
2051539323.2205 -3.2577608 -45.387146 -200 45 -200 45 -200 45
2052539439.9067 -3.2618253 -45.35051 -200 45 -200 45 -200 45
2053539556.5928 -3.2664716 -45.349136 -200 45 -200 45 -200 45
2054539673.2789 -3.2691054 -45.325432 -200 45 -200 45 -200 45
2055539789.965 -3.2739434 -45.316788 -200 45 -200 45 -200 45
2056539906.6511 -3.2780502 -45.310822 -200 45 -200 45 -200 45
2057540023.3372 -3.2856698 -45.319992 -200 45 -200 45 -200 45
2058540140.0233 -3.287864 -45.310593 -200 45 -200 45 -200 45
2059540256.7095 -3.2942383 -45.30505 -200 45 -200 45 -200 45
2060540373.3956 -3.3001258 -45.32655 -200 45 -200 45 -200 45
2061540490.0817 -3.3063636 -45.318306 -200 45 -200 45 -200 45
2062540606.7678 -3.311816 -45.348576 -200 45 -200 45 -200 45
2063540723.4539 -3.3180325 -45.360466 -200 45 -200 45 -200 45
2064540840.14 -3.3221014 -45.396107 -200 45 -200 45 -200 45
2065540956.8261 -3.3285925 -45.419128 -200 45 -200 45 -200 45
2066541073.5123 -3.333317 -45.464825 -200 45 -200 45 -200 45
2067541190.1984 -3.3365712 -45.490852 -200 45 -200 45 -200 45
2068541306.8845 -3.3401334 -45.535606 -200 45 -200 45 -200 45
2069541423.5706 -3.3459373 -45.57193 -200 45 -200 45 -200 45
2070541540.2567 -3.3454256 -45.628273 -200 45 -200 45 -200 45
2071541656.9428 -3.3530042 -45.666161 -200 45 -200 45 -200 45
2072541773.6289 -3.3574491 -45.721935 -200 45 -200 45 -200 45
2073541890.3151 -3.3603766 -45.793575 -200 45 -200 45 -200 45
2074542007.0012 -3.3627608 -45.843765 -200 45 -200 45 -200 45
2075542123.6873 -3.3659906 -45.882851 -200 45 -200 45 -200 45
2076542240.3734 -3.3663509 -45.950077 -200 45 -200 45 -200 45
2077542357.0595 -3.3710339 -46.033516 -200 45 -200 45 -200 45
2078542473.7456 -3.3747675 -46.093491 -200 45 -200 45 -200 45
2079542590.4317 -3.377774 -46.160049 -200 45 -200 45 -200 45
2080542707.1179 -3.3792357 -46.240223 -200 45 -200 45 -200 45
2081542823.804 -3.379494 -46.330288 -200 45 -200 45 -200 45
2082542940.4901 -3.3811498 -46.381702 -200 45 -200 45 -200 45
2083543057.1762 -3.3818276 -46.464748 -200 45 -200 45 -200 45
2084543173.8623 -3.3809395 -46.542412 -200 45 -200 45 -200 45
2085543290.5484 -3.3806567 -46.627369 -200 45 -200 45 -200 45
2086543407.2345 -3.3794048 -46.690372 -200 45 -200 45 -200 45
2087543523.9207 -3.3798404 -46.779106 -200 45 -200 45 -200 45
2088543640.6068 -3.3800678 -46.834881 -200 45 -200 45 -200 45
2089543757.2929 -3.3766654 -46.913212 -200 45 -200 45 -200 45
2090543873.979 -3.3770056 -46.974365 -200 45 -200 45 -200 45
2091543990.6651 -3.373945 -47.034317 -200 45 -200 45 -200 45
2092544107.3512 -3.3738334 -47.091095 -200 45 -200 45 -200 45
2093544224.0373 -3.3699634 -47.145405 -200 45 -200 45 -200 45
2094544340.7235 -3.3689973 -47.219093 -200 45 -200 45 -200 45
2095544457.4096 -3.3670862 -47.263752 -200 45 -200 45 -200 45
2096544574.0957 -3.3648589 -47.34166 -200 45 -200 45 -200 45
2097544690.7818 -3.3597572 -47.374855 -200 45 -200 45 -200 45
2098544807.4679 -3.3563673 -47.413124 -200 45 -200 45 -200 45
2099544924.154 -3.354763 -47.460484 -200 45 -200 45 -200 45
2100545040.8401 -3.3506837 -47.497238 -200 45 -200 45 -200 45
2101545157.5263 -3.3484468 -47.550282 -200 45 -200 45 -200 45
2102545274.2124 -3.341383 -47.571136 -200 45 -200 45 -200 45
2103545390.8985 -3.3406115 -47.599926 -200 45 -200 45 -200 45
2104545507.5846 -3.3378038 -47.618534 -200 45 -200 45 -200 45
2105545624.2707 -3.333051 -47.635849 -200 45 -200 45 -200 45
2106545740.9568 -3.329699 -47.641773 -200 45 -200 45 -200 45
2107545857.6429 -3.3272407 -47.646156 -200 45 -200 45 -200 45
2108545974.3291 -3.3226907 -47.645176 -200 45 -200 45 -200 45
2109546091.0152 -3.3217442 -47.643543 -200 45 -200 45 -200 45
2110546207.7013 -3.3201616 -47.658302 -200 45 -200 45 -200 45
2111546324.3874 -3.3164594 -47.638062 -200 45 -200 45 -200 45
2112546441.0735 -3.3128951 -47.628784 -200 45 -200 45 -200 45
2113546557.7596 -3.312638 -47.618214 -200 45 -200 45 -200 45
2114546674.4457 -3.3091383 -47.611771 -200 45 -200 45 -200 45
2115546791.1319 -3.3087037 -47.574047 -200 45 -200 45 -200 45
2116546907.818 -3.305326 -47.546906 -200 45 -200 45 -200 45
2117547024.5041 -3.3037038 -47.522934 -200 45 -200 45 -200 45
2118547141.1902 -3.3030257 -47.495972 -200 45 -200 45 -200 45
2119547257.8763 -3.3031437 -47.466366 -200 45 -200 45 -200 45
2120547374.5624 -3.3017118 -47.424343 -200 45 -200 45 -200 45
2121547491.2485 -3.3018663 -47.399281 -200 45 -200 45 -200 45
2122547607.9347 -3.3007314 -47.364525 -200 45 -200 45 -200 45
2123547724.6208 -3.3017621 -47.31176 -200 45 -200 45 -200 45
2124547841.3069 -3.304579 -47.273075 -200 45 -200 45 -200 45
2125547957.993 -3.3042097 -47.25082 -200 45 -200 45 -200 45
2126548074.6791 -3.3077226 -47.182365 -200 45 -200 45 -200 45
2127548191.3652 -3.3100722 -47.143711 -200 45 -200 45 -200 45
2128548308.0513 -3.3144634 -47.100689 -200 45 -200 45 -200 45
2129548424.7375 -3.3160863 -47.072392 -200 45 -200 45 -200 45
2130548541.4236 -3.3192747 -47.027573 -200 45 -200 45 -200 45
2131548658.1097 -3.3216045 -47.004326 -200 45 -200 45 -200 45
2132548774.7958 -3.3262997 -46.944279 -200 45 -200 45 -200 45
2133548891.4819 -3.3269951 -46.916367 -200 45 -200 45 -200 45
2134549008.168 -3.3335295 -46.888317 -200 45 -200 45 -200 45
2135549124.8541 -3.3345108 -46.842495 -200 45 -200 45 -200 45
2136549241.5403 -3.33953 -46.82869 -200 45 -200 45 -200 45
2137549358.2264 -3.3459027 -46.794655 -200 45 -200 45 -200 45
2138549474.9125 -3.3512392 -46.785763 -200 45 -200 45 -200 45
2139549591.5986 -3.3537891 -46.780659 -200 45 -200 45 -200 45
2140549708.2847 -3.3614202 -46.752186 -200 45 -200 45 -200 45
2141549824.9708 -3.3659489 -46.729328 -200 45 -200 45 -200 45
2142549941.6569 -3.3719351 -46.742958 -200 45 -200 45 -200 45
2143550058.3431 -3.3783083 -46.724377 -200 45 -200 45 -200 45
2144550175.0292 -3.3847158 -46.730297 -200 45 -200 45 -200 45
2145550291.7153 -3.3886375 -46.758095 -200 45 -200 45 -200 45
2146550408.4014 -3.3951473 -46.751236 -200 45 -200 45 -200 45
2147550525.0875 -3.4020107 -46.784985 -200 45 -200 45 -200 45
2148550641.7736 -3.4081452 -46.803917 -200 45 -200 45 -200 45
2149550758.4597 -3.4121928 -46.845695 -200 45 -200 45 -200 45
2150550875.1459 -3.41536 -46.864902 -200 45 -200 45 -200 45
2151550991.832 -3.4233167 -46.886341 -200 45 -200 45 -200 45
2152551108.5181 -3.4267676 -46.923077 -200 45 -200 45 -200 45
2153551225.2042 -3.4327164 -46.963402 -200 45 -200 45 -200 45
2154551341.8903 -3.4394906 -47.028934 -200 45 -200 45 -200 45
2155551458.5764 -3.441715 -47.081871 -200 45 -200 45 -200 45
2156551575.2625 -3.4441335 -47.150963 -200 45 -200 45 -200 45
2157551691.9487 -3.4489012 -47.204254 -200 45 -200 45 -200 45
2158551808.6348 -3.4556842 -47.264431 -200 45 -200 45 -200 45
2159551925.3209 -3.4601514 -47.329586 -200 45 -200 45 -200 45
2160552042.007 -3.464272 -47.409409 -200 45 -200 45 -200 45
2161552158.6931 -3.4641967 -47.463833 -200 45 -200 45 -200 45
2162552275.3792 -3.4662545 -47.544525 -200 45 -200 45 -200 45
2163552392.0653 -3.4717369 -47.646221 -200 45 -200 45 -200 45
2164552508.7515 -3.4731238 -47.706509 -200 45 -200 45 -200 45
2165552625.4376 -3.4743772 -47.798725 -200 45 -200 45 -200 45
2166552742.1237 -3.4746919 -47.880146 -200 45 -200 45 -200 45
2167552858.8098 -3.4775863 -47.959103 -200 45 -200 45 -200 45
2168552975.4959 -3.4760458 -48.032017 -200 45 -200 45 -200 45
2169553092.182 -3.477035 -48.132587 -200 45 -200 45 -200 45
2170553208.8681 -3.4772801 -48.196312 -200 45 -200 45 -200 45
2171553325.5543 -3.4756429 -48.289856 -200 45 -200 45 -200 45
2172553442.2404 -3.4717445 -48.358959 -200 45 -200 45 -200 45
2173553558.9265 -3.4726789 -48.427937 -200 45 -200 45 -200 45
2174553675.6126 -3.4746261 -48.493649 -200 45 -200 45 -200 45
2175553792.2987 -3.4709537 -48.553394 -200 45 -200 45 -200 45
2176553908.9848 -3.4707878 -48.639706 -200 45 -200 45 -200 45
2177554025.6709 -3.4657683 -48.726715 -200 45 -200 45 -200 45
2178554142.3571 -3.462333 -48.763073 -200 45 -200 45 -200 45
2179554259.0432 -3.4616318 -48.845573 -200 45 -200 45 -200 45
2180554375.7293 -3.4588158 -48.907726 -200 45 -200 45 -200 45
2181554492.4154 -3.4556923 -48.949211 -200 45 -200 45 -200 45
2182554609.1015 -3.4488308 -49.008965 -200 45 -200 45 -200 45
2183554725.7876 -3.445821 -49.05397 -200 45 -200 45 -200 45
2184554842.4737 -3.4420784 -49.086277 -200 45 -200 45 -200 45
2185554959.1599 -3.4369628 -49.121288 -200 45 -200 45 -200 45
2186555075.846 -3.4348834 -49.161297 -200 45 -200 45 -200 45
2187555192.5321 -3.4309316 -49.182129 -200 45 -200 45 -200 45
2188555309.2182 -3.4265831 -49.2015 -200 45 -200 45 -200 45
2189555425.9043 -3.4211829 -49.200851 -200 45 -200 45 -200 45
2190555542.5904 -3.4207976 -49.218502 -200 45 -200 45 -200 45
2191555659.2765 -3.4143245 -49.242714 -200 45 -200 45 -200 45
2192555775.9627 -3.414046 -49.251698 -200 45 -200 45 -200 45
2193555892.6488 -3.4095044 -49.225983 -200 45 -200 45 -200 45
2194556009.3349 -3.4063692 -49.227638 -200 45 -200 45 -200 45
2195556126.021 -3.4036937 -49.228027 -200 45 -200 45 -200 45
2196556242.7071 -3.3991809 -49.199211 -200 45 -200 45 -200 45
2197556359.3932 -3.3952384 -49.193771 -200 45 -200 45 -200 45
2198556476.0793 -3.391866 -49.162037 -200 45 -200 45 -200 45
2199556592.7655 -3.3905177 -49.122009 -200 45 -200 45 -200 45
2200556709.4516 -3.3895791 -49.098919 -200 45 -200 45 -200 45
2201556826.1377 -3.3864982 -49.092209 -200 45 -200 45 -200 45
2202556942.8238 -3.3846717 -49.044945 -200 45 -200 45 -200 45
2203557059.5099 -3.3849213 -49.010662 -200 45 -200 45 -200 45
2204557176.196 -3.3842537 -48.954449 -200 45 -200 45 -200 45
2205557292.8821 -3.3841798 -48.910297 -200 45 -200 45 -200 45
2206557409.5683 -3.3856065 -48.878078 -200 45 -200 45 -200 45
2207557526.2544 -3.3872051 -48.827019 -200 45 -200 45 -200 45
2208557642.9405 -3.3873096 -48.788044 -200 45 -200 45 -200 45
2209557759.6266 -3.3887985 -48.738289 -200 45 -200 45 -200 45
2210557876.3127 -3.3909638 -48.700027 -200 45 -200 45 -200 45
2211557992.9988 -3.393162 -48.651917 -200 45 -200 45 -200 45
2212558109.6849 -3.3960626 -48.581787 -200 45 -200 45 -200 45
2213558226.3711 -3.3968415 -48.554676 -200 45 -200 45 -200 45
2214558343.0572 -3.3997645 -48.508583 -200 45 -200 45 -200 45
2215558459.7433 -3.4025476 -48.467388 -200 45 -200 45 -200 45
2216558576.4294 -3.4073999 -48.429859 -200 45 -200 45 -200 45
2217558693.1155 -3.4098485 -48.388821 -200 45 -200 45 -200 45
2218558809.8016 -3.4129386 -48.345703 -200 45 -200 45 -200 45
2219558926.4877 -3.4200881 -48.3298 -200 45 -200 45 -200 45
2220559043.1739 -3.4252567 -48.287029 -200 45 -200 45 -200 45
2221559159.86 -3.4294734 -48.256001 -200 45 -200 45 -200 45
2222559276.5461 -3.4349735 -48.246372 -200 45 -200 45 -200 45
2223559393.2322 -3.4396682 -48.208622 -200 45 -200 45 -200 45
2224559509.9183 -3.4448752 -48.202606 -200 45 -200 45 -200 45
2225559626.6044 -3.454371 -48.191833 -200 45 -200 45 -200 45
2226559743.2905 -3.4608967 -48.185047 -200 45 -200 45 -200 45
2227559859.9767 -3.4637582 -48.186558 -200 45 -200 45 -200 45
2228559976.6628 -3.4716294 -48.17955 -200 45 -200 45 -200 45
2229560093.3489 -3.4779091 -48.198483 -200 45 -200 45 -200 45
2230560210.035 -3.4830124 -48.201111 -200 45 -200 45 -200 45
2231560326.7211 -3.4876087 -48.210861 -200 45 -200 45 -200 45
2232560443.4072 -3.4938211 -48.253609 -200 45 -200 45 -200 45
2233560560.0933 -3.4998562 -48.278255 -200 45 -200 45 -200 45
2234560676.7795 -3.5070422 -48.300163 -200 45 -200 45 -200 45
2235560793.4656 -3.5122833 -48.345383 -200 45 -200 45 -200 45
2236560910.1517 -3.5196943 -48.38644 -200 45 -200 45 -200 45
2237561026.8378 -3.5240068 -48.4389 -200 45 -200 45 -200 45
2238561143.5239 -3.5315437 -48.496292 -200 45 -200 45 -200 45
2239561260.21 -3.5362985 -48.553585 -200 45 -200 45 -200 45
2240561376.8961 -3.5409567 -48.606117 -200 45 -200 45 -200 45
2241561493.5823 -3.545104 -48.669464 -200 45 -200 45 -200 45
2242561610.2684 -3.5503831 -48.739147 -200 45 -200 45 -200 45
2243561726.9545 -3.553432 -48.807796 -200 45 -200 45 -200 45
2244561843.6406 -3.5585651 -48.887222 -200 45 -200 45 -200 45
2245561960.3267 -3.5590613 -48.954586 -200 45 -200 45 -200 45
2246562077.0128 -3.5625355 -49.042824 -200 45 -200 45 -200 45
2247562193.6989 -3.5647771 -49.112034 -200 45 -200 45 -200 45
2248562310.3851 -3.567225 -49.210312 -200 45 -200 45 -200 45
2249562427.0712 -3.5697525 -49.287529 -200 45 -200 45 -200 45
2250562543.7573 -3.5685956 -49.362019 -200 45 -200 45 -200 45
2251562660.4434 -3.5688262 -49.44022 -200 45 -200 45 -200 45
2252562777.1295 -3.5685103 -49.54987 -200 45 -200 45 -200 45
2253562893.8156 -3.5716274 -49.621655 -200 45 -200 45 -200 45
2254563010.5018 -3.5715094 -49.718102 -200 45 -200 45 -200 45
2255563127.1879 -3.5701463 -49.802727 -200 45 -200 45 -200 45
2256563243.874 -3.570935 -49.900459 -200 45 -200 45 -200 45
2257563360.5601 -3.5696588 -49.96423 -200 45 -200 45 -200 45
2258563477.2462 -3.5690193 -50.05719 -200 45 -200 45 -200 45
2259563593.9323 -3.5642586 -50.121159 -200 45 -200 45 -200 45
2260563710.6184 -3.5606823 -50.206024 -200 45 -200 45 -200 45
2261563827.3046 -3.5596094 -50.2584 -200 45 -200 45 -200 45
2262563943.9907 -3.553592 -50.361584 -200 45 -200 45 -200 45
2263564060.6768 -3.5488458 -50.40461 -200 45 -200 45 -200 45
2264564177.3629 -3.5472081 -50.464596 -200 45 -200 45 -200 45
2265564294.049 -3.5422719 -50.522095 -200 45 -200 45 -200 45
2266564410.7351 -3.5384464 -50.563503 -200 45 -200 45 -200 45
2267564527.4212 -3.5366957 -50.629536 -200 45 -200 45 -200 45
2268564644.1074 -3.530582 -50.667572 -200 45 -200 45 -200 45
2269564760.7935 -3.5276036 -50.715458 -200 45 -200 45 -200 45
2270564877.4796 -3.5194848 -50.712231 -200 45 -200 45 -200 45
2271564994.1657 -3.5193903 -50.77586 -200 45 -200 45 -200 45
2272565110.8518 -3.5144005 -50.787071 -200 45 -200 45 -200 45
2273565227.5379 -3.5119588 -50.824268 -200 45 -200 45 -200 45
2274565344.224 -3.5059977 -50.810177 -200 45 -200 45 -200 45
2275565460.9102 -3.5007198 -50.810944 -200 45 -200 45 -200 45
2276565577.5963 -3.5001531 -50.822021 -200 45 -200 45 -200 45
2277565694.2824 -3.4934204 -50.834373 -200 45 -200 45 -200 45
2278565810.9685 -3.4895334 -50.815311 -200 45 -200 45 -200 45
2279565927.6546 -3.484174 -50.803032 -200 45 -200 45 -200 45
2280566044.3407 -3.4807374 -50.76458 -200 45 -200 45 -200 45
2281566161.0268 -3.4773192 -50.741371 -200 45 -200 45 -200 45
2282566277.713 -3.4750974 -50.719826 -200 45 -200 45 -200 45
2283566394.3991 -3.4733007 -50.688732 -200 45 -200 45 -200 45
2284566511.0852 -3.4727125 -50.654053 -200 45 -200 45 -200 45
2285566627.7713 -3.4686437 -50.62698 -200 45 -200 45 -200 45
2286566744.4574 -3.4684021 -50.575966 -200 45 -200 45 -200 45
2287566861.1435 -3.468632 -50.527199 -200 45 -200 45 -200 45
2288566977.8296 -3.4678681 -50.466934 -200 45 -200 45 -200 45
2289567094.5158 -3.4673524 -50.420452 -200 45 -200 45 -200 45
2290567211.2019 -3.4678714 -50.367535 -200 45 -200 45 -200 45
2291567327.888 -3.465919 -50.300533 -200 45 -200 45 -200 45
2292567444.5741 -3.4658649 -50.259102 -200 45 -200 45 -200 45
2293567561.2602 -3.4678135 -50.19521 -200 45 -200 45 -200 45
2294567677.9463 -3.4642375 -50.172611 -200 45 -200 45 -200 45
2295567794.6324 -3.467783 -50.103416 -200 45 -200 45 -200 45
2296567911.3186 -3.4695039 -50.059528 -200 45 -200 45 -200 45
2297568028.0047 -3.47209 -50.007328 -200 45 -200 45 -200 45
2298568144.6908 -3.4759889 -49.952393 -200 45 -200 45 -200 45
2299568261.3769 -3.4802105 -49.915424 -200 45 -200 45 -200 45
2300568378.063 -3.4830027 -49.866573 -200 45 -200 45 -200 45
2301568494.7491 -3.4875 -49.833256 -200 45 -200 45 -200 45
2302568611.4352 -3.4920728 -49.781704 -200 45 -200 45 -200 45
2303568728.1214 -3.4995971 -49.739609 -200 45 -200 45 -200 45
2304568844.8075 -3.5053999 -49.716091 -200 45 -200 45 -200 45
2305568961.4936 -3.5091214 -49.682339 -200 45 -200 45 -200 45
2306569078.1797 -3.517132 -49.665054 -200 45 -200 45 -200 45
2307569194.8658 -3.5193067 -49.641273 -200 45 -200 45 -200 45
2308569311.5519 -3.5261445 -49.607876 -200 45 -200 45 -200 45
2309569428.238 -3.5323091 -49.605927 -200 45 -200 45 -200 45
2310569544.9242 -3.537955 -49.598644 -200 45 -200 45 -200 45
2311569661.6103 -3.5454698 -49.580227 -200 45 -200 45 -200 45
2312569778.2964 -3.5518618 -49.594952 -200 45 -200 45 -200 45
2313569894.9825 -3.5587916 -49.597042 -200 45 -200 45 -200 45
2314570011.6686 -3.563724 -49.620197 -200 45 -200 45 -200 45
2315570128.3547 -3.5719845 -49.630222 -200 45 -200 45 -200 45
2316570245.0408 -3.5800173 -49.670803 -200 45 -200 45 -200 45
2317570361.727 -3.586777 -49.697159 -200 45 -200 45 -200 45
2318570478.4131 -3.5964472 -49.732067 -200 45 -200 45 -200 45
2319570595.0992 -3.6021101 -49.768642 -200 45 -200 45 -200 45
2320570711.7853 -3.6088963 -49.813251 -200 45 -200 45 -200 45
2321570828.4714 -3.6156442 -49.869614 -200 45 -200 45 -200 45
2322570945.1575 -3.620311 -49.927357 -200 45 -200 45 -200 45
2323571061.8436 -3.6279013 -49.986343 -200 45 -200 45 -200 45
2324571178.5298 -3.6303713 -50.035965 -200 45 -200 45 -200 45
2325571295.2159 -3.6377919 -50.123451 -200 45 -200 45 -200 45
2326571411.902 -3.6410427 -50.185841 -200 45 -200 45 -200 45
2327571528.5881 -3.6460767 -50.276642 -200 45 -200 45 -200 45
2328571645.2742 -3.6482489 -50.345047 -200 45 -200 45 -200 45
2329571761.9603 -3.6534584 -50.454163 -200 45 -200 45 -200 45
2330571878.6464 -3.6548748 -50.525673 -200 45 -200 45 -200 45
2331571995.3326 -3.6600902 -50.626942 -200 45 -200 45 -200 45
2332572112.0187 -3.6615906 -50.696377 -200 45 -200 45 -200 45
2333572228.7048 -3.665381 -50.801517 -200 45 -200 45 -200 45
2334572345.3909 -3.664768 -50.874043 -200 45 -200 45 -200 45
2335572462.077 -3.667531 -50.971828 -200 45 -200 45 -200 45
2336572578.7631 -3.6681807 -51.059292 -200 45 -200 45 -200 45
2337572695.4492 -3.6674457 -51.176918 -200 45 -200 45 -200 45
2338572812.1354 -3.668612 -51.266155 -200 45 -200 45 -200 45
2339572928.8215 -3.6682973 -51.353138 -200 45 -200 45 -200 45
2340573045.5076 -3.66641 -51.425991 -200 45 -200 45 -200 45
2341573162.1937 -3.6641548 -51.532719 -200 45 -200 45 -200 45
2342573278.8798 -3.6631365 -51.614849 -200 45 -200 45 -200 45
2343573395.5659 -3.6582038 -51.702072 -200 45 -200 45 -200 45
2344573512.252 -3.653753 -51.779926 -200 45 -200 45 -200 45
2345573628.9382 -3.6528409 -51.86628 -200 45 -200 45 -200 45
2346573745.6243 -3.6486108 -51.913792 -200 45 -200 45 -200 45
2347573862.3104 -3.6445475 -52.010021 -200 45 -200 45 -200 45
2348573978.9965 -3.6404166 -52.055733 -200 45 -200 45 -200 45
2349574095.6826 -3.63445 -52.117702 -200 45 -200 45 -200 45
2350574212.3687 -3.6344607 -52.183323 -200 45 -200 45 -200 45
2351574329.0548 -3.6276541 -52.233284 -200 45 -200 45 -200 45
2352574445.741 -3.6239321 -52.26218 -200 45 -200 45 -200 45
2353574562.4271 -3.6198902 -52.302177 -200 45 -200 45 -200 45
2354574679.1132 -3.6130576 -52.339794 -200 45 -200 45 -200 45
2355574795.7993 -3.609077 -52.364071 -200 45 -200 45 -200 45
2356574912.4854 -3.6031835 -52.380863 -200 45 -200 45 -200 45
2357575029.1715 -3.601651 -52.4067 -200 45 -200 45 -200 45
2358575145.8576 -3.5946896 -52.407909 -200 45 -200 45 -200 45
2359575262.5438 -3.5892403 -52.4221 -200 45 -200 45 -200 45
2360575379.2299 -3.5852592 -52.407917 -200 45 -200 45 -200 45
2361575495.916 -3.5782816 -52.405487 -200 45 -200 45 -200 45
2362575612.6021 -3.5740721 -52.403103 -200 45 -200 45 -200 45
2363575729.2882 -3.5712154 -52.389099 -200 45 -200 45 -200 45
2364575845.9743 -3.5663428 -52.366478 -200 45 -200 45 -200 45
2365575962.6604 -3.5641127 -52.332848 -200 45 -200 45 -200 45
2366576079.3466 -3.5613778 -52.290775 -200 45 -200 45 -200 45
2367576196.0327 -3.5584743 -52.26976 -200 45 -200 45 -200 45
2368576312.7188 -3.5571671 -52.215988 -200 45 -200 45 -200 45
2369576429.4049 -3.5546911 -52.172482 -200 45 -200 45 -200 45
2370576546.091 -3.5505445 -52.122406 -200 45 -200 45 -200 45
2371576662.7771 -3.5509701 -52.067467 -200 45 -200 45 -200 45
2372576779.4632 -3.550595 -52.037132 -200 45 -200 45 -200 45
2373576896.1494 -3.5487299 -51.97253 -200 45 -200 45 -200 45
2374577012.8355 -3.5480731 -51.928402 -200 45 -200 45 -200 45
2375577129.5216 -3.5493872 -51.864353 -200 45 -200 45 -200 45
2376577246.2077 -3.5502608 -51.808449 -200 45 -200 45 -200 45
2377577362.8938 -3.5491781 -51.754051 -200 45 -200 45 -200 45
2378577479.5799 -3.5517986 -51.684639 -200 45 -200 45 -200 45
2379577596.266 -3.5530605 -51.624249 -200 45 -200 45 -200 45
2380577712.9522 -3.5581546 -51.570755 -200 45 -200 45 -200 45
2381577829.6383 -3.5606711 -51.513592 -200 45 -200 45 -200 45
2382577946.3244 -3.5637002 -51.469002 -200 45 -200 45 -200 45
2383578063.0105 -3.5696607 -51.407925 -200 45 -200 45 -200 45
2384578179.6966 -3.5729973 -51.377735 -200 45 -200 45 -200 45
2385578296.3827 -3.57781 -51.313984 -200 45 -200 45 -200 45
2386578413.0688 -3.5823624 -51.26239 -200 45 -200 45 -200 45
2387578529.755 -3.5882657 -51.219944 -200 45 -200 45 -200 45
2388578646.4411 -3.5911958 -51.181549 -200 45 -200 45 -200 45
2389578763.1272 -3.6014802 -51.158726 -200 45 -200 45 -200 45
2390578879.8133 -3.6043487 -51.125652 -200 45 -200 45 -200 45
2391578996.4994 -3.6124153 -51.11171 -200 45 -200 45 -200 45
2392579113.1855 -3.6177886 -51.08437 -200 45 -200 45 -200 45
2393579229.8716 -3.6256716 -51.076092 -200 45 -200 45 -200 45
2394579346.5578 -3.6329458 -51.072647 -200 45 -200 45 -200 45
2395579463.2439 -3.6425185 -51.061596 -200 45 -200 45 -200 45
2396579579.93 -3.6483641 -51.06134 -200 45 -200 45 -200 45
2397579696.6161 -3.6574008 -51.077839 -200 45 -200 45 -200 45
2398579813.3022 -3.6629646 -51.090488 -200 45 -200 45 -200 45
2399579929.9883 -3.6726263 -51.114559 -200 45 -200 45 -200 45
2400580046.6744 -3.6819551 -51.139603 -200 45 -200 45 -200 45
2401580163.3606 -3.6869769 -51.173756 -200 45 -200 45 -200 45
2402580280.0467 -3.6961198 -51.205933 -200 45 -200 45 -200 45
2403580396.7328 -3.7042964 -51.238956 -200 45 -200 45 -200 45
2404580513.4189 -3.7113364 -51.288597 -200 45 -200 45 -200 45
2405580630.105 -3.7182331 -51.352245 -200 45 -200 45 -200 45
2406580746.7911 -3.7237818 -51.41729 -200 45 -200 45 -200 45
2407580863.4772 -3.7281528 -51.484245 -200 45 -200 45 -200 45
2408580980.1634 -3.7362714 -51.540478 -200 45 -200 45 -200 45
2409581096.8495 -3.7374687 -51.632721 -200 45 -200 45 -200 45
2410581213.5356 -3.7460828 -51.712303 -200 45 -200 45 -200 45
2411581330.2217 -3.7518597 -51.789639 -200 45 -200 45 -200 45
2412581446.9078 -3.7565129 -51.883423 -200 45 -200 45 -200 45
2413581563.5939 -3.7628031 -51.944294 -200 45 -200 45 -200 45
2414581680.28 -3.7641702 -52.053596 -200 45 -200 45 -200 45
2415581796.9662 -3.7687151 -52.143147 -200 45 -200 45 -200 45
2416581913.6523 -3.7727165 -52.236454 -200 45 -200 45 -200 45
2417582030.3384 -3.7739894 -52.362434 -200 45 -200 45 -200 45
2418582147.0245 -3.7763457 -52.451836 -200 45 -200 45 -200 45
2419582263.7106 -3.7769001 -52.548439 -200 45 -200 45 -200 45
2420582380.3967 -3.7772133 -52.655983 -200 45 -200 45 -200 45
2421582497.0828 -3.7803442 -52.751156 -200 45 -200 45 -200 45
2422582613.769 -3.7763326 -52.841877 -200 45 -200 45 -200 45
2423582730.4551 -3.7780664 -52.968441 -200 45 -200 45 -200 45
2424582847.1412 -3.7742295 -53.053783 -200 45 -200 45 -200 45
2425582963.8273 -3.7728229 -53.144104 -200 45 -200 45 -200 45
2426583080.5134 -3.771703 -53.240429 -200 45 -200 45 -200 45
2427583197.1995 -3.7682407 -53.310226 -200 45 -200 45 -200 45
2428583313.8856 -3.7656016 -53.413692 -200 45 -200 45 -200 45
2429583430.5718 -3.7605357 -53.485699 -200 45 -200 45 -200 45
2430583547.2579 -3.7591648 -53.550545 -200 45 -200 45 -200 45
2431583663.944 -3.7568715 -53.640053 -200 45 -200 45 -200 45
2432583780.6301 -3.7530208 -53.712208 -200 45 -200 45 -200 45
2433583897.3162 -3.7482023 -53.738567 -200 45 -200 45 -200 45
2434584014.0023 -3.7422342 -53.793785 -200 45 -200 45 -200 45
2435584130.6884 -3.736465 -53.861294 -200 45 -200 45 -200 45
2436584247.3746 -3.7315483 -53.906548 -200 45 -200 45 -200 45
2437584364.0607 -3.7267027 -53.959396 -200 45 -200 45 -200 45
2438584480.7468 -3.7222056 -53.989841 -200 45 -200 45 -200 45
2439584597.4329 -3.7163732 -54.010582 -200 45 -200 45 -200 45
2440584714.119 -3.7110524 -54.040497 -200 45 -200 45 -200 45
2441584830.8051 -3.7059801 -54.054672 -200 45 -200 45 -200 45
2442584947.4912 -3.6999154 -54.056492 -200 45 -200 45 -200 45
2443585064.1774 -3.6943111 -54.06522 -200 45 -200 45 -200 45
2444585180.8635 -3.6883421 -54.046513 -200 45 -200 45 -200 45
2445585297.5496 -3.6861432 -54.024559 -200 45 -200 45 -200 45
2446585414.2357 -3.6816938 -54.030827 -200 45 -200 45 -200 45
2447585530.9218 -3.6750364 -54.001133 -200 45 -200 45 -200 45
2448585647.6079 -3.674958 -53.964706 -200 45 -200 45 -200 45
2449585764.294 -3.6694062 -53.929558 -200 45 -200 45 -200 45
2450585880.9802 -3.6682751 -53.906841 -200 45 -200 45 -200 45
2451585997.6663 -3.6667261 -53.861732 -200 45 -200 45 -200 45
2452586114.3524 -3.6613348 -53.818295 -200 45 -200 45 -200 45
2453586231.0385 -3.6606398 -53.767002 -200 45 -200 45 -200 45
2454586347.7246 -3.6587956 -53.710506 -200 45 -200 45 -200 45
2455586464.4107 -3.6583931 -53.660477 -200 45 -200 45 -200 45
2456586581.0968 -3.6582525 -53.593704 -200 45 -200 45 -200 45
2457586697.783 -3.6564527 -53.533989 -200 45 -200 45 -200 45
2458586814.4691 -3.6565149 -53.489861 -200 45 -200 45 -200 45
2459586931.1552 -3.659766 -53.422646 -200 45 -200 45 -200 45
2460587047.8413 -3.6600976 -53.361408 -200 45 -200 45 -200 45
2461587164.5274 -3.662935 -53.290024 -200 45 -200 45 -200 45
2462587281.2135 -3.6669223 -53.202457 -200 45 -200 45 -200 45
2463587397.8997 -3.6701117 -53.162689 -200 45 -200 45 -200 45
2464587514.5858 -3.6741664 -53.073254 -200 45 -200 45 -200 45
2465587631.2719 -3.6765499 -53.008919 -200 45 -200 45 -200 45
2466587747.958 -3.6836414 -52.95879 -200 45 -200 45 -200 45
2467587864.6441 -3.6883986 -52.891705 -200 45 -200 45 -200 45
2468587981.3302 -3.6937752 -52.843277 -200 45 -200 45 -200 45
2469588098.0163 -3.6988621 -52.783195 -200 45 -200 45 -200 45
2470588214.7025 -3.7096164 -52.743244 -200 45 -200 45 -200 45
2471588331.3886 -3.7163615 -52.686497 -200 45 -200 45 -200 45
2472588448.0747 -3.7214823 -52.66423 -200 45 -200 45 -200 45
2473588564.7608 -3.7289152 -52.613838 -200 45 -200 45 -200 45
2474588681.4469 -3.7384133 -52.584679 -200 45 -200 45 -200 45
2475588798.133 -3.7443202 -52.55666 -200 45 -200 45 -200 45
2476588914.8191 -3.7539728 -52.538616 -200 45 -200 45 -200 45
2477589031.5053 -3.7632926 -52.515339 -200 45 -200 45 -200 45
2478589148.1914 -3.7738788 -52.508568 -200 45 -200 45 -200 45
2479589264.8775 -3.7824547 -52.509499 -200 45 -200 45 -200 45
2480589381.5636 -3.7931869 -52.509163 -200 45 -200 45 -200 45
2481589498.2497 -3.8038132 -52.517094 -200 45 -200 45 -200 45
2482589614.9358 -3.8150625 -52.531467 -200 45 -200 45 -200 45
2483589731.6219 -3.8249128 -52.554104 -200 45 -200 45 -200 45
2484589848.3081 -3.8307478 -52.582436 -200 45 -200 45 -200 45
2485589964.9942 -3.8463087 -52.627342 -200 45 -200 45 -200 45
2486590081.6803 -3.8556538 -52.68095 -200 45 -200 45 -200 45
2487590198.3664 -3.8626201 -52.703144 -200 45 -200 45 -200 45
2488590315.0525 -3.874506 -52.772846 -200 45 -200 45 -200 45
2489590431.7386 -3.8816812 -52.838081 -200 45 -200 45 -200 45
2490590548.4247 -3.8923252 -52.896542 -200 45 -200 45 -200 45
2491590665.1109 -3.9023643 -52.964394 -200 45 -200 45 -200 45
2492590781.797 -3.9091802 -53.05035 -200 45 -200 45 -200 45
2493590898.4831 -3.9171431 -53.150799 -200 45 -200 45 -200 45
2494591015.1692 -3.9298427 -53.233288 -200 45 -200 45 -200 45
2495591131.8553 -3.9350874 -53.315475 -200 45 -200 45 -200 45
2496591248.5414 -3.9439251 -53.430721 -200 45 -200 45 -200 45
2497591365.2275 -3.9508419 -53.52121 -200 45 -200 45 -200 45
2498591481.9137 -3.958338 -53.632465 -200 45 -200 45 -200 45
2499591598.5998 -3.9644194 -53.739902 -200 45 -200 45 -200 45
2500591715.2859 -3.9717963 -53.83765 -200 45 -200 45 -200 45
2501591831.972 -3.977133 -53.94516 -200 45 -200 45 -200 45
2502591948.6581 -3.982105 -54.06826 -200 45 -200 45 -200 45
2503592065.3442 -3.987258 -54.180168 -200 45 -200 45 -200 45
2504592182.0303 -3.9922793 -54.297375 -200 45 -200 45 -200 45
2505592298.7165 -3.995667 -54.400707 -200 45 -200 45 -200 45
2506592415.4026 -3.999651 -54.523853 -200 45 -200 45 -200 45
2507592532.0887 -4.0056019 -54.639229 -200 45 -200 45 -200 45
2508592648.7748 -4.0066895 -54.747002 -200 45 -200 45 -200 45
2509592765.4609 -4.0098329 -54.834366 -200 45 -200 45 -200 45
2510592882.147 -4.0163155 -54.947399 -200 45 -200 45 -200 45
2511592998.8331 -4.0188394 -55.058273 -200 45 -200 45 -200 45
2512593115.5193 -4.0181308 -55.124493 -200 45 -200 45 -200 45
2513593232.2054 -4.022018 -55.21011 -200 45 -200 45 -200 45
2514593348.8915 -4.0236721 -55.32449 -200 45 -200 45 -200 45
2515593465.5776 -4.0249882 -55.378685 -200 45 -200 45 -200 45
2516593582.2637 -4.0306473 -55.470604 -200 45 -200 45 -200 45
2517593698.9498 -4.0314817 -55.520947 -200 45 -200 45 -200 45
2518593815.6359 -4.0337696 -55.597454 -200 45 -200 45 -200 45
2519593932.3221 -4.041399 -55.639378 -200 45 -200 45 -200 45
2520594049.0082 -4.0448213 -55.69442 -200 45 -200 45 -200 45
2521594165.6943 -4.0479002 -55.736042 -200 45 -200 45 -200 45
2522594282.3804 -4.0575151 -55.770008 -200 45 -200 45 -200 45
2523594399.0665 -4.0641475 -55.788902 -200 45 -200 45 -200 45
2524594515.7526 -4.0727487 -55.797485 -200 45 -200 45 -200 45
2525594632.4387 -4.0841784 -55.811394 -200 45 -200 45 -200 45
2526594749.1249 -4.0998645 -55.808128 -200 45 -200 45 -200 45
2527594865.811 -4.1164088 -55.79488 -200 45 -200 45 -200 45
2528594982.4971 -4.1371603 -55.741486 -200 45 -200 45 -200 45
2529595099.1832 -4.1578779 -55.706848 -200 45 -200 45 -200 45
2530595215.8693 -4.1842785 -55.651169 -200 45 -200 45 -200 45
2531595332.5554 -4.2165155 -55.578541 -200 45 -200 45 -200 45
2532595449.2415 -4.2573752 -55.451839 -200 45 -200 45 -200 45
2533595565.9277 -4.3062873 -55.260975 -200 45 -200 45 -200 45
2534595682.6138 -4.3605275 -55.007488 -200 45 -200 45 -200 45
2535595799.2999 -4.4233174 -54.641758 -200 45 -200 45 -200 45
2536595915.986 -4.4915638 -54.091106 -200 45 -200 45 -200 45
2537596032.6721 -4.5578423 -53.290779 -200 45 -200 45 -200 45
2538596149.3582 -4.5895696 -52.288429 -200 45 -200 45 -200 45
2539596266.0443 -4.5752192 -51.104847 -200 45 -200 45 -200 45
2540596382.7305 -4.505743 -49.956539 -200 45 -200 45 -200 45
2541596499.4166 -4.3979344 -48.987091 -200 45 -200 45 -200 45
2542596616.1027 -4.2468162 -48.191463 -200 45 -200 45 -200 45
2543596732.7888 -4.0718255 -47.780468 -200 45 -200 45 -200 45
2544596849.4749 -3.9065256 -47.799603 -200 45 -200 45 -200 45
2545596966.161 -3.7821052 -48.047131 -200 45 -200 45 -200 45
2546597082.8471 -3.6850219 -48.397293 -200 45 -200 45 -200 45
2547597199.5333 -3.6242874 -48.764931 -200 45 -200 45 -200 45
2548597316.2194 -3.5841799 -49.08403 -200 45 -200 45 -200 45
2549597432.9055 -3.5580413 -49.331558 -200 45 -200 45 -200 45
2550597549.5916 -3.5339956 -49.518982 -200 45 -200 45 -200 45
2551597666.2777 -3.508826 -49.708374 -200 45 -200 45 -200 45
2552597782.9638 -3.4934711 -49.940453 -200 45 -200 45 -200 45
2553597899.6499 -3.4825263 -50.155293 -200 45 -200 45 -200 45
2554598016.3361 -3.4829898 -50.333004 -200 45 -200 45 -200 45
2555598133.0222 -3.4850037 -50.48679 -200 45 -200 45 -200 45
2556598249.7083 -3.4992659 -50.618385 -200 45 -200 45 -200 45
2557598366.3944 -3.5078416 -50.681282 -200 45 -200 45 -200 45
2558598483.0805 -3.5184975 -50.717316 -200 45 -200 45 -200 45
2559598599.7666 -3.5215986 -50.756405 -200 45 -200 45 -200 45
2560598716.4527 -3.5228028 -50.832542 -200 45 -200 45 -200 45
2561598833.1389 -3.531497 -50.896175 -200 45 -200 45 -200 45
2562598949.825 -3.542253 -50.926228 -200 45 -200 45 -200 45
2563599066.5111 -3.5490866 -50.926472 -200 45 -200 45 -200 45
2564599183.1972 -3.5483036 -50.892025 -200 45 -200 45 -200 45
2565599299.8833 -3.533617 -50.901485 -200 45 -200 45 -200 45
2566599416.5694 -3.5159509 -51.003204 -200 45 -200 45 -200 45
2567599533.2555 -3.5040426 -51.161346 -200 45 -200 45 -200 45
2568599649.9417 -3.4945881 -51.336857 -200 45 -200 45 -200 45
2569599766.6278 -3.4956391 -51.564983 -200 45 -200 45 -200 45
2570599883.3139 -3.4998164 -51.787106 -200 45 -200 45 -200 45
2571600000 -3.5094225 -52.011986 -200 45 -200 45 -200 45
2572600116.6861 -3.5250342 -52.217529 -200 45 -200 45 -200 45
2573600233.3722 -3.5408776 -52.391914 -200 45 -200 45 -200 45
2574600350.0583 -3.5547507 -52.567822 -200 45 -200 45 -200 45
2575600466.7445 -3.5706639 -52.710155 -200 45 -200 45 -200 45
2576600583.4306 -3.5863853 -52.86721 -200 45 -200 45 -200 45
2577600700.1167 -3.5988727 -53.014893 -200 45 -200 45 -200 45
2578600816.8028 -3.6178706 -53.161339 -200 45 -200 45 -200 45
2579600933.4889 -3.6249094 -53.29155 -200 45 -200 45 -200 45
2580601050.175 -3.6375456 -53.43993 -200 45 -200 45 -200 45
2581601166.8611 -3.6461411 -53.567482 -200 45 -200 45 -200 45
2582601283.5473 -3.6556742 -53.709461 -200 45 -200 45 -200 45
2583601400.2334 -3.66081 -53.847485 -200 45 -200 45 -200 45
2584601516.9195 -3.6672933 -54.005878 -200 45 -200 45 -200 45
2585601633.6056 -3.6762259 -54.139801 -200 45 -200 45 -200 45
2586601750.2917 -3.6780748 -54.276913 -200 45 -200 45 -200 45
2587601866.9778 -3.6844504 -54.430241 -200 45 -200 45 -200 45
2588601983.6639 -3.6900787 -54.56028 -200 45 -200 45 -200 45
2589602100.3501 -3.6913655 -54.688114 -200 45 -200 45 -200 45
2590602217.0362 -3.6972706 -54.8428 -200 45 -200 45 -200 45
2591602333.7223 -3.6984115 -54.976746 -200 45 -200 45 -200 45
2592602450.4084 -3.6999362 -55.08704 -200 45 -200 45 -200 45
2593602567.0945 -3.7019238 -55.223099 -200 45 -200 45 -200 45
2594602683.7806 -3.7050598 -55.345608 -200 45 -200 45 -200 45
2595602800.4667 -3.704695 -55.428032 -200 45 -200 45 -200 45
2596602917.1529 -3.7023871 -55.558929 -200 45 -200 45 -200 45
2597603033.839 -3.70012 -55.659897 -200 45 -200 45 -200 45
2598603150.5251 -3.6961615 -55.741707 -200 45 -200 45 -200 45
2599603267.2112 -3.6941097 -55.858509 -200 45 -200 45 -200 45
2600603383.8973 -3.6905127 -55.938328 -200 45 -200 45 -200 45
2601603500.5834 -3.6872492 -56.008724 -200 45 -200 45 -200 45
2602603617.2695 -3.6851473 -56.096191 -200 45 -200 45 -200 45
2603603733.9557 -3.680002 -56.15044 -200 45 -200 45 -200 45
2604603850.6418 -3.6758931 -56.225636 -200 45 -200 45 -200 45
2605603967.3279 -3.6719062 -56.282047 -200 45 -200 45 -200 45
2606604084.014 -3.6650283 -56.323551 -200 45 -200 45 -200 45
2607604200.7001 -3.6617012 -56.349483 -200 45 -200 45 -200 45
2608604317.3862 -3.6599183 -56.399853 -200 45 -200 45 -200 45
2609604434.0723 -3.6535802 -56.417873 -200 45 -200 45 -200 45
2610604550.7585 -3.6456974 -56.42305 -200 45 -200 45 -200 45
2611604667.4446 -3.6420481 -56.432777 -200 45 -200 45 -200 45
2612604784.1307 -3.6402657 -56.431496 -200 45 -200 45 -200 45
2613604900.8168 -3.6350222 -56.443069 -200 45 -200 45 -200 45
2614605017.5029 -3.6287334 -56.425278 -200 45 -200 45 -200 45
2615605134.189 -3.6249909 -56.416443 -200 45 -200 45 -200 45
2616605250.8751 -3.6201332 -56.382767 -200 45 -200 45 -200 45
2617605367.5613 -3.6187942 -56.358662 -200 45 -200 45 -200 45
2618605484.2474 -3.6140406 -56.331524 -200 45 -200 45 -200 45
2619605600.9335 -3.6120324 -56.283169 -200 45 -200 45 -200 45
2620605717.6196 -3.6109331 -56.239483 -200 45 -200 45 -200 45
2621605834.3057 -3.6065969 -56.194901 -200 45 -200 45 -200 45
2622605950.9918 -3.6058021 -56.123344 -200 45 -200 45 -200 45
2623606067.6779 -3.6058187 -56.082634 -200 45 -200 45 -200 45
2624606184.3641 -3.6053905 -56.025299 -200 45 -200 45 -200 45
2625606301.0502 -3.6065323 -55.960312 -200 45 -200 45 -200 45
2626606417.7363 -3.6090307 -55.899063 -200 45 -200 45 -200 45
2627606534.4224 -3.6099715 -55.836258 -200 45 -200 45 -200 45
2628606651.1085 -3.6096077 -55.766842 -200 45 -200 45 -200 45
2629606767.7946 -3.611577 -55.684887 -200 45 -200 45 -200 45
2630606884.4807 -3.6171663 -55.622898 -200 45 -200 45 -200 45
2631607001.1669 -3.6169906 -55.566444 -200 45 -200 45 -200 45
2632607117.853 -3.6209288 -55.48848 -200 45 -200 45 -200 45
2633607234.5391 -3.6258285 -55.420151 -200 45 -200 45 -200 45
2634607351.2252 -3.6327863 -55.363483 -200 45 -200 45 -200 45
2635607467.9113 -3.6359754 -55.304939 -200 45 -200 45 -200 45
2636607584.5974 -3.6423106 -55.25515 -200 45 -200 45 -200 45
2637607701.2835 -3.6477208 -55.190693 -200 45 -200 45 -200 45
2638607817.9697 -3.6552286 -55.123741 -200 45 -200 45 -200 45
2639607934.6558 -3.6630757 -55.081657 -200 45 -200 45 -200 45
2640608051.3419 -3.6722367 -55.040081 -200 45 -200 45 -200 45
2641608168.028 -3.6778848 -55.003971 -200 45 -200 45 -200 45
2642608284.7141 -3.6873677 -54.98114 -200 45 -200 45 -200 45
2643608401.4002 -3.6988325 -54.95583 -200 45 -200 45 -200 45
2644608518.0863 -3.7098532 -54.916451 -200 45 -200 45 -200 45
2645608634.7725 -3.7159638 -54.902252 -200 45 -200 45 -200 45
2646608751.4586 -3.72753 -54.893494 -200 45 -200 45 -200 45
2647608868.1447 -3.7340617 -54.919159 -200 45 -200 45 -200 45
2648608984.8308 -3.741462 -54.915691 -200 45 -200 45 -200 45
2649609101.5169 -3.7520275 -54.92474 -200 45 -200 45 -200 45
2650609218.203 -3.7627027 -54.947006 -200 45 -200 45 -200 45
2651609334.8891 -3.7747202 -54.974506 -200 45 -200 45 -200 45
2652609451.5753 -3.7857106 -54.984962 -200 45 -200 45 -200 45
2653609568.2614 -3.7959089 -55.049416 -200 45 -200 45 -200 45
2654609684.9475 -3.8066943 -55.099659 -200 45 -200 45 -200 45
2655609801.6336 -3.8151524 -55.13871 -200 45 -200 45 -200 45
2656609918.3197 -3.8245623 -55.203331 -200 45 -200 45 -200 45
2657610035.0058 -3.8333712 -55.273979 -200 45 -200 45 -200 45
2658610151.6919 -3.845294 -55.33815 -200 45 -200 45 -200 45
2659610268.3781 -3.8536942 -55.418022 -200 45 -200 45 -200 45
2660610385.0642 -3.8597248 -55.522816 -200 45 -200 45 -200 45
2661610501.7503 -3.8696339 -55.615055 -200 45 -200 45 -200 45
2662610618.4364 -3.8778329 -55.692791 -200 45 -200 45 -200 45
2663610735.1225 -3.8825393 -55.786213 -200 45 -200 45 -200 45
2664610851.8086 -3.8892074 -55.896671 -200 45 -200 45 -200 45
2665610968.4947 -3.8948848 -56.00367 -200 45 -200 45 -200 45
2666611085.1809 -3.8998811 -56.112877 -200 45 -200 45 -200 45
2667611201.867 -3.9053376 -56.209763 -200 45 -200 45 -200 45
2668611318.5531 -3.9124925 -56.321865 -200 45 -200 45 -200 45
2669611435.2392 -3.9149857 -56.445763 -200 45 -200 45 -200 45
2670611551.9253 -3.9218078 -56.569424 -200 45 -200 45 -200 45
2671611668.6114 -3.9242322 -56.667377 -200 45 -200 45 -200 45
2672611785.2975 -3.9302294 -56.76133 -200 45 -200 45 -200 45
2673611901.9837 -3.9279482 -56.870903 -200 45 -200 45 -200 45
2674612018.6698 -3.9336982 -56.990444 -200 45 -200 45 -200 45
2675612135.3559 -3.9335766 -57.068451 -200 45 -200 45 -200 45
2676612252.042 -3.9370263 -57.170021 -200 45 -200 45 -200 45
2677612368.7281 -3.9311557 -57.22134 -200 45 -200 45 -200 45
2678612485.4142 -3.9295816 -57.289177 -200 45 -200 45 -200 45
2679612602.1004 -3.9217739 -57.368626 -200 45 -200 45 -200 45
2680612718.7865 -3.9137049 -57.426613 -200 45 -200 45 -200 45
2681612835.4726 -3.9067912 -57.515816 -200 45 -200 45 -200 45
2682612952.1587 -3.8994505 -57.61544 -200 45 -200 45 -200 45
2683613068.8448 -3.8924789 -57.676277 -200 45 -200 45 -200 45
2684613185.5309 -3.8873239 -57.734375 -200 45 -200 45 -200 45
2685613302.217 -3.8787675 -57.814957 -200 45 -200 45 -200 45
2686613418.9032 -3.8714008 -57.879093 -200 45 -200 45 -200 45
2687613535.5893 -3.8616798 -57.936016 -200 45 -200 45 -200 45
2688613652.2754 -3.8589416 -57.995621 -200 45 -200 45 -200 45
2689613768.9615 -3.8477914 -58.028339 -200 45 -200 45 -200 45
2690613885.6476 -3.8440692 -58.035625 -200 45 -200 45 -200 45
2691614002.3337 -3.8375986 -58.070965 -200 45 -200 45 -200 45
2692614119.0198 -3.8296301 -58.093937 -200 45 -200 45 -200 45
2693614235.706 -3.8193355 -58.100101 -200 45 -200 45 -200 45
2694614352.3921 -3.8139591 -58.108608 -200 45 -200 45 -200 45
2695614469.0782 -3.8052413 -58.111912 -200 45 -200 45 -200 45
2696614585.7643 -3.7988257 -58.110607 -200 45 -200 45 -200 45
2697614702.4504 -3.7933707 -58.115826 -200 45 -200 45 -200 45
2698614819.1365 -3.7854731 -58.074947 -200 45 -200 45 -200 45
2699614935.8226 -3.7831957 -58.075836 -200 45 -200 45 -200 45
2700615052.5088 -3.7772071 -58.046116 -200 45 -200 45 -200 45
2701615169.1949 -3.7790356 -58.034302 -200 45 -200 45 -200 45
2702615285.881 -3.7754025 -57.996758 -200 45 -200 45 -200 45
2703615402.5671 -3.7769027 -57.922684 -200 45 -200 45 -200 45
2704615519.2532 -3.775439 -57.876942 -200 45 -200 45 -200 45
2705615635.9393 -3.7773633 -57.800674 -200 45 -200 45 -200 45
2706615752.6254 -3.7773397 -57.731445 -200 45 -200 45 -200 45
2707615869.3116 -3.776453 -57.65696 -200 45 -200 45 -200 45
2708615985.9977 -3.7801607 -57.584709 -200 45 -200 45 -200 45
2709616102.6838 -3.7827206 -57.518875 -200 45 -200 45 -200 45
2710616219.3699 -3.7855146 -57.451317 -200 45 -200 45 -200 45
2711616336.056 -3.792527 -57.385025 -200 45 -200 45 -200 45
2712616452.7421 -3.8030696 -57.31226 -200 45 -200 45 -200 45
2713616569.4282 -3.81375 -57.214813 -200 45 -200 45 -200 45
2714616686.1144 -3.8285239 -57.110775 -200 45 -200 45 -200 45
2715616802.8005 -3.8451409 -56.980835 -200 45 -200 45 -200 45
2716616919.4866 -3.8610063 -56.818779 -200 45 -200 45 -200 45
2717617036.1727 -3.8794229 -56.643185 -200 45 -200 45 -200 45
2718617152.8588 -3.8957183 -56.405315 -200 45 -200 45 -200 45
2719617269.5449 -3.900326 -56.159092 -200 45 -200 45 -200 45
2720617386.231 -3.9001398 -55.891769 -200 45 -200 45 -200 45
2721617502.9172 -3.890867 -55.658985 -200 45 -200 45 -200 45
2722617619.6033 -3.8793635 -55.488182 -200 45 -200 45 -200 45
2723617736.2894 -3.8630099 -55.331852 -200 45 -200 45 -200 45
2724617852.9755 -3.8477199 -55.225384 -200 45 -200 45 -200 45
2725617969.6616 -3.8331075 -55.153614 -200 45 -200 45 -200 45
2726618086.3477 -3.8209078 -55.106136 -200 45 -200 45 -200 45
2727618203.0338 -3.8105204 -55.126911 -200 45 -200 45 -200 45
2728618319.72 -3.8024213 -55.123211 -200 45 -200 45 -200 45
2729618436.4061 -3.7960157 -55.151176 -200 45 -200 45 -200 45
2730618553.0922 -3.7929916 -55.166672 -200 45 -200 45 -200 45
2731618669.7783 -3.7920423 -55.199051 -200 45 -200 45 -200 45
2732618786.4644 -3.7923689 -55.245819 -200 45 -200 45 -200 45
2733618903.1505 -3.7884107 -55.326145 -200 45 -200 45 -200 45
2734619019.8366 -3.7892067 -55.392002 -200 45 -200 45 -200 45
2735619136.5228 -3.792423 -55.489803 -200 45 -200 45 -200 45
2736619253.2089 -3.797219 -55.598251 -200 45 -200 45 -200 45
2737619369.895 -3.8055897 -55.698299 -200 45 -200 45 -200 45
2738619486.5811 -3.8128643 -55.800804 -200 45 -200 45 -200 45
2739619603.2672 -3.8233123 -55.911026 -200 45 -200 45 -200 45
2740619719.9533 -3.8309023 -56.015167 -200 45 -200 45 -200 45
2741619836.6394 -3.8404851 -56.129192 -200 45 -200 45 -200 45
2742619953.3256 -3.8472786 -56.222725 -200 45 -200 45 -200 45
2743620070.0117 -3.8538876 -56.349072 -200 45 -200 45 -200 45
2744620186.6978 -3.8633332 -56.454193 -200 45 -200 45 -200 45
2745620303.3839 -3.8678696 -56.605316 -200 45 -200 45 -200 45
2746620420.07 -3.8771284 -56.735752 -200 45 -200 45 -200 45
2747620536.7561 -3.8816814 -56.877514 -200 45 -200 45 -200 45
2748620653.4422 -3.8920341 -57.008286 -200 45 -200 45 -200 45
2749620770.1284 -3.8992791 -57.134193 -200 45 -200 45 -200 45
2750620886.8145 -3.9043546 -57.244865 -200 45 -200 45 -200 45
2751621003.5006 -3.9140077 -57.394211 -200 45 -200 45 -200 45
2752621120.1867 -3.9188306 -57.528423 -200 45 -200 45 -200 45
2753621236.8728 -3.9213316 -57.647076 -200 45 -200 45 -200 45
2754621353.5589 -3.9242346 -57.777122 -200 45 -200 45 -200 45
2755621470.245 -3.9289551 -57.902897 -200 45 -200 45 -200 45
2756621586.9312 -3.9294181 -58.029266 -200 45 -200 45 -200 45
2757621703.6173 -3.928381 -58.138325 -200 45 -200 45 -200 45
2758621820.3034 -3.9330564 -58.28286 -200 45 -200 45 -200 45
2759621936.9895 -3.9271588 -58.399872 -200 45 -200 45 -200 45
2760622053.6756 -3.9281774 -58.517776 -200 45 -200 45 -200 45
2761622170.3617 -3.9236851 -58.631355 -200 45 -200 45 -200 45
2762622287.0478 -3.9235866 -58.750851 -200 45 -200 45 -200 45
2763622403.734 -3.9195051 -58.829514 -200 45 -200 45 -200 45
2764622520.4201 -3.9163456 -58.925369 -200 45 -200 45 -200 45
2765622637.1062 -3.9137316 -59.045845 -200 45 -200 45 -200 45
2766622753.7923 -3.9060671 -59.116142 -200 45 -200 45 -200 45
2767622870.4784 -3.9017513 -59.219215 -200 45 -200 45 -200 45
2768622987.1645 -3.8958049 -59.282272 -200 45 -200 45 -200 45
2769623103.8506 -3.8925297 -59.348389 -200 45 -200 45 -200 45
2770623220.5368 -3.8863471 -59.428925 -200 45 -200 45 -200 45
2771623337.2229 -3.8769956 -59.484138 -200 45 -200 45 -200 45
2772623453.909 -3.8714769 -59.532898 -200 45 -200 45 -200 45
2773623570.5951 -3.8634989 -59.562202 -200 45 -200 45 -200 45
2774623687.2812 -3.8597808 -59.594624 -200 45 -200 45 -200 45
2775623803.9673 -3.8492665 -59.608681 -200 45 -200 45 -200 45
2776623920.6534 -3.8412209 -59.645153 -200 45 -200 45 -200 45
2777624037.3396 -3.8351984 -59.654572 -200 45 -200 45 -200 45
2778624154.0257 -3.8276784 -59.658657 -200 45 -200 45 -200 45
2779624270.7118 -3.8215714 -59.643967 -200 45 -200 45 -200 45
2780624387.3979 -3.8165355 -59.651173 -200 45 -200 45 -200 45
2781624504.084 -3.807898 -59.61528 -200 45 -200 45 -200 45
2782624620.7701 -3.8049939 -59.587894 -200 45 -200 45 -200 45
2783624737.4562 -3.7981081 -59.566906 -200 45 -200 45 -200 45
2784624854.1424 -3.7948017 -59.526432 -200 45 -200 45 -200 45
2785624970.8285 -3.7874181 -59.482861 -200 45 -200 45 -200 45
2786625087.5146 -3.783922 -59.430031 -200 45 -200 45 -200 45
2787625204.2007 -3.7803471 -59.376598 -200 45 -200 45 -200 45
2788625320.8868 -3.7788799 -59.316227 -200 45 -200 45 -200 45
2789625437.5729 -3.7740297 -59.251934 -200 45 -200 45 -200 45
2790625554.259 -3.7717228 -59.178623 -200 45 -200 45 -200 45
2791625670.9452 -3.7686455 -59.129501 -200 45 -200 45 -200 45
2792625787.6313 -3.7671397 -59.051868 -200 45 -200 45 -200 45
2793625904.3174 -3.7640247 -58.978733 -200 45 -200 45 -200 45
2794626021.0035 -3.7655661 -58.883156 -200 45 -200 45 -200 45
2795626137.6896 -3.7646813 -58.822628 -200 45 -200 45 -200 45
2796626254.3757 -3.7675731 -58.741608 -200 45 -200 45 -200 45
2797626371.0618 -3.7724082 -58.653423 -200 45 -200 45 -200 45
2798626487.748 -3.7734244 -58.575012 -200 45 -200 45 -200 45
2799626604.4341 -3.7772713 -58.487629 -200 45 -200 45 -200 45
2800626721.1202 -3.7804363 -58.433853 -200 45 -200 45 -200 45
2801626837.8063 -3.7875905 -58.337116 -200 45 -200 45 -200 45
2802626954.4924 -3.7908471 -58.26038 -200 45 -200 45 -200 45
2803627071.1785 -3.7959008 -58.180241 -200 45 -200 45 -200 45
2804627187.8646 -3.8007395 -58.147743 -200 45 -200 45 -200 45
2805627304.5508 -3.8069654 -58.069557 -200 45 -200 45 -200 45
2806627421.2369 -3.8165119 -58.013737 -200 45 -200 45 -200 45
2807627537.923 -3.8199499 -57.949245 -200 45 -200 45 -200 45
2808627654.6091 -3.8307104 -57.914383 -200 45 -200 45 -200 45
2809627771.2952 -3.8358457 -57.858799 -200 45 -200 45 -200 45
2810627887.9813 -3.8474367 -57.809998 -200 45 -200 45 -200 45
2811628004.6674 -3.8555923 -57.781857 -200 45 -200 45 -200 45
2812628121.3536 -3.8642769 -57.751846 -200 45 -200 45 -200 45
2813628238.0397 -3.8741188 -57.744717 -200 45 -200 45 -200 45
2814628354.7258 -3.8840723 -57.755638 -200 45 -200 45 -200 45
2815628471.4119 -3.8946853 -57.738609 -200 45 -200 45 -200 45
2816628588.098 -3.905066 -57.721821 -200 45 -200 45 -200 45
2817628704.7841 -3.9157515 -57.753048 -200 45 -200 45 -200 45
2818628821.4702 -3.9265258 -57.76009 -200 45 -200 45 -200 45
2819628938.1564 -3.9372478 -57.803967 -200 45 -200 45 -200 45
2820629054.8425 -3.9449234 -57.834881 -200 45 -200 45 -200 45
2821629171.5286 -3.9548752 -57.883888 -200 45 -200 45 -200 45
2822629288.2147 -3.9636524 -57.925457 -200 45 -200 45 -200 45
2823629404.9008 -3.9718549 -57.995022 -200 45 -200 45 -200 45
2824629521.5869 -3.9815741 -58.037605 -200 45 -200 45 -200 45
2825629638.273 -3.9909601 -58.120861 -200 45 -200 45 -200 45
2826629754.9592 -4.0016065 -58.194824 -200 45 -200 45 -200 45
2827629871.6453 -4.0069752 -58.28611 -200 45 -200 45 -200 45
2828629988.3314 -4.0146141 -58.379513 -200 45 -200 45 -200 45
2829630105.0175 -4.0202703 -58.455833 -200 45 -200 45 -200 45
2830630221.7036 -4.0320177 -58.573803 -200 45 -200 45 -200 45
2831630338.3897 -4.036623 -58.667789 -200 45 -200 45 -200 45
2832630455.0758 -4.0413294 -58.76458 -200 45 -200 45 -200 45
2833630571.762 -4.0465307 -58.898621 -200 45 -200 45 -200 45
2834630688.4481 -4.0465045 -59.015354 -200 45 -200 45 -200 45
2835630805.1342 -4.0508761 -59.131981 -200 45 -200 45 -200 45
2836630921.8203 -4.0555673 -59.225487 -200 45 -200 45 -200 45
2837631038.5064 -4.0550632 -59.357117 -200 45 -200 45 -200 45
2838631155.1925 -4.0559578 -59.484924 -200 45 -200 45 -200 45
2839631271.8786 -4.0560918 -59.585293 -200 45 -200 45 -200 45
2840631388.5648 -4.057693 -59.728836 -200 45 -200 45 -200 45
2841631505.2509 -4.0551305 -59.856186 -200 45 -200 45 -200 45
2842631621.937 -4.054863 -59.966808 -200 45 -200 45 -200 45
2843631738.6231 -4.0544443 -60.0951 -200 45 -200 45 -200 45
2844631855.3092 -4.049552 -60.193523 -200 45 -200 45 -200 45
2845631971.9953 -4.0460205 -60.317249 -200 45 -200 45 -200 45
2846632088.6814 -4.0408602 -60.402409 -200 45 -200 45 -200 45
2847632205.3676 -4.0376129 -60.513626 -200 45 -200 45 -200 45
2848632322.0537 -4.032217 -60.617786 -200 45 -200 45 -200 45
2849632438.7398 -4.0248122 -60.69862 -200 45 -200 45 -200 45
2850632555.4259 -4.022265 -60.773064 -200 45 -200 45 -200 45
2851632672.112 -4.012753 -60.882298 -200 45 -200 45 -200 45
2852632788.7981 -4.0069246 -60.940651 -200 45 -200 45 -200 45
2853632905.4842 -4.0000024 -61.002087 -200 45 -200 45 -200 45
2854633022.1704 -3.9910357 -61.078621 -200 45 -200 45 -200 45
2855633138.8565 -3.9822199 -61.122818 -200 45 -200 45 -200 45
2856633255.5426 -3.9726887 -61.167164 -200 45 -200 45 -200 45
2857633372.2287 -3.9666588 -61.170261 -200 45 -200 45 -200 45
2858633488.9148 -3.9586945 -61.214478 -200 45 -200 45 -200 45
2859633605.6009 -3.9503026 -61.268791 -200 45 -200 45 -200 45
2860633722.287 -3.9449141 -61.237606 -200 45 -200 45 -200 45
2861633838.9732 -3.9361954 -61.266026 -200 45 -200 45 -200 45
2862633955.6593 -3.9270816 -61.262749 -200 45 -200 45 -200 45
2863634072.3454 -3.9192903 -61.252842 -200 45 -200 45 -200 45
2864634189.0315 -3.9150274 -61.243069 -200 45 -200 45 -200 45
2865634305.7176 -3.9054763 -61.208359 -200 45 -200 45 -200 45
2866634422.4037 -3.897929 -61.183552 -200 45 -200 45 -200 45
2867634539.0898 -3.8950245 -61.138767 -200 45 -200 45 -200 45
2868634655.776 -3.8879902 -61.11298 -200 45 -200 45 -200 45
2869634772.4621 -3.881537 -61.054344 -200 45 -200 45 -200 45
2870634889.1482 -3.8746674 -60.984364 -200 45 -200 45 -200 45
2871635005.8343 -3.871551 -60.932446 -200 45 -200 45 -200 45
2872635122.5204 -3.8687651 -60.866356 -200 45 -200 45 -200 45
2873635239.2065 -3.8650036 -60.819134 -200 45 -200 45 -200 45
2874635355.8926 -3.8615885 -60.748844 -200 45 -200 45 -200 45
2875635472.5788 -3.8622067 -60.67115 -200 45 -200 45 -200 45
2876635589.2649 -3.8617544 -60.565502 -200 45 -200 45 -200 45
2877635705.951 -3.8602982 -60.498421 -200 45 -200 45 -200 45
2878635822.6371 -3.8595955 -60.4081 -200 45 -200 45 -200 45
2879635939.3232 -3.8619623 -60.32576 -200 45 -200 45 -200 45
2880636056.0093 -3.8677316 -60.249851 -200 45 -200 45 -200 45
2881636172.6954 -3.8661802 -60.167282 -200 45 -200 45 -200 45
2882636289.3816 -3.8684731 -60.067299 -200 45 -200 45 -200 45
2883636406.0677 -3.8719723 -60.007187 -200 45 -200 45 -200 45
2884636522.7538 -3.8753197 -59.93008 -200 45 -200 45 -200 45
2885636639.4399 -3.8805778 -59.837486 -200 45 -200 45 -200 45
2886636756.126 -3.8860481 -59.770592 -200 45 -200 45 -200 45
2887636872.8121 -3.8922217 -59.692261 -200 45 -200 45 -200 45
2888636989.4983 -3.8976114 -59.595375 -200 45 -200 45 -200 45
2889637106.1844 -3.9039032 -59.542351 -200 45 -200 45 -200 45
2890637222.8705 -3.9126601 -59.481743 -200 45 -200 45 -200 45
2891637339.5566 -3.9217649 -59.429825 -200 45 -200 45 -200 45
2892637456.2427 -3.9301083 -59.380005 -200 45 -200 45 -200 45
2893637572.9288 -3.939569 -59.326908 -200 45 -200 45 -200 45
2894637689.6149 -3.9487801 -59.281971 -200 45 -200 45 -200 45
2895637806.3011 -3.9596713 -59.262825 -200 45 -200 45 -200 45
2896637922.9872 -3.9715276 -59.227104 -200 45 -200 45 -200 45
2897638039.6733 -3.9796779 -59.211861 -200 45 -200 45 -200 45
2898638156.3594 -3.9910536 -59.180462 -200 45 -200 45 -200 45
2899638273.0455 -3.9987767 -59.198235 -200 45 -200 45 -200 45
2900638389.7316 -4.0122395 -59.206547 -200 45 -200 45 -200 45
2901638506.4177 -4.0227041 -59.217392 -200 45 -200 45 -200 45
2902638623.1039 -4.034071 -59.229237 -200 45 -200 45 -200 45
2903638739.79 -4.0451298 -59.244015 -200 45 -200 45 -200 45
2904638856.4761 -4.0559731 -59.28878 -200 45 -200 45 -200 45
2905638973.1622 -4.0669203 -59.345192 -200 45 -200 45 -200 45
2906639089.8483 -4.0752487 -59.401577 -200 45 -200 45 -200 45
2907639206.5344 -4.0863242 -59.450813 -200 45 -200 45 -200 45
2908639323.2205 -4.0989094 -59.513672 -200 45 -200 45 -200 45
2909639439.9067 -4.1060276 -59.586338 -200 45 -200 45 -200 45
2910639556.5928 -4.118629 -59.666225 -200 45 -200 45 -200 45
2911639673.2789 -4.1299629 -59.752068 -200 45 -200 45 -200 45
2912639789.965 -4.1336184 -59.846939 -200 45 -200 45 -200 45
2913639906.6511 -4.1444726 -59.945927 -200 45 -200 45 -200 45
2914640023.3372 -4.1516647 -60.052265 -200 45 -200 45 -200 45
2915640140.0233 -4.157197 -60.151966 -200 45 -200 45 -200 45
2916640256.7095 -4.1619525 -60.267918 -200 45 -200 45 -200 45
2917640373.3956 -4.1674299 -60.383202 -200 45 -200 45 -200 45
2918640490.0817 -4.1724586 -60.477905 -200 45 -200 45 -200 45
2919640606.7678 -4.1785889 -60.627499 -200 45 -200 45 -200 45
2920640723.4539 -4.1776528 -60.758194 -200 45 -200 45 -200 45
2921640840.14 -4.1820841 -60.88105 -200 45 -200 45 -200 45
2922640956.8261 -4.1818461 -60.984097 -200 45 -200 45 -200 45
2923641073.5123 -4.1812692 -61.122696 -200 45 -200 45 -200 45
2924641190.1984 -4.1850848 -61.260365 -200 45 -200 45 -200 45
2925641306.8845 -4.1844611 -61.396004 -200 45 -200 45 -200 45
2926641423.5706 -4.1803641 -61.499592 -200 45 -200 45 -200 45
2927641540.2567 -4.1817994 -61.605747 -200 45 -200 45 -200 45
2928641656.9428 -4.1794276 -61.731846 -200 45 -200 45 -200 45
2929641773.6289 -4.1775417 -61.835819 -200 45 -200 45 -200 45
2930641890.3151 -4.1723423 -61.956249 -200 45 -200 45 -200 45
2931642007.0012 -4.1684561 -62.05677 -200 45 -200 45 -200 45
2932642123.6873 -4.165123 -62.163021 -200 45 -200 45 -200 45
2933642240.3734 -4.1573453 -62.257774 -200 45 -200 45 -200 45
2934642357.0595 -4.1514363 -62.347157 -200 45 -200 45 -200 45
2935642473.7456 -4.144681 -62.444153 -200 45 -200 45 -200 45
2936642590.4317 -4.1403465 -62.505966 -200 45 -200 45 -200 45
2937642707.1179 -4.1336827 -62.588509 -200 45 -200 45 -200 45
2938642823.804 -4.1265178 -62.641838 -200 45 -200 45 -200 45
2939642940.4901 -4.1197791 -62.701313 -200 45 -200 45 -200 45
2940643057.1762 -4.1115518 -62.755695 -200 45 -200 45 -200 45
2941643173.8623 -4.1039739 -62.777924 -200 45 -200 45 -200 45
2942643290.5484 -4.1010504 -62.811962 -200 45 -200 45 -200 45
2943643407.2345 -4.0933423 -62.839386 -200 45 -200 45 -200 45
2944643523.9207 -4.0854535 -62.849293 -200 45 -200 45 -200 45
2945643640.6068 -4.0799007 -62.853252 -200 45 -200 45 -200 45
2946643757.2929 -4.0724673 -62.866707 -200 45 -200 45 -200 45
2947643873.979 -4.0673327 -62.852516 -200 45 -200 45 -200 45
2948643990.6651 -4.0615258 -62.838528 -200 45 -200 45 -200 45
2949644107.3512 -4.056098 -62.802975 -200 45 -200 45 -200 45
2950644224.0373 -4.0490422 -62.771091 -200 45 -200 45 -200 45
2951644340.7235 -4.0452991 -62.751389 -200 45 -200 45 -200 45
2952644457.4096 -4.0422578 -62.71175 -200 45 -200 45 -200 45
2953644574.0957 -4.0380783 -62.655151 -200 45 -200 45 -200 45
2954644690.7818 -4.0351648 -62.609695 -200 45 -200 45 -200 45
2955644807.4679 -4.0377593 -62.528278 -200 45 -200 45 -200 45
2956644924.154 -4.0317497 -62.463181 -200 45 -200 45 -200 45
2957645040.8401 -4.0349083 -62.402412 -200 45 -200 45 -200 45
2958645157.5263 -4.0340652 -62.313667 -200 45 -200 45 -200 45
2959645274.2124 -4.0332775 -62.243397 -200 45 -200 45 -200 45
2960645390.8985 -4.0356693 -62.1749 -200 45 -200 45 -200 45
2961645507.5846 -4.0390654 -62.074127 -200 45 -200 45 -200 45
2962645624.2707 -4.0386591 -61.997101 -200 45 -200 45 -200 45
2963645740.9568 -4.044096 -61.913841 -200 45 -200 45 -200 45
2964645857.6429 -4.0476747 -61.848656 -200 45 -200 45 -200 45
2965645974.3291 -4.0550432 -61.730431 -200 45 -200 45 -200 45
2966646091.0152 -4.0581317 -61.671459 -200 45 -200 45 -200 45
2967646207.7013 -4.0693412 -61.571484 -200 45 -200 45 -200 45
2968646324.3874 -4.0764985 -61.512165 -200 45 -200 45 -200 45
2969646441.0735 -4.0903859 -61.43219 -200 45 -200 45 -200 45
2970646557.7596 -4.097549 -61.34671 -200 45 -200 45 -200 45
2971646674.4457 -4.1143451 -61.287712 -200 45 -200 45 -200 45
2972646791.1319 -4.1267204 -61.220863 -200 45 -200 45 -200 45
2973646907.818 -4.143743 -61.151947 -200 45 -200 45 -200 45
2974647024.5041 -4.1575718 -61.078579 -200 45 -200 45 -200 45
2975647141.1902 -4.1793761 -61.010849 -200 45 -200 45 -200 45
2976647257.8763 -4.1951385 -60.973972 -200 45 -200 45 -200 45
2977647374.5624 -4.217093 -60.900719 -200 45 -200 45 -200 45
2978647491.2485 -4.2379866 -60.864037 -200 45 -200 45 -200 45
2979647607.9347 -4.2630076 -60.807316 -200 45 -200 45 -200 45
2980647724.6208 -4.2839136 -60.772591 -200 45 -200 45 -200 45
2981647841.3069 -4.3103518 -60.714855 -200 45 -200 45 -200 45
2982647957.993 -4.3366838 -60.684299 -200 45 -200 45 -200 45
2983648074.6791 -4.3648067 -60.667713 -200 45 -200 45 -200 45
2984648191.3652 -4.3968787 -60.636482 -200 45 -200 45 -200 45
2985648308.0513 -4.4312468 -60.598724 -200 45 -200 45 -200 45
2986648424.7375 -4.4693933 -60.538036 -200 45 -200 45 -200 45
2987648541.4236 -4.5147753 -60.485519 -200 45 -200 45 -200 45
2988648658.1097 -4.5594707 -60.374981 -200 45 -200 45 -200 45
2989648774.7958 -4.6095181 -60.201744 -200 45 -200 45 -200 45
2990648891.4819 -4.6589465 -59.976078 -200 45 -200 45 -200 45
2991649008.168 -4.6967359 -59.665821 -200 45 -200 45 -200 45
2992649124.8541 -4.725791 -59.290283 -200 45 -200 45 -200 45
2993649241.5403 -4.7354741 -58.870789 -200 45 -200 45 -200 45
2994649358.2264 -4.7357116 -58.498631 -200 45 -200 45 -200 45
2995649474.9125 -4.7211356 -58.149513 -200 45 -200 45 -200 45
2996649591.5986 -4.6952591 -57.817059 -200 45 -200 45 -200 45
2997649708.2847 -4.6562881 -57.513111 -200 45 -200 45 -200 45
2998649824.9708 -4.6068087 -57.298512 -200 45 -200 45 -200 45
2999649941.6569 -4.5444736 -57.152157 -200 45 -200 45 -200 45
3000650058.3431 -4.4735374 -57.131294 -200 45 -200 45 -200 45
3001650175.0292 -4.4093442 -57.241985 -200 45 -200 45 -200 45
3002650291.7153 -4.3536649 -57.432766 -200 45 -200 45 -200 45
3003650408.4014 -4.3079052 -57.686295 -200 45 -200 45 -200 45
3004650525.0875 -4.270206 -57.958351 -200 45 -200 45 -200 45
3005650641.7736 -4.2413077 -58.237766 -200 45 -200 45 -200 45
3006650758.4597 -4.2201915 -58.500675 -200 45 -200 45 -200 45
3007650875.1459 -4.1965942 -58.761253 -200 45 -200 45 -200 45
3008650991.832 -4.1799273 -59.020752 -200 45 -200 45 -200 45
3009651108.5181 -4.1673388 -59.26329 -200 45 -200 45 -200 45
3010651225.2042 -4.1542225 -59.504971 -200 45 -200 45 -200 45
3011651341.8903 -4.1485286 -59.689476 -200 45 -200 45 -200 45
3012651458.5764 -4.1356936 -59.863789 -200 45 -200 45 -200 45
3013651575.2625 -4.1271358 -59.999981 -200 45 -200 45 -200 45
3014651691.9487 -4.1106782 -60.114819 -200 45 -200 45 -200 45
3015651808.6348 -4.0884614 -60.219593 -200 45 -200 45 -200 45
3016651925.3209 -4.0674901 -60.328884 -200 45 -200 45 -200 45
3017652042.007 -4.0448971 -60.456055 -200 45 -200 45 -200 45
3018652158.6931 -4.0167594 -60.5919 -200 45 -200 45 -200 45
3019652275.3792 -3.9931309 -60.733032 -200 45 -200 45 -200 45
3020652392.0653 -3.9661899 -60.881596 -200 45 -200 45 -200 45
3021652508.7515 -3.9418602 -61.03619 -200 45 -200 45 -200 45
3022652625.4376 -3.916527 -61.183353 -200 45 -200 45 -200 45
3023652742.1237 -3.8969412 -61.348057 -200 45 -200 45 -200 45
3024652858.8098 -3.8743491 -61.522785 -200 45 -200 45 -200 45
3025652975.4959 -3.8555853 -61.714119 -200 45 -200 45 -200 45
3026653092.182 -3.8370111 -61.873215 -200 45 -200 45 -200 45
3027653208.8681 -3.8234901 -62.034184 -200 45 -200 45 -200 45
3028653325.5543 -3.8142002 -62.175091 -200 45 -200 45 -200 45
3029653442.2404 -3.8039384 -62.313755 -200 45 -200 45 -200 45
3030653558.9265 -3.7960362 -62.409851 -200 45 -200 45 -200 45
3031653675.6126 -3.7912169 -62.506458 -200 45 -200 45 -200 45
3032653792.2987 -3.7898149 -62.585808 -200 45 -200 45 -200 45
3033653908.9848 -3.7844472 -62.657089 -200 45 -200 45 -200 45
3034654025.6709 -3.783083 -62.671829 -200 45 -200 45 -200 45
3035654142.3571 -3.7798882 -62.705467 -200 45 -200 45 -200 45
3036654259.0432 -3.7762797 -62.707115 -200 45 -200 45 -200 45
3037654375.7293 -3.7754321 -62.708008 -200 45 -200 45 -200 45
3038654492.4154 -3.774137 -62.717842 -200 45 -200 45 -200 45
3039654609.1015 -3.7750642 -62.693104 -200 45 -200 45 -200 45
3040654725.7876 -3.7734799 -62.684322 -200 45 -200 45 -200 45
3041654842.4737 -3.7720561 -62.650169 -200 45 -200 45 -200 45
3042654959.1599 -3.7741697 -62.601643 -200 45 -200 45 -200 45
3043655075.846 -3.7752509 -62.576153 -200 45 -200 45 -200 45
3044655192.5321 -3.7776408 -62.525444 -200 45 -200 45 -200 45
3045655309.2182 -3.7783229 -62.489086 -200 45 -200 45 -200 45
3046655425.9043 -3.7830088 -62.439194 -200 45 -200 45 -200 45
3047655542.5904 -3.7853262 -62.370304 -200 45 -200 45 -200 45
3048655659.2765 -3.7900786 -62.31414 -200 45 -200 45 -200 45
3049655775.9627 -3.7948947 -62.269119 -200 45 -200 45 -200 45
3050655892.6488 -3.803937 -62.196941 -200 45 -200 45 -200 45
3051656009.3349 -3.8057671 -62.119396 -200 45 -200 45 -200 45
3052656126.021 -3.8149304 -62.057014 -200 45 -200 45 -200 45
3053656242.7071 -3.8218062 -61.996738 -200 45 -200 45 -200 45
3054656359.3932 -3.8314764 -61.950123 -200 45 -200 45 -200 45
3055656476.0793 -3.8392131 -61.897968 -200 45 -200 45 -200 45
3056656592.7655 -3.8481324 -61.825096 -200 45 -200 45 -200 45
3057656709.4516 -3.8593907 -61.776009 -200 45 -200 45 -200 45
3058656826.1377 -3.8672614 -61.732712 -200 45 -200 45 -200 45
3059656942.8238 -3.8742034 -61.676849 -200 45 -200 45 -200 45
3060657059.5099 -3.8887789 -61.648113 -200 45 -200 45 -200 45
3061657176.196 -3.9002042 -61.603764 -200 45 -200 45 -200 45
3062657292.8821 -3.9088199 -61.588467 -200 45 -200 45 -200 45
3063657409.5683 -3.9215639 -61.540367 -200 45 -200 45 -200 45
3064657526.2544 -3.9335282 -61.527054 -200 45 -200 45 -200 45
3065657642.9405 -3.9445152 -61.528893 -200 45 -200 45 -200 45
3066657759.6266 -3.9574316 -61.519466 -200 45 -200 45 -200 45
3067657876.3127 -3.968466 -61.530933 -200 45 -200 45 -200 45
3068657992.9988 -3.9821994 -61.545792 -200 45 -200 45 -200 45
3069658109.6849 -3.9933558 -61.564232 -200 45 -200 45 -200 45
3070658226.3711 -4.008163 -61.59848 -200 45 -200 45 -200 45
3071658343.0572 -4.0215321 -61.623463 -200 45 -200 45 -200 45
3072658459.7433 -4.0315952 -61.656868 -200 45 -200 45 -200 45
3073658576.4294 -4.0472631 -61.720207 -200 45 -200 45 -200 45
3074658693.1155 -4.0586205 -61.771404 -200 45 -200 45 -200 45
3075658809.8016 -4.0696282 -61.857601 -200 45 -200 45 -200 45
3076658926.4877 -4.0780454 -61.921753 -200 45 -200 45 -200 45
3077659043.1739 -4.0908761 -61.97942 -200 45 -200 45 -200 45
3078659159.86 -4.0986624 -62.082706 -200 45 -200 45 -200 45
3079659276.5461 -4.1080465 -62.171383 -200 45 -200 45 -200 45
3080659393.2322 -4.1207924 -62.262146 -200 45 -200 45 -200 45
3081659509.9183 -4.1272998 -62.375172 -200 45 -200 45 -200 45
3082659626.6044 -4.1345258 -62.472584 -200 45 -200 45 -200 45
3083659743.2905 -4.140758 -62.600021 -200 45 -200 45 -200 45
3084659859.9767 -4.1497459 -62.719128 -200 45 -200 45 -200 45
3085659976.6628 -4.1499562 -62.819504 -200 45 -200 45 -200 45
3086660093.3489 -4.159997 -62.933773 -200 45 -200 45 -200 45
3087660210.035 -4.1658587 -63.069695 -200 45 -200 45 -200 45
3088660326.7211 -4.1658726 -63.202137 -200 45 -200 45 -200 45
3089660443.4072 -4.1686273 -63.331139 -200 45 -200 45 -200 45
3090660560.0933 -4.1700859 -63.465099 -200 45 -200 45 -200 45
3091660676.7795 -4.1729364 -63.584518 -200 45 -200 45 -200 45
3092660793.4656 -4.1732349 -63.708645 -200 45 -200 45 -200 45
3093660910.1517 -4.1704507 -63.814289 -200 45 -200 45 -200 45
3094661026.8378 -4.1727219 -63.956856 -200 45 -200 45 -200 45
3095661143.5239 -4.1655202 -64.09063 -200 45 -200 45 -200 45
3096661260.21 -4.1634593 -64.207954 -200 45 -200 45 -200 45
3097661376.8961 -4.1605358 -64.315773 -200 45 -200 45 -200 45
3098661493.5823 -4.1566892 -64.433952 -200 45 -200 45 -200 45
3099661610.2684 -4.151701 -64.52729 -200 45 -200 45 -200 45
3100661726.9545 -4.1463838 -64.635338 -200 45 -200 45 -200 45
3101661843.6406 -4.1415901 -64.738983 -200 45 -200 45 -200 45
3102661960.3267 -4.1388197 -64.8172 -200 45 -200 45 -200 45
3103662077.0128 -4.1314583 -64.883835 -200 45 -200 45 -200 45
3104662193.6989 -4.1231842 -64.957336 -200 45 -200 45 -200 45
3105662310.3851 -4.1170702 -65.03273 -200 45 -200 45 -200 45
3106662427.0712 -4.1083636 -65.080505 -200 45 -200 45 -200 45
3107662543.7573 -4.1006279 -65.153221 -200 45 -200 45 -200 45
3108662660.4434 -4.0933456 -65.185661 -200 45 -200 45 -200 45
3109662777.1295 -4.08321 -65.231552 -200 45 -200 45 -200 45
3110662893.8156 -4.077549 -65.248909 -200 45 -200 45 -200 45
3111663010.5018 -4.0673656 -65.263741 -200 45 -200 45 -200 45
3112663127.1879 -4.0593119 -65.295662 -200 45 -200 45 -200 45
3113663243.874 -4.051609 -65.289352 -200 45 -200 45 -200 45
3114663360.5601 -4.0466933 -65.284355 -200 45 -200 45 -200 45
3115663477.2462 -4.0392189 -65.266006 -200 45 -200 45 -200 45
3116663593.9323 -4.0299711 -65.259239 -200 45 -200 45 -200 45
3117663710.6184 -4.0244613 -65.240608 -200 45 -200 45 -200 45
3118663827.3046 -4.019465 -65.18779 -200 45 -200 45 -200 45
3119663943.9907 -4.0145698 -65.16188 -200 45 -200 45 -200 45
3120664060.6768 -4.0104618 -65.114441 -200 45 -200 45 -200 45
3121664177.3629 -4.0054975 -65.056808 -200 45 -200 45 -200 45
3122664294.049 -3.9995396 -64.993538 -200 45 -200 45 -200 45
3123664410.7351 -3.9957709 -64.94857 -200 45 -200 45 -200 45
3124664527.4212 -3.9922945 -64.874985 -200 45 -200 45 -200 45
3125664644.1074 -3.9886234 -64.80529 -200 45 -200 45 -200 45
3126664760.7935 -3.9883106 -64.735695 -200 45 -200 45 -200 45
3127664877.4796 -3.9871893 -64.652145 -200 45 -200 45 -200 45
3128664994.1657 -3.9866829 -64.574104 -200 45 -200 45 -200 45
3129665110.8518 -3.9866278 -64.486786 -200 45 -200 45 -200 45
3130665227.5379 -3.9890156 -64.409241 -200 45 -200 45 -200 45
3131665344.224 -3.9911463 -64.303986 -200 45 -200 45 -200 45
3132665460.9102 -3.9944274 -64.243828 -200 45 -200 45 -200 45
3133665577.5963 -3.9976332 -64.158775 -200 45 -200 45 -200 45
3134665694.2824 -4.0034332 -64.070976 -200 45 -200 45 -200 45
3135665810.9685 -4.0091305 -63.964748 -200 45 -200 45 -200 45
3136665927.6546 -4.0146174 -63.891018 -200 45 -200 45 -200 45
3137666044.3407 -4.0214396 -63.81422 -200 45 -200 45 -200 45
3138666161.0268 -4.0266562 -63.736511 -200 45 -200 45 -200 45
3139666277.713 -4.0319881 -63.641033 -200 45 -200 45 -200 45
3140666394.3991 -4.0411124 -63.561298 -200 45 -200 45 -200 45
3141666511.0852 -4.0520339 -63.510979 -200 45 -200 45 -200 45
3142666627.7713 -4.060401 -63.442699 -200 45 -200 45 -200 45
3143666744.4574 -4.0719862 -63.390072 -200 45 -200 45 -200 45
3144666861.1435 -4.0823679 -63.3325 -200 45 -200 45 -200 45
3145666977.8296 -4.092917 -63.295799 -200 45 -200 45 -200 45
3146667094.5158 -4.1074247 -63.24131 -200 45 -200 45 -200 45
3147667211.2019 -4.1200728 -63.213737 -200 45 -200 45 -200 45
3148667327.888 -4.1349812 -63.167286 -200 45 -200 45 -200 45
3149667444.5741 -4.1491241 -63.159954 -200 45 -200 45 -200 45
3150667561.2602 -4.1608562 -63.129337 -200 45 -200 45 -200 45
3151667677.9463 -4.1757145 -63.126205 -200 45 -200 45 -200 45
3152667794.6324 -4.1914186 -63.125183 -200 45 -200 45 -200 45
3153667911.3186 -4.2075601 -63.09782 -200 45 -200 45 -200 45
3154668028.0047 -4.226058 -63.120129 -200 45 -200 45 -200 45
3155668144.6908 -4.239892 -63.12178 -200 45 -200 45 -200 45
3156668261.3769 -4.257123 -63.101646 -200 45 -200 45 -200 45
3157668378.063 -4.2690868 -63.095219 -200 45 -200 45 -200 45
3158668494.7491 -4.2818513 -63.079163 -200 45 -200 45 -200 45
3159668611.4352 -4.2883182 -63.069221 -200 45 -200 45 -200 45
3160668728.1214 -4.2947631 -63.065704 -200 45 -200 45 -200 45
3161668844.8075 -4.3002062 -63.087475 -200 45 -200 45 -200 45
3162668961.4936 -4.2962189 -63.133408 -200 45 -200 45 -200 45
3163669078.1797 -4.295733 -63.192795 -200 45 -200 45 -200 45
3164669194.8658 -4.2935734 -63.299572 -200 45 -200 45 -200 45
3165669311.5519 -4.2923436 -63.395363 -200 45 -200 45 -200 45
3166669428.238 -4.2882013 -63.540337 -200 45 -200 45 -200 45
3167669544.9242 -4.2917132 -63.689198 -200 45 -200 45 -200 45
3168669661.6103 -4.2927675 -63.845924 -200 45 -200 45 -200 45
3169669778.2964 -4.2922378 -63.99897 -200 45 -200 45 -200 45
3170669894.9825 -4.2964802 -64.181427 -200 45 -200 45 -200 45
3171670011.6686 -4.3000073 -64.320953 -200 45 -200 45 -200 45
3172670128.3547 -4.3003283 -64.494499 -200 45 -200 45 -200 45
3173670245.0408 -4.3044968 -64.654846 -200 45 -200 45 -200 45
3174670361.727 -4.3093405 -64.809601 -200 45 -200 45 -200 45
3175670478.4131 -4.3102183 -64.942078 -200 45 -200 45 -200 45
3176670595.0992 -4.3100686 -65.086769 -200 45 -200 45 -200 45
3177670711.7853 -4.3122945 -65.234474 -200 45 -200 45 -200 45
3178670828.4714 -4.3097467 -65.374084 -200 45 -200 45 -200 45
3179670945.1575 -4.3085165 -65.515343 -200 45 -200 45 -200 45
3180671061.8436 -4.3087645 -65.63282 -200 45 -200 45 -200 45
3181671178.5298 -4.3040514 -65.767632 -200 45 -200 45 -200 45
3182671295.2159 -4.2981882 -65.891365 -200 45 -200 45 -200 45
3183671411.902 -4.2985439 -65.999496 -200 45 -200 45 -200 45
3184671528.5881 -4.2938976 -66.098778 -200 45 -200 45 -200 45
3185671645.2742 -4.2868137 -66.213707 -200 45 -200 45 -200 45
3186671761.9603 -4.2819128 -66.308723 -200 45 -200 45 -200 45
3187671878.6464 -4.2765827 -66.396538 -200 45 -200 45 -200 45
3188671995.3326 -4.2733159 -66.483147 -200 45 -200 45 -200 45
3189672112.0187 -4.2636099 -66.564751 -200 45 -200 45 -200 45
3190672228.7048 -4.2580791 -66.626915 -200 45 -200 45 -200 45
3191672345.3909 -4.2533479 -66.702888 -200 45 -200 45 -200 45
3192672462.077 -4.245532 -66.757187 -200 45 -200 45 -200 45
3193672578.7631 -4.2392354 -66.805214 -200 45 -200 45 -200 45
3194672695.4492 -4.2343912 -66.840401 -200 45 -200 45 -200 45
3195672812.1354 -4.2259641 -66.869804 -200 45 -200 45 -200 45
3196672928.8215 -4.223248 -66.880348 -200 45 -200 45 -200 45
3197673045.5076 -4.2181363 -66.887611 -200 45 -200 45 -200 45
3198673162.1937 -4.2099152 -66.872887 -200 45 -200 45 -200 45
3199673278.8798 -4.2063594 -66.862411 -200 45 -200 45 -200 45
3200673395.5659 -4.2012172 -66.856819 -200 45 -200 45 -200 45
3201673512.252 -4.1955161 -66.83522 -200 45 -200 45 -200 45
3202673628.9382 -4.1909642 -66.805206 -200 45 -200 45 -200 45
3203673745.6243 -4.1872492 -66.75145 -200 45 -200 45 -200 45
3204673862.3104 -4.1853981 -66.716034 -200 45 -200 45 -200 45
3205673978.9965 -4.1815395 -66.671188 -200 45 -200 45 -200 45
3206674095.6826 -4.1807847 -66.601814 -200 45 -200 45 -200 45
3207674212.3687 -4.1799579 -66.538116 -200 45 -200 45 -200 45
3208674329.0548 -4.1798711 -66.482346 -200 45 -200 45 -200 45
3209674445.741 -4.1788535 -66.400345 -200 45 -200 45 -200 45
3210674562.4271 -4.1793995 -66.347878 -200 45 -200 45 -200 45
3211674679.1132 -4.1811552 -66.25666 -200 45 -200 45 -200 45
3212674795.7993 -4.1860209 -66.165604 -200 45 -200 45 -200 45
3213674912.4854 -4.188343 -66.09549 -200 45 -200 45 -200 45
3214675029.1715 -4.1945662 -66.006653 -200 45 -200 45 -200 45
3215675145.8576 -4.1999626 -65.922791 -200 45 -200 45 -200 45
3216675262.5438 -4.2046452 -65.826736 -200 45 -200 45 -200 45
3217675379.2299 -4.214427 -65.753372 -200 45 -200 45 -200 45
3218675495.916 -4.2226977 -65.648392 -200 45 -200 45 -200 45
3219675612.6021 -4.2324672 -65.553101 -200 45 -200 45 -200 45
3220675729.2882 -4.2426438 -65.482216 -200 45 -200 45 -200 45
3221675845.9743 -4.2531381 -65.397125 -200 45 -200 45 -200 45
3222675962.6604 -4.2654967 -65.319862 -200 45 -200 45 -200 45
3223676079.3466 -4.2806039 -65.250771 -200 45 -200 45 -200 45
3224676196.0327 -4.2916489 -65.168236 -200 45 -200 45 -200 45
3225676312.7188 -4.3085747 -65.103615 -200 45 -200 45 -200 45
3226676429.4049 -4.3252544 -65.029716 -200 45 -200 45 -200 45
3227676546.091 -4.343926 -64.965912 -200 45 -200 45 -200 45
3228676662.7771 -4.3618894 -64.920395 -200 45 -200 45 -200 45
3229676779.4632 -4.3832083 -64.881004 -200 45 -200 45 -200 45
3230676896.1494 -4.4063911 -64.834564 -200 45 -200 45 -200 45
3231677012.8355 -4.4259496 -64.790665 -200 45 -200 45 -200 45
3232677129.5216 -4.4476943 -64.760941 -200 45 -200 45 -200 45
3233677246.2077 -4.4718246 -64.727982 -200 45 -200 45 -200 45
3234677362.8938 -4.498385 -64.711174 -200 45 -200 45 -200 45
3235677479.5799 -4.5230861 -64.703377 -200 45 -200 45 -200 45
3236677596.266 -4.55303 -64.700401 -200 45 -200 45 -200 45
3237677712.9522 -4.5777302 -64.685349 -200 45 -200 45 -200 45
3238677829.6383 -4.6103492 -64.685257 -200 45 -200 45 -200 45
3239677946.3244 -4.6424842 -64.700974 -200 45 -200 45 -200 45
3240678063.0105 -4.6733322 -64.722145 -200 45 -200 45 -200 45
3241678179.6966 -4.7135024 -64.714485 -200 45 -200 45 -200 45
3242678296.3827 -4.7483459 -64.73864 -200 45 -200 45 -200 45
3243678413.0688 -4.7897534 -64.746437 -200 45 -200 45 -200 45
3244678529.755 -4.834085 -64.751564 -200 45 -200 45 -200 45
3245678646.4411 -4.8803968 -64.739868 -200 45 -200 45 -200 45
3246678763.1272 -4.9319034 -64.728294 -200 45 -200 45 -200 45
3247678879.8133 -4.9835415 -64.67659 -200 45 -200 45 -200 45
3248678996.4994 -5.042501 -64.573357 -200 45 -200 45 -200 45
3249679113.1855 -5.1036949 -64.43676 -200 45 -200 45 -200 45
3250679229.8716 -5.1608191 -64.188042 -200 45 -200 45 -200 45
3251679346.5578 -5.2178512 -63.88063 -200 45 -200 45 -200 45
3252679463.2439 -5.2715135 -63.458652 -200 45 -200 45 -200 45
3253679579.93 -5.3102427 -62.953827 -200 45 -200 45 -200 45
3254679696.6161 -5.3369889 -62.384605 -200 45 -200 45 -200 45
3255679813.3022 -5.3442183 -61.773972 -200 45 -200 45 -200 45
3256679929.9883 -5.3346777 -61.059235 -200 45 -200 45 -200 45
3257680046.6744 -5.2964382 -60.338165 -200 45 -200 45 -200 45
3258680163.3606 -5.225615 -59.635132 -200 45 -200 45 -200 45
3259680280.0467 -5.1278167 -59.039555 -200 45 -200 45 -200 45
3260680396.7328 -5.0032773 -58.598339 -200 45 -200 45 -200 45
3261680513.4189 -4.8658538 -58.402531 -200 45 -200 45 -200 45
3262680630.105 -4.7282043 -58.389355 -200 45 -200 45 -200 45
3263680746.7911 -4.6017718 -58.581474 -200 45 -200 45 -200 45
3264680863.4772 -4.4855976 -58.892426 -200 45 -200 45 -200 45
3265680980.1634 -4.3913178 -59.331844 -200 45 -200 45 -200 45
3266681096.8495 -4.3105941 -59.737663 -200 45 -200 45 -200 45
3267681213.5356 -4.249259 -60.209568 -200 45 -200 45 -200 45
3268681330.2217 -4.2010264 -60.628006 -200 45 -200 45 -200 45
3269681446.9078 -4.1611304 -61.01738 -200 45 -200 45 -200 45
3270681563.5939 -4.1272178 -61.36134 -200 45 -200 45 -200 45
3271681680.28 -4.0966673 -61.649895 -200 45 -200 45 -200 45
3272681796.9662 -4.0656023 -61.968353 -200 45 -200 45 -200 45
3273681913.6523 -4.0402875 -62.220203 -200 45 -200 45 -200 45
3274682030.3384 -4.0159926 -62.456253 -200 45 -200 45 -200 45
3275682147.0245 -4.0002971 -62.657658 -200 45 -200 45 -200 45
3276682263.7106 -3.9835486 -62.7934 -200 45 -200 45 -200 45
3277682380.3967 -3.9581709 -62.889553 -200 45 -200 45 -200 45
3278682497.0828 -3.9257345 -62.940598 -200 45 -200 45 -200 45
3279682613.769 -3.8888092 -63.031521 -200 45 -200 45 -200 45
3280682730.4551 -3.845196 -63.164585 -200 45 -200 45 -200 45
3281682847.1412 -3.7982831 -63.328655 -200 45 -200 45 -200 45
3282682963.8273 -3.7611036 -63.582211 -200 45 -200 45 -200 45
3283683080.5134 -3.7316499 -63.830139 -200 45 -200 45 -200 45
3284683197.1995 -3.7158325 -64.073845 -200 45 -200 45 -200 45
3285683313.8856 -3.7003682 -64.263535 -200 45 -200 45 -200 45
3286683430.5718 -3.6887627 -64.415985 -200 45 -200 45 -200 45
3287683547.2579 -3.678663 -64.570183 -200 45 -200 45 -200 45
3288683663.944 -3.6669302 -64.699966 -200 45 -200 45 -200 45
3289683780.6301 -3.6559572 -64.846046 -200 45 -200 45 -200 45
3290683897.3162 -3.6522803 -64.977142 -200 45 -200 45 -200 45
3291684014.0023 -3.6511743 -65.098007 -200 45 -200 45 -200 45
3292684130.6884 -3.6530588 -65.175835 -200 45 -200 45 -200 45
3293684247.3746 -3.6579766 -65.274551 -200 45 -200 45 -200 45
3294684364.0607 -3.6669941 -65.318817 -200 45 -200 45 -200 45
3295684480.7468 -3.6715298 -65.364754 -200 45 -200 45 -200 45
3296684597.4329 -3.6790619 -65.38279 -200 45 -200 45 -200 45
3297684714.119 -3.6858139 -65.39785 -200 45 -200 45 -200 45
3298684830.8051 -3.6922252 -65.388718 -200 45 -200 45 -200 45
3299684947.4912 -3.7007744 -65.379166 -200 45 -200 45 -200 45
3300685064.1774 -3.7107148 -65.363754 -200 45 -200 45 -200 45
3301685180.8635 -3.7160747 -65.350502 -200 45 -200 45 -200 45
3302685297.5496 -3.7281578 -65.316986 -200 45 -200 45 -200 45
3303685414.2357 -3.7373707 -65.291061 -200 45 -200 45 -200 45
3304685530.9218 -3.7499232 -65.254021 -200 45 -200 45 -200 45
3305685647.6079 -3.7622848 -65.225075 -200 45 -200 45 -200 45
3306685764.294 -3.7737591 -65.177162 -200 45 -200 45 -200 45
3307685880.9802 -3.7853377 -65.124741 -200 45 -200 45 -200 45
3308685997.6663 -3.7994943 -65.090027 -200 45 -200 45 -200 45
3309686114.3524 -3.8143191 -65.04026 -200 45 -200 45 -200 45
3310686231.0385 -3.826797 -65.008438 -200 45 -200 45 -200 45
3311686347.7246 -3.8403461 -64.968941 -200 45 -200 45 -200 45
3312686464.4107 -3.8500409 -64.929863 -200 45 -200 45 -200 45
3313686581.0968 -3.8645356 -64.917274 -200 45 -200 45 -200 45
3314686697.783 -3.8780577 -64.870636 -200 45 -200 45 -200 45
3315686814.4691 -3.8906877 -64.870094 -200 45 -200 45 -200 45
3316686931.1552 -3.9079363 -64.863251 -200 45 -200 45 -200 45
3317687047.8413 -3.9207947 -64.863708 -200 45 -200 45 -200 45
3318687164.5274 -3.9360616 -64.86145 -200 45 -200 45 -200 45
3319687281.2135 -3.9490168 -64.88829 -200 45 -200 45 -200 45
3320687397.8997 -3.9650002 -64.89106 -200 45 -200 45 -200 45
3321687514.5858 -3.9798853 -64.904602 -200 45 -200 45 -200 45
3322687631.2719 -3.9962039 -64.943649 -200 45 -200 45 -200 45
3323687747.958 -4.0126386 -64.963715 -200 45 -200 45 -200 45
3324687864.6441 -4.0247064 -64.998116 -200 45 -200 45 -200 45
3325687981.3302 -4.0433536 -65.028214 -200 45 -200 45 -200 45
3326688098.0163 -4.0554852 -65.078888 -200 45 -200 45 -200 45
3327688214.7025 -4.0705419 -65.112709 -200 45 -200 45 -200 45
3328688331.3886 -4.0816245 -65.175346 -200 45 -200 45 -200 45
3329688448.0747 -4.0901914 -65.247986 -200 45 -200 45 -200 45
3330688564.7608 -4.0984735 -65.30674 -200 45 -200 45 -200 45
3331688681.4469 -4.104228 -65.389366 -200 45 -200 45 -200 45
3332688798.133 -4.1094995 -65.477142 -200 45 -200 45 -200 45
3333688914.8191 -4.1172996 -65.602783 -200 45 -200 45 -200 45
3334689031.5053 -4.1196179 -65.70018 -200 45 -200 45 -200 45
3335689148.1914 -4.1281495 -65.82766 -200 45 -200 45 -200 45
3336689264.8775 -4.1319308 -65.977173 -200 45 -200 45 -200 45
3337689381.5636 -4.140121 -66.109535 -200 45 -200 45 -200 45
3338689498.2497 -4.1459589 -66.22422 -200 45 -200 45 -200 45
3339689614.9358 -4.1465406 -66.360748 -200 45 -200 45 -200 45
3340689731.6219 -4.1521311 -66.506752 -200 45 -200 45 -200 45
3341689848.3081 -4.1535921 -66.651932 -200 45 -200 45 -200 45
3342689964.9942 -4.1598563 -66.775711 -200 45 -200 45 -200 45
3343690081.6803 -4.1568804 -66.912971 -200 45 -200 45 -200 45
3344690198.3664 -4.1585693 -67.057083 -200 45 -200 45 -200 45
3345690315.0525 -4.1584511 -67.187775 -200 45 -200 45 -200 45
3346690431.7386 -4.1548281 -67.332985 -200 45 -200 45 -200 45
3347690548.4247 -4.155829 -67.46051 -200 45 -200 45 -200 45
3348690665.1109 -4.1498485 -67.610558 -200 45 -200 45 -200 45
3349690781.797 -4.1456609 -67.722618 -200 45 -200 45 -200 45
3350690898.4831 -4.1400943 -67.848343 -200 45 -200 45 -200 45
3351691015.1692 -4.136662 -67.993423 -200 45 -200 45 -200 45
3352691131.8553 -4.1313696 -68.120201 -200 45 -200 45 -200 45
3353691248.5414 -4.1267495 -68.20871 -200 45 -200 45 -200 45
3354691365.2275 -4.1222997 -68.317596 -200 45 -200 45 -200 45
3355691481.9137 -4.1178002 -68.419983 -200 45 -200 45 -200 45
3356691598.5998 -4.113184 -68.505791 -200 45 -200 45 -200 45
3357691715.2859 -4.1069574 -68.592361 -200 45 -200 45 -200 45
3358691831.972 -4.099267 -68.647621 -200 45 -200 45 -200 45
3359691948.6581 -4.0943089 -68.720634 -200 45 -200 45 -200 45
3360692065.3442 -4.0883937 -68.77253 -200 45 -200 45 -200 45
3361692182.0303 -4.084518 -68.816154 -200 45 -200 45 -200 45
3362692298.7165 -4.0755587 -68.856323 -200 45 -200 45 -200 45
3363692415.4026 -4.0704188 -68.899353 -200 45 -200 45 -200 45
3364692532.0887 -4.0610356 -68.899643 -200 45 -200 45 -200 45
3365692648.7748 -4.0546479 -68.936119 -200 45 -200 45 -200 45
3366692765.4609 -4.0447903 -68.928162 -200 45 -200 45 -200 45
3367692882.147 -4.0444627 -68.9245 -200 45 -200 45 -200 45
3368692998.8331 -4.0385442 -68.902611 -200 45 -200 45 -200 45
3369693115.5193 -4.0310359 -68.895439 -200 45 -200 45 -200 45
3370693232.2054 -4.0288997 -68.861786 -200 45 -200 45 -200 45
3371693348.8915 -4.0237017 -68.820045 -200 45 -200 45 -200 45
3372693465.5776 -4.0179601 -68.795876 -200 45 -200 45 -200 45
3373693582.2637 -4.0164061 -68.721169 -200 45 -200 45 -200 45
3374693698.9498 -4.0131683 -68.688492 -200 45 -200 45 -200 45
3375693815.6359 -4.0133858 -68.626617 -200 45 -200 45 -200 45
3376693932.3221 -4.0122213 -68.564148 -200 45 -200 45 -200 45
3377694049.0082 -4.0121536 -68.47261 -200 45 -200 45 -200 45
3378694165.6943 -4.0120907 -68.399475 -200 45 -200 45 -200 45
3379694282.3804 -4.0143113 -68.31459 -200 45 -200 45 -200 45
3380694399.0665 -4.0124621 -68.223557 -200 45 -200 45 -200 45
3381694515.7526 -4.0176277 -68.136574 -200 45 -200 45 -200 45
3382694632.4387 -4.0207419 -68.048325 -200 45 -200 45 -200 45
3383694749.1249 -4.0263548 -67.940155 -200 45 -200 45 -200 45
3384694865.811 -4.030334 -67.830292 -200 45 -200 45 -200 45
3385694982.4971 -4.0389819 -67.724396 -200 45 -200 45 -200 45
3386695099.1832 -4.0446186 -67.605301 -200 45 -200 45 -200 45
3387695215.8693 -4.0540614 -67.446312 -200 45 -200 45 -200 45
3388695332.5554 -4.0615344 -67.328239 -200 45 -200 45 -200 45
3389695449.2415 -4.0671268 -67.169647 -200 45 -200 45 -200 45
3390695565.9277 -4.0726748 -67.022804 -200 45 -200 45 -200 45
3391695682.6138 -4.074275 -66.888893 -200 45 -200 45 -200 45
3392695799.2999 -4.0759816 -66.7351 -200 45 -200 45 -200 45
3393695915.986 -4.0729179 -66.6465 -200 45 -200 45 -200 45
3394696032.6721 -4.0752854 -66.548279 -200 45 -200 45 -200 45
3395696149.3582 -4.0759964 -66.481644 -200 45 -200 45 -200 45
3396696266.0443 -4.0764041 -66.410835 -200 45 -200 45 -200 45
3397696382.7305 -4.0825891 -66.352821 -200 45 -200 45 -200 45
3398696499.4166 -4.0836177 -66.309479 -200 45 -200 45 -200 45
3399696616.1027 -4.0898905 -66.24559 -200 45 -200 45 -200 45
3400696732.7888 -4.0940866 -66.245407 -200 45 -200 45 -200 45
3401696849.4749 -4.0994654 -66.220161 -200 45 -200 45 -200 45
3402696966.161 -4.1055899 -66.213509 -200 45 -200 45 -200 45
3403697082.8471 -4.114222 -66.208549 -200 45 -200 45 -200 45
3404697199.5333 -4.1173897 -66.226852 -200 45 -200 45 -200 45
3405697316.2194 -4.1277075 -66.237137 -200 45 -200 45 -200 45
3406697432.9055 -4.1328988 -66.265961 -200 45 -200 45 -200 45
3407697549.5916 -4.1388578 -66.294685 -200 45 -200 45 -200 45
3408697666.2777 -4.143919 -66.346977 -200 45 -200 45 -200 45
3409697782.9638 -4.1514368 -66.40509 -200 45 -200 45 -200 45
3410697899.6499 -4.158536 -66.503929 -200 45 -200 45 -200 45
3411698016.3361 -4.1695147 -66.586029 -200 45 -200 45 -200 45
3412698133.0222 -4.1775198 -66.657242 -200 45 -200 45 -200 45
3413698249.7083 -4.1829329 -66.774162 -200 45 -200 45 -200 45
3414698366.3944 -4.1912103 -66.86718 -200 45 -200 45 -200 45
3415698483.0805 -4.1970778 -66.962509 -200 45 -200 45 -200 45
3416698599.7666 -4.2071228 -67.09494 -200 45 -200 45 -200 45
3417698716.4527 -4.213109 -67.215759 -200 45 -200 45 -200 45
3418698833.1389 -4.2190037 -67.325005 -200 45 -200 45 -200 45
3419698949.825 -4.2274861 -67.450615 -200 45 -200 45 -200 45
3420699066.5111 -4.2304206 -67.591965 -200 45 -200 45 -200 45
3421699183.1972 -4.2365756 -67.728249 -200 45 -200 45 -200 45
3422699299.8833 -4.2422338 -67.876625 -200 45 -200 45 -200 45
3423699416.5694 -4.2445679 -68.000664 -200 45 -200 45 -200 45
3424699533.2555 -4.252985 -68.160187 -200 45 -200 45 -200 45
3425699649.9417 -4.2513657 -68.297142 -200 45 -200 45 -200 45
3426699766.6278 -4.255765 -68.431801 -200 45 -200 45 -200 45
3427699883.3139 -4.2587495 -68.573898 -200 45 -200 45 -200 45
3428700000 -4.2567291 -68.710922 -200 45 -200 45 -200 45
3429700116.6861 -4.2600546 -68.845833 -200 45 -200 45 -200 45
3430700233.3722 -4.260582 -68.968704 -200 45 -200 45 -200 45
3431700350.0583 -4.257525 -69.092262 -200 45 -200 45 -200 45
3432700466.7445 -4.2537642 -69.241409 -200 45 -200 45 -200 45
3433700583.4306 -4.2507248 -69.340042 -200 45 -200 45 -200 45
3434700700.1167 -4.2449265 -69.482117 -200 45 -200 45 -200 45
3435700816.8028 -4.2428379 -69.58139 -200 45 -200 45 -200 45
3436700933.4889 -4.239152 -69.681465 -200 45 -200 45 -200 45
3437701050.175 -4.2318716 -69.788628 -200 45 -200 45 -200 45
3438701166.8611 -4.2248802 -69.875053 -200 45 -200 45 -200 45
3439701283.5473 -4.2199984 -69.974899 -200 45 -200 45 -200 45
3440701400.2334 -4.2157583 -70.060593 -200 45 -200 45 -200 45
3441701516.9195 -4.2066379 -70.119217 -200 45 -200 45 -200 45
3442701633.6056 -4.1997299 -70.195396 -200 45 -200 45 -200 45
3443701750.2917 -4.1907492 -70.253609 -200 45 -200 45 -200 45
3444701866.9778 -4.1851025 -70.297348 -200 45 -200 45 -200 45
3445701983.6639 -4.1730609 -70.32164 -200 45 -200 45 -200 45
3446702100.3501 -4.165802 -70.39003 -200 45 -200 45 -200 45
3447702217.0362 -4.1607747 -70.420921 -200 45 -200 45 -200 45
3448702333.7223 -4.1506286 -70.42437 -200 45 -200 45 -200 45
3449702450.4084 -4.1425405 -70.422989 -200 45 -200 45 -200 45
3450702567.0945 -4.1349058 -70.432838 -200 45 -200 45 -200 45
3451702683.7806 -4.1258349 -70.421471 -200 45 -200 45 -200 45
3452702800.4667 -4.1188397 -70.412453 -200 45 -200 45 -200 45
3453702917.1529 -4.1127291 -70.384293 -200 45 -200 45 -200 45
3454703033.839 -4.1033883 -70.353806 -200 45 -200 45 -200 45
3455703150.5251 -4.1000581 -70.352379 -200 45 -200 45 -200 45
3456703267.2112 -4.0967836 -70.277748 -200 45 -200 45 -200 45
3457703383.8973 -4.0885611 -70.227219 -200 45 -200 45 -200 45
3458703500.5834 -4.083158 -70.170738 -200 45 -200 45 -200 45
3459703617.2695 -4.0784454 -70.097229 -200 45 -200 45 -200 45
3460703733.9557 -4.0763845 -70.052666 -200 45 -200 45 -200 45
3461703850.6418 -4.0711737 -69.980858 -200 45 -200 45 -200 45
3462703967.3279 -4.0680337 -69.907066 -200 45 -200 45 -200 45
3463704084.014 -4.0656843 -69.829872 -200 45 -200 45 -200 45
3464704200.7001 -4.0643001 -69.737892 -200 45 -200 45 -200 45
3465704317.3862 -4.0625377 -69.64994 -200 45 -200 45 -200 45
3466704434.0723 -4.0636683 -69.577446 -200 45 -200 45 -200 45
3467704550.7585 -4.0633159 -69.482918 -200 45 -200 45 -200 45
3468704667.4446 -4.0652509 -69.392326 -200 45 -200 45 -200 45
3469704784.1307 -4.0680137 -69.28524 -200 45 -200 45 -200 45
3470704900.8168 -4.0697012 -69.209518 -200 45 -200 45 -200 45
3471705017.5029 -4.0774832 -69.124229 -200 45 -200 45 -200 45
3472705134.189 -4.0781369 -69.028702 -200 45 -200 45 -200 45
3473705250.8751 -4.0840306 -68.948158 -200 45 -200 45 -200 45
3474705367.5613 -4.0907922 -68.857719 -200 45 -200 45 -200 45
3475705484.2474 -4.0985365 -68.794792 -200 45 -200 45 -200 45
3476705600.9335 -4.1027989 -68.700256 -200 45 -200 45 -200 45
3477705717.6196 -4.1107612 -68.633461 -200 45 -200 45 -200 45
3478705834.3057 -4.1192179 -68.557236 -200 45 -200 45 -200 45
3479705950.9918 -4.1282873 -68.496696 -200 45 -200 45 -200 45
3480706067.6779 -4.1369848 -68.430397 -200 45 -200 45 -200 45
3481706184.3641 -4.1433787 -68.380196 -200 45 -200 45 -200 45
3482706301.0502 -4.1548018 -68.346519 -200 45 -200 45 -200 45
3483706417.7363 -4.167294 -68.316093 -200 45 -200 45 -200 45
3484706534.4224 -4.1769915 -68.268532 -200 45 -200 45 -200 45
3485706651.1085 -4.1889467 -68.23703 -200 45 -200 45 -200 45
3486706767.7946 -4.2015619 -68.235497 -200 45 -200 45 -200 45
3487706884.4807 -4.2152448 -68.226883 -200 45 -200 45 -200 45
3488707001.1669 -4.2246614 -68.219818 -200 45 -200 45 -200 45
3489707117.853 -4.2345557 -68.2183 -200 45 -200 45 -200 45
3490707234.5391 -4.2478447 -68.235298 -200 45 -200 45 -200 45
3491707351.2252 -4.259294 -68.263206 -200 45 -200 45 -200 45
3492707467.9113 -4.2693987 -68.281693 -200 45 -200 45 -200 45
3493707584.5974 -4.2813473 -68.320786 -200 45 -200 45 -200 45
3494707701.2835 -4.2939177 -68.385117 -200 45 -200 45 -200 45
3495707817.9697 -4.303637 -68.436874 -200 45 -200 45 -200 45
3496707934.6558 -4.3146152 -68.520416 -200 45 -200 45 -200 45
3497708051.3419 -4.3260121 -68.569946 -200 45 -200 45 -200 45
3498708168.028 -4.3332968 -68.651932 -200 45 -200 45 -200 45
3499708284.7141 -4.3432593 -68.73172 -200 45 -200 45 -200 45
3500708401.4002 -4.3534284 -68.828018 -200 45 -200 45 -200 45
3501708518.0863 -4.362803 -68.941994 -200 45 -200 45 -200 45
3502708634.7725 -4.3678107 -69.014153 -200 45 -200 45 -200 45
3503708751.4586 -4.3758354 -69.151009 -200 45 -200 45 -200 45
3504708868.1447 -4.3804383 -69.257355 -200 45 -200 45 -200 45
3505708984.8308 -4.3861728 -69.376205 -200 45 -200 45 -200 45
3506709101.5169 -4.3927469 -69.490677 -200 45 -200 45 -200 45
3507709218.203 -4.3977265 -69.611458 -200 45 -200 45 -200 45
3508709334.8891 -4.3984756 -69.739571 -200 45 -200 45 -200 45
3509709451.5753 -4.3984494 -69.86541 -200 45 -200 45 -200 45
3510709568.2614 -4.4024305 -70.010399 -200 45 -200 45 -200 45
3511709684.9475 -4.4044089 -70.118889 -200 45 -200 45 -200 45
3512709801.6336 -4.4034629 -70.263763 -200 45 -200 45 -200 45
3513709918.3197 -4.3999071 -70.387787 -200 45 -200 45 -200 45
3514710035.0058 -4.3986678 -70.518837 -200 45 -200 45 -200 45
3515710151.6919 -4.3978586 -70.631393 -200 45 -200 45 -200 45
3516710268.3781 -4.3946524 -70.763344 -200 45 -200 45 -200 45
3517710385.0642 -4.3924861 -70.878548 -200 45 -200 45 -200 45
3518710501.7503 -4.3877292 -70.998962 -200 45 -200 45 -200 45
3519710618.4364 -4.3826547 -71.079597 -200 45 -200 45 -200 45
3520710735.1225 -4.3760915 -71.187424 -200 45 -200 45 -200 45
3521710851.8086 -4.3694377 -71.291176 -200 45 -200 45 -200 45
3522710968.4947 -4.359724 -71.371552 -200 45 -200 45 -200 45
3523711085.1809 -4.3509526 -71.446823 -200 45 -200 45 -200 45
3524711201.867 -4.3432355 -71.530945 -200 45 -200 45 -200 45
3525711318.5531 -4.3350954 -71.61319 -200 45 -200 45 -200 45
3526711435.2392 -4.3276634 -71.676445 -200 45 -200 45 -200 45
3527711551.9253 -4.3167734 -71.733093 -200 45 -200 45 -200 45
3528711668.6114 -4.3071051 -71.778625 -200 45 -200 45 -200 45
3529711785.2975 -4.2986736 -71.825699 -200 45 -200 45 -200 45
3530711901.9837 -4.2901869 -71.859375 -200 45 -200 45 -200 45
3531712018.6698 -4.2815261 -71.870018 -200 45 -200 45 -200 45
3532712135.3559 -4.2709665 -71.885483 -200 45 -200 45 -200 45
3533712252.042 -4.2647295 -71.90094 -200 45 -200 45 -200 45
3534712368.7281 -4.2563133 -71.903557 -200 45 -200 45 -200 45
3535712485.4142 -4.2473674 -71.870018 -200 45 -200 45 -200 45
3536712602.1004 -4.2395487 -71.878975 -200 45 -200 45 -200 45
3537712718.7865 -4.2295685 -71.873566 -200 45 -200 45 -200 45
3538712835.4726 -4.2225084 -71.816772 -200 45 -200 45 -200 45
3539712952.1587 -4.2141767 -71.787582 -200 45 -200 45 -200 45
3540713068.8448 -4.2069206 -71.72052 -200 45 -200 45 -200 45
3541713185.5309 -4.2024164 -71.683266 -200 45 -200 45 -200 45
3542713302.217 -4.1936898 -71.638802 -200 45 -200 45 -200 45
3543713418.9032 -4.1903019 -71.563896 -200 45 -200 45 -200 45
3544713535.5893 -4.1831036 -71.488945 -200 45 -200 45 -200 45
3545713652.2754 -4.1787496 -71.425232 -200 45 -200 45 -200 45
3546713768.9615 -4.1759729 -71.332024 -200 45 -200 45 -200 45
3547713885.6476 -4.173893 -71.249519 -200 45 -200 45 -200 45
3548714002.3337 -4.1744967 -71.157127 -200 45 -200 45 -200 45
3549714119.0198 -4.1742458 -71.07885 -200 45 -200 45 -200 45
3550714235.706 -4.1748013 -70.996429 -200 45 -200 45 -200 45
3551714352.3921 -4.1753225 -70.885788 -200 45 -200 45 -200 45
3552714469.0782 -4.1752815 -70.80246 -200 45 -200 45 -200 45
3553714585.7643 -4.1753345 -70.682884 -200 45 -200 45 -200 45
3554714702.4504 -4.1773243 -70.616135 -200 45 -200 45 -200 45
3555714819.1365 -4.1831713 -70.514526 -200 45 -200 45 -200 45
3556714935.8226 -4.1833053 -70.419815 -200 45 -200 45 -200 45
3557715052.5088 -4.190145 -70.312035 -200 45 -200 45 -200 45
3558715169.1949 -4.1921701 -70.246086 -200 45 -200 45 -200 45
3559715285.881 -4.1993847 -70.160217 -200 45 -200 45 -200 45
3560715402.5671 -4.2064857 -70.053467 -200 45 -200 45 -200 45
3561715519.2532 -4.2131357 -69.968918 -200 45 -200 45 -200 45
3562715635.9393 -4.2205892 -69.923508 -200 45 -200 45 -200 45
3563715752.6254 -4.2329197 -69.823669 -200 45 -200 45 -200 45
3564715869.3116 -4.2426672 -69.764038 -200 45 -200 45 -200 45
3565715985.9977 -4.2484541 -69.70826 -200 45 -200 45 -200 45
3566716102.6838 -4.2616782 -69.65963 -200 45 -200 45 -200 45
3567716219.3699 -4.2692795 -69.599037 -200 45 -200 45 -200 45
3568716336.056 -4.2795215 -69.554192 -200 45 -200 45 -200 45
3569716452.7421 -4.2911992 -69.510193 -200 45 -200 45 -200 45
3570716569.4282 -4.3029871 -69.490868 -200 45 -200 45 -200 45
3571716686.1144 -4.3130698 -69.495499 -200 45 -200 45 -200 45
3572716802.8005 -4.3239765 -69.468559 -200 45 -200 45 -200 45
3573716919.4866 -4.3369546 -69.469955 -200 45 -200 45 -200 45
3574717036.1727 -4.349052 -69.467247 -200 45 -200 45 -200 45
3575717152.8588 -4.3602948 -69.494606 -200 45 -200 45 -200 45
3576717269.5449 -4.3742499 -69.500824 -200 45 -200 45 -200 45
3577717386.231 -4.3858376 -69.534767 -200 45 -200 45 -200 45
3578717502.9172 -4.396688 -69.579849 -200 45 -200 45 -200 45
3579717619.6033 -4.4082189 -69.633987 -200 45 -200 45 -200 45
3580717736.2894 -4.4195595 -69.678772 -200 45 -200 45 -200 45
3581717852.9755 -4.4274726 -69.73838 -200 45 -200 45 -200 45
3582717969.6616 -4.4418278 -69.82634 -200 45 -200 45 -200 45
3583718086.3477 -4.4483638 -69.897171 -200 45 -200 45 -200 45
3584718203.0338 -4.4557552 -69.995224 -200 45 -200 45 -200 45
3585718319.72 -4.4672627 -70.069214 -200 45 -200 45 -200 45
3586718436.4061 -4.4765358 -70.165253 -200 45 -200 45 -200 45
3587718553.0922 -4.4826345 -70.280174 -200 45 -200 45 -200 45
3588718669.7783 -4.4887981 -70.390045 -200 45 -200 45 -200 45
3589718786.4644 -4.4937 -70.51165 -200 45 -200 45 -200 45
3590718903.1505 -4.5031815 -70.630577 -200 45 -200 45 -200 45
3591719019.8366 -4.5019412 -70.750778 -200 45 -200 45 -200 45
3592719136.5228 -4.511579 -70.85984 -200 45 -200 45 -200 45
3593719253.2089 -4.512238 -71.01963 -200 45 -200 45 -200 45
3594719369.895 -4.5147724 -71.140991 -200 45 -200 45 -200 45
3595719486.5811 -4.5139675 -71.273964 -200 45 -200 45 -200 45
3596719603.2672 -4.515738 -71.396896 -200 45 -200 45 -200 45
3597719719.9533 -4.5130501 -71.522591 -200 45 -200 45 -200 45
3598719836.6394 -4.5164742 -71.672173 -200 45 -200 45 -200 45
3599719953.3256 -4.5146661 -71.790977 -200 45 -200 45 -200 45
3600720070.0117 -4.5125279 -71.909927 -200 45 -200 45 -200 45
3601720186.6978 -4.5076346 -72.02359 -200 45 -200 45 -200 45
3602720303.3839 -4.5057039 -72.146675 -200 45 -200 45 -200 45
3603720420.07 -4.4980569 -72.268112 -200 45 -200 45 -200 45
3604720536.7561 -4.492414 -72.385925 -200 45 -200 45 -200 45
3605720653.4422 -4.4878912 -72.494171 -200 45 -200 45 -200 45
3606720770.1284 -4.481761 -72.593697 -200 45 -200 45 -200 45
3607720886.8145 -4.4725156 -72.677696 -200 45 -200 45 -200 45
3608721003.5006 -4.4671483 -72.763123 -200 45 -200 45 -200 45
3609721120.1867 -4.4578915 -72.83316 -200 45 -200 45 -200 45
3610721236.8728 -4.4494081 -72.927666 -200 45 -200 45 -200 45
3611721353.5589 -4.441462 -72.972099 -200 45 -200 45 -200 45
3612721470.245 -4.43433 -73.033966 -200 45 -200 45 -200 45
3613721586.9312 -4.4260025 -73.087082 -200 45 -200 45 -200 45
3614721703.6173 -4.4177094 -73.112701 -200 45 -200 45 -200 45
3615721820.3034 -4.4104004 -73.144241 -200 45 -200 45 -200 45
3616721936.9895 -4.4000602 -73.18541 -200 45 -200 45 -200 45
3617722053.6756 -4.3898444 -73.202522 -200 45 -200 45 -200 45
3618722170.3617 -4.3800917 -73.203415 -200 45 -200 45 -200 45
3619722287.0478 -4.3731499 -73.218658 -200 45 -200 45 -200 45
3620722403.734 -4.3644142 -73.200241 -200 45 -200 45 -200 45
3621722520.4201 -4.3548102 -73.187828 -200 45 -200 45 -200 45
3622722637.1062 -4.34835 -73.175339 -200 45 -200 45 -200 45
3623722753.7923 -4.3397851 -73.122826 -200 45 -200 45 -200 45
3624722870.4784 -4.3330669 -73.083168 -200 45 -200 45 -200 45
3625722987.1645 -4.3262639 -73.036118 -200 45 -200 45 -200 45
3626723103.8506 -4.3194437 -73.005219 -200 45 -200 45 -200 45
3627723220.5368 -4.3135915 -72.938126 -200 45 -200 45 -200 45
3628723337.2229 -4.3111954 -72.866875 -200 45 -200 45 -200 45
3629723453.909 -4.3063293 -72.815155 -200 45 -200 45 -200 45
3630723570.5951 -4.3029752 -72.73027 -200 45 -200 45 -200 45
3631723687.2812 -4.3026538 -72.652054 -200 45 -200 45 -200 45
3632723803.9673 -4.3008609 -72.577675 -200 45 -200 45 -200 45
3633723920.6534 -4.2983518 -72.518875 -200 45 -200 45 -200 45
3634724037.3396 -4.2983999 -72.402985 -200 45 -200 45 -200 45
3635724154.0257 -4.2999744 -72.308891 -200 45 -200 45 -200 45
3636724270.7118 -4.2988367 -72.233223 -200 45 -200 45 -200 45
3637724387.3979 -4.3017969 -72.16156 -200 45 -200 45 -200 45
3638724504.084 -4.3046136 -72.047073 -200 45 -200 45 -200 45
3639724620.7701 -4.3059688 -71.942741 -200 45 -200 45 -200 45
3640724737.4562 -4.3141026 -71.856361 -200 45 -200 45 -200 45
3641724854.1424 -4.315382 -71.7873 -200 45 -200 45 -200 45
3642724970.8285 -4.3220391 -71.682365 -200 45 -200 45 -200 45
3643725087.5146 -4.3298397 -71.620842 -200 45 -200 45 -200 45
3644725204.2007 -4.3391428 -71.538445 -200 45 -200 45 -200 45
3645725320.8868 -4.3484449 -71.450584 -200 45 -200 45 -200 45
3646725437.5729 -4.3548889 -71.379372 -200 45 -200 45 -200 45
3647725554.259 -4.366889 -71.308907 -200 45 -200 45 -200 45
3648725670.9452 -4.3756046 -71.246155 -200 45 -200 45 -200 45
3649725787.6313 -4.3874292 -71.181389 -200 45 -200 45 -200 45
3650725904.3174 -4.3949571 -71.131134 -200 45 -200 45 -200 45
3651726021.0035 -4.407351 -71.081772 -200 45 -200 45 -200 45
3652726137.6896 -4.4219799 -71.034531 -200 45 -200 45 -200 45
3653726254.3757 -4.4323492 -71.001266 -200 45 -200 45 -200 45
3654726371.0618 -4.4453411 -70.980721 -200 45 -200 45 -200 45
3655726487.748 -4.4574599 -70.960213 -200 45 -200 45 -200 45
3656726604.4341 -4.4728708 -70.953949 -200 45 -200 45 -200 45
3657726721.1202 -4.4876213 -70.939095 -200 45 -200 45 -200 45
3658726837.8063 -4.4965467 -70.949776 -200 45 -200 45 -200 45
3659726954.4924 -4.5115542 -70.958893 -200 45 -200 45 -200 45
3660727071.1785 -4.5264158 -70.976479 -200 45 -200 45 -200 45
3661727187.8646 -4.543129 -71.012032 -200 45 -200 45 -200 45
3662727304.5508 -4.5565295 -71.046097 -200 45 -200 45 -200 45
3663727421.2369 -4.5689907 -71.08931 -200 45 -200 45 -200 45
3664727537.923 -4.5817413 -71.154488 -200 45 -200 45 -200 45
3665727654.6091 -4.5969296 -71.202087 -200 45 -200 45 -200 45
3666727771.2952 -4.611011 -71.289825 -200 45 -200 45 -200 45
3667727887.9813 -4.6200624 -71.337456 -200 45 -200 45 -200 45
3668728004.6674 -4.6333151 -71.430611 -200 45 -200 45 -200 45
3669728121.3536 -4.6446762 -71.520973 -200 45 -200 45 -200 45
3670728238.0397 -4.6532202 -71.623734 -200 45 -200 45 -200 45
3671728354.7258 -4.6640353 -71.722061 -200 45 -200 45 -200 45
3672728471.4119 -4.6770525 -71.836662 -200 45 -200 45 -200 45
3673728588.098 -4.6841803 -71.952667 -200 45 -200 45 -200 45
3674728704.7841 -4.6939578 -72.065201 -200 45 -200 45 -200 45
3675728821.4702 -4.7046247 -72.187157 -200 45 -200 45 -200 45
3676728938.1564 -4.7120962 -72.292976 -200 45 -200 45 -200 45
3677729054.8425 -4.7186518 -72.441673 -200 45 -200 45 -200 45
3678729171.5286 -4.7245164 -72.567833 -200 45 -200 45 -200 45
3679729288.2147 -4.7295117 -72.692284 -200 45 -200 45 -200 45
3680729404.9008 -4.7378283 -72.816628 -200 45 -200 45 -200 45
3681729521.5869 -4.7393527 -72.953194 -200 45 -200 45 -200 45
3682729638.273 -4.7432771 -73.092407 -200 45 -200 45 -200 45
3683729754.9592 -4.7454824 -73.219902 -200 45 -200 45 -200 45
3684729871.6453 -4.7450266 -73.34552 -200 45 -200 45 -200 45
3685729988.3314 -4.7489867 -73.483849 -200 45 -200 45 -200 45
3686730105.0175 -4.7470574 -73.605957 -200 45 -200 45 -200 45
3687730221.7036 -4.7481904 -73.700142 -200 45 -200 45 -200 45
3688730338.3897 -4.7539148 -73.830688 -200 45 -200 45 -200 45
3689730455.0758 -4.7516294 -73.914604 -200 45 -200 45 -200 45
3690730571.762 -4.7511826 -74.021263 -200 45 -200 45 -200 45
3691730688.4481 -4.7504954 -74.121407 -200 45 -200 45 -200 45
3692730805.1342 -4.7468462 -74.207932 -200 45 -200 45 -200 45
3693730921.8203 -4.7480965 -74.301193 -200 45 -200 45 -200 45
3694731038.5064 -4.7485747 -74.381096 -200 45 -200 45 -200 45
3695731155.1925 -4.74472 -74.430176 -200 45 -200 45 -200 45
3696731271.8786 -4.7454643 -74.501251 -200 45 -200 45 -200 45
3697731388.5648 -4.7448707 -74.558777 -200 45 -200 45 -200 45
3698731505.2509 -4.7467403 -74.613571 -200 45 -200 45 -200 45
3699731621.937 -4.7479277 -74.63913 -200 45 -200 45 -200 45
3700731738.6231 -4.7488933 -74.680016 -200 45 -200 45 -200 45
3701731855.3092 -4.7511239 -74.68013 -200 45 -200 45 -200 45
3702731971.9953 -4.756228 -74.673134 -200 45 -200 45 -200 45
3703732088.6814 -4.7642198 -74.680656 -200 45 -200 45 -200 45
3704732205.3676 -4.7716999 -74.644783 -200 45 -200 45 -200 45
3705732322.0537 -4.7827711 -74.620522 -200 45 -200 45 -200 45
3706732438.7398 -4.7897115 -74.540695 -200 45 -200 45 -200 45
3707732555.4259 -4.8006744 -74.464066 -200 45 -200 45 -200 45
3708732672.112 -4.8190336 -74.376373 -200 45 -200 45 -200 45
3709732788.7981 -4.8325448 -74.241096 -200 45 -200 45 -200 45
3710732905.4842 -4.8531566 -74.076286 -200 45 -200 45 -200 45
3711733022.1704 -4.8692379 -73.913795 -200 45 -200 45 -200 45
3712733138.8565 -4.8851981 -73.698494 -200 45 -200 45 -200 45
3713733255.5426 -4.9066463 -73.453781 -200 45 -200 45 -200 45
3714733372.2287 -4.9323225 -73.178658 -200 45 -200 45 -200 45
3715733488.9148 -4.9471178 -72.839157 -200 45 -200 45 -200 45
3716733605.6009 -4.9557729 -72.456474 -200 45 -200 45 -200 45
3717733722.287 -4.9627485 -72.044289 -200 45 -200 45 -200 45
3718733838.9732 -4.9576721 -71.634743 -200 45 -200 45 -200 45
3719733955.6593 -4.9442258 -71.231384 -200 45 -200 45 -200 45
3720734072.3454 -4.9215822 -70.892143 -200 45 -200 45 -200 45
3721734189.0315 -4.9051976 -70.585434 -200 45 -200 45 -200 45
3722734305.7176 -4.8848009 -70.315643 -200 45 -200 45 -200 45
3723734422.4037 -4.8754764 -70.080009 -200 45 -200 45 -200 45
3724734539.0898 -4.8690352 -69.836945 -200 45 -200 45 -200 45
3725734655.776 -4.8626227 -69.566109 -200 45 -200 45 -200 45
3726734772.4621 -4.8596115 -69.304855 -200 45 -200 45 -200 45
3727734889.1482 -4.8547297 -68.980736 -200 45 -200 45 -200 45
3728735005.8343 -4.8386846 -68.64904 -200 45 -200 45 -200 45
3729735122.5204 -4.8227515 -68.339798 -200 45 -200 45 -200 45
3730735239.2065 -4.8030672 -68.041824 -200 45 -200 45 -200 45
3731735355.8926 -4.7784128 -67.773796 -200 45 -200 45 -200 45
3732735472.5788 -4.746057 -67.572327 -200 45 -200 45 -200 45
3733735589.2649 -4.7171745 -67.401932 -200 45 -200 45 -200 45
3734735705.951 -4.6928501 -67.225739 -200 45 -200 45 -200 45
3735735822.6371 -4.6672144 -67.12812 -200 45 -200 45 -200 45
3736735939.3232 -4.6438942 -67.005127 -200 45 -200 45 -200 45
3737736056.0093 -4.6210032 -66.94577 -200 45 -200 45 -200 45
3738736172.6954 -4.5987377 -66.868767 -200 45 -200 45 -200 45
3739736289.3816 -4.5745387 -66.832199 -200 45 -200 45 -200 45
3740736406.0677 -4.5558915 -66.826157 -200 45 -200 45 -200 45
3741736522.7538 -4.5355244 -66.826561 -200 45 -200 45 -200 45
3742736639.4399 -4.5202742 -66.874138 -200 45 -200 45 -200 45
3743736756.126 -4.5065989 -66.897072 -200 45 -200 45 -200 45
3744736872.8121 -4.4928493 -66.956642 -200 45 -200 45 -200 45
3745736989.4983 -4.4804673 -67.03112 -200 45 -200 45 -200 45
3746737106.1844 -4.4657493 -67.105598 -200 45 -200 45 -200 45
3747737222.8705 -4.4559984 -67.217667 -200 45 -200 45 -200 45
3748737339.5566 -4.4439855 -67.322746 -200 45 -200 45 -200 45
3749737456.2427 -4.4362435 -67.463043 -200 45 -200 45 -200 45
3750737572.9288 -4.4284401 -67.588524 -200 45 -200 45 -200 45
3751737689.6149 -4.4199719 -67.729965 -200 45 -200 45 -200 45
3752737806.3011 -4.4108629 -67.872276 -200 45 -200 45 -200 45
3753737922.9872 -4.4037237 -68.053078 -200 45 -200 45 -200 45
3754738039.6733 -4.3983111 -68.213318 -200 45 -200 45 -200 45
3755738156.3594 -4.3926134 -68.388313 -200 45 -200 45 -200 45
3756738273.0455 -4.383666 -68.595947 -200 45 -200 45 -200 45
3757738389.7316 -4.375236 -68.792404 -200 45 -200 45 -200 45
3758738506.4177 -4.3647437 -69.009361 -200 45 -200 45 -200 45
3759738623.1039 -4.3556962 -69.261108 -200 45 -200 45 -200 45
3760738739.79 -4.3532987 -69.528992 -200 45 -200 45 -200 45
3761738856.4761 -4.3492675 -69.801468 -200 45 -200 45 -200 45
3762738973.1622 -4.3487644 -70.06517 -200 45 -200 45 -200 45
3763739089.8483 -4.351758 -70.327271 -200 45 -200 45 -200 45
3764739206.5344 -4.3560915 -70.571281 -200 45 -200 45 -200 45
3765739323.2205 -4.3613806 -70.812187 -200 45 -200 45 -200 45
3766739439.9067 -4.3716369 -71.015335 -200 45 -200 45 -200 45
3767739556.5928 -4.3724842 -71.170181 -200 45 -200 45 -200 45
3768739673.2789 -4.373332 -71.349579 -200 45 -200 45 -200 45
3769739789.965 -4.3749118 -71.512894 -200 45 -200 45 -200 45
3770739906.6511 -4.3730092 -71.669189 -200 45 -200 45 -200 45
3771740023.3372 -4.3646045 -71.812477 -200 45 -200 45 -200 45
3772740140.0233 -4.3604569 -71.995949 -200 45 -200 45 -200 45
3773740256.7095 -4.3542418 -72.152527 -200 45 -200 45 -200 45
3774740373.3956 -4.3494825 -72.337326 -200 45 -200 45 -200 45
3775740490.0817 -4.3432865 -72.50663 -200 45 -200 45 -200 45
3776740606.7678 -4.3422294 -72.65136 -200 45 -200 45 -200 45
3777740723.4539 -4.3432956 -72.793205 -200 45 -200 45 -200 45
3778740840.14 -4.3452325 -72.911461 -200 45 -200 45 -200 45
3779740956.8261 -4.3427286 -73.018066 -200 45 -200 45 -200 45
3780741073.5123 -4.3453708 -73.093597 -200 45 -200 45 -200 45
3781741190.1984 -4.346015 -73.147057 -200 45 -200 45 -200 45
3782741306.8845 -4.3449402 -73.175743 -200 45 -200 45 -200 45
3783741423.5706 -4.348001 -73.184593 -200 45 -200 45 -200 45
3784741540.2567 -4.349031 -73.166618 -200 45 -200 45 -200 45
3785741656.9428 -4.3430028 -73.110962 -200 45 -200 45 -200 45
3786741773.6289 -4.3384337 -73.034409 -200 45 -200 45 -200 45
3787741890.3151 -4.3285685 -72.953156 -200 45 -200 45 -200 45
3788742007.0012 -4.3141437 -72.826035 -200 45 -200 45 -200 45
3789742123.6873 -4.2965202 -72.720634 -200 45 -200 45 -200 45
3790742240.3734 -4.2735147 -72.603798 -200 45 -200 45 -200 45
3791742357.0595 -4.2482066 -72.532852 -200 45 -200 45 -200 45
3792742473.7456 -4.2177787 -72.472931 -200 45 -200 45 -200 45
3793742590.4317 -4.1893835 -72.472664 -200 45 -200 45 -200 45
3794742707.1179 -4.1698961 -72.445038 -200 45 -200 45 -200 45
3795742823.804 -4.1460075 -72.432442 -200 45 -200 45 -200 45
3796742940.4901 -4.1300564 -72.431229 -200 45 -200 45 -200 45
3797743057.1762 -4.1133137 -72.4058 -200 45 -200 45 -200 45
3798743173.8623 -4.0990357 -72.393303 -200 45 -200 45 -200 45
3799743290.5484 -4.0871048 -72.365189 -200 45 -200 45 -200 45
3800743407.2345 -4.0783334 -72.330559 -200 45 -200 45 -200 45
3801743523.9207 -4.0716372 -72.321877 -200 45 -200 45 -200 45
3802743640.6068 -4.0582108 -72.282578 -200 45 -200 45 -200 45
3803743757.2929 -4.0553756 -72.23893 -200 45 -200 45 -200 45
3804743873.979 -4.054152 -72.169289 -200 45 -200 45 -200 45
3805743990.6651 -4.0522723 -72.099815 -200 45 -200 45 -200 45
3806744107.3512 -4.0502696 -72.024498 -200 45 -200 45 -200 45
3807744224.0373 -4.0459247 -71.943794 -200 45 -200 45 -200 45
3808744340.7235 -4.0390348 -71.842827 -200 45 -200 45 -200 45
3809744457.4096 -4.0326786 -71.790215 -200 45 -200 45 -200 45
3810744574.0957 -4.0258512 -71.754372 -200 45 -200 45 -200 45
3811744690.7818 -4.0187182 -71.718735 -200 45 -200 45 -200 45
3812744807.4679 -4.0125728 -71.722969 -200 45 -200 45 -200 45
3813744924.154 -4.0115261 -71.726242 -200 45 -200 45 -200 45
3814745040.8401 -4.018826 -71.738777 -200 45 -200 45 -200 45
3815745157.5263 -4.0290804 -71.763611 -200 45 -200 45 -200 45
3816745274.2124 -4.0347471 -71.772911 -200 45 -200 45 -200 45
3817745390.8985 -4.0475521 -71.77034 -200 45 -200 45 -200 45
3818745507.5846 -4.0616169 -71.759758 -200 45 -200 45 -200 45
3819745624.2707 -4.0763383 -71.744835 -200 45 -200 45 -200 45
3820745740.9568 -4.0921693 -71.72065 -200 45 -200 45 -200 45
3821745857.6429 -4.1041045 -71.673424 -200 45 -200 45 -200 45
3822745974.3291 -4.1169238 -71.680695 -200 45 -200 45 -200 45
3823746091.0152 -4.1292925 -71.665054 -200 45 -200 45 -200 45
3824746207.7013 -4.1363254 -71.648773 -200 45 -200 45 -200 45
3825746324.3874 -4.1466498 -71.664154 -200 45 -200 45 -200 45
3826746441.0735 -4.1537018 -71.687309 -200 45 -200 45 -200 45
3827746557.7596 -4.166357 -71.730644 -200 45 -200 45 -200 45
3828746674.4457 -4.1737814 -71.776917 -200 45 -200 45 -200 45
3829746791.1319 -4.1856761 -71.850906 -200 45 -200 45 -200 45
3830746907.818 -4.2009597 -71.918785 -200 45 -200 45 -200 45
3831747024.5041 -4.2143145 -71.966835 -200 45 -200 45 -200 45
3832747141.1902 -4.2274747 -72.065201 -200 45 -200 45 -200 45
3833747257.8763 -4.2383308 -72.155197 -200 45 -200 45 -200 45
3834747374.5624 -4.2516427 -72.229309 -200 45 -200 45 -200 45
3835747491.2485 -4.2633948 -72.345749 -200 45 -200 45 -200 45
3836747607.9347 -4.2763348 -72.449608 -200 45 -200 45 -200 45
3837747724.6208 -4.2910471 -72.559189 -200 45 -200 45 -200 45
3838747841.3069 -4.3002348 -72.683548 -200 45 -200 45 -200 45
3839747957.993 -4.3101296 -72.802475 -200 45 -200 45 -200 45
3840748074.6791 -4.3213434 -72.933105 -200 45 -200 45 -200 45
3841748191.3652 -4.3324432 -73.064438 -200 45 -200 45 -200 45
3842748308.0513 -4.3445001 -73.197632 -200 45 -200 45 -200 45
3843748424.7375 -4.3509302 -73.343597 -200 45 -200 45 -200 45
3844748541.4236 -4.3584447 -73.471359 -200 45 -200 45 -200 45
3845748658.1097 -4.3657832 -73.630882 -200 45 -200 45 -200 45
3846748774.7958 -4.3709588 -73.789375 -200 45 -200 45 -200 45
3847748891.4819 -4.374598 -73.916039 -200 45 -200 45 -200 45
3848749008.168 -4.3801017 -74.069206 -200 45 -200 45 -200 45
3849749124.8541 -4.3834634 -74.20726 -200 45 -200 45 -200 45
3850749241.5403 -4.3864789 -74.356499 -200 45 -200 45 -200 45
3851749358.2264 -4.38937 -74.498947 -200 45 -200 45 -200 45
3852749474.9125 -4.3905759 -74.640465 -200 45 -200 45 -200 45
3853749591.5986 -4.3900628 -74.786575 -200 45 -200 45 -200 45
3854749708.2847 -4.3909421 -74.896767 -200 45 -200 45 -200 45
3855749824.9708 -4.3877602 -75.036713 -200 45 -200 45 -200 45
3856749941.6569 -4.3828621 -75.162071 -200 45 -200 45 -200 45
3857750058.3431 -4.3797388 -75.278099 -200 45 -200 45 -200 45
3858750175.0292 -4.3770013 -75.402687 -200 45 -200 45 -200 45
3859750291.7153 -4.3719077 -75.491432 -200 45 -200 45 -200 45
3860750408.4014 -4.3665342 -75.616516 -200 45 -200 45 -200 45
3861750525.0875 -4.3563509 -75.693916 -200 45 -200 45 -200 45
3862750641.7736 -4.3529038 -75.8172 -200 45 -200 45 -200 45
3863750758.4597 -4.3455291 -75.885742 -200 45 -200 45 -200 45
3864750875.1459 -4.3369145 -75.973457 -200 45 -200 45 -200 45
3865750991.832 -4.3303199 -76.01593 -200 45 -200 45 -200 45
3866751108.5181 -4.3204961 -76.098915 -200 45 -200 45 -200 45
3867751225.2042 -4.313601 -76.150589 -200 45 -200 45 -200 45
3868751341.8903 -4.3062444 -76.188141 -200 45 -200 45 -200 45
3869751458.5764 -4.2967124 -76.239029 -200 45 -200 45 -200 45
3870751575.2625 -4.2871985 -76.247902 -200 45 -200 45 -200 45
3871751691.9487 -4.2798352 -76.265694 -200 45 -200 45 -200 45
3872751808.6348 -4.2716975 -76.258896 -200 45 -200 45 -200 45
3873751925.3209 -4.2628617 -76.280518 -200 45 -200 45 -200 45
3874752042.007 -4.2543273 -76.277542 -200 45 -200 45 -200 45
3875752158.6931 -4.249733 -76.229057 -200 45 -200 45 -200 45
3876752275.3792 -4.2414541 -76.21508 -200 45 -200 45 -200 45
3877752392.0653 -4.2319875 -76.194603 -200 45 -200 45 -200 45
3878752508.7515 -4.22543 -76.136955 -200 45 -200 45 -200 45
3879752625.4376 -4.2203817 -76.080208 -200 45 -200 45 -200 45
3880752742.1237 -4.2168803 -76.035545 -200 45 -200 45 -200 45
3881752858.8098 -4.2122231 -75.971329 -200 45 -200 45 -200 45
3882752975.4959 -4.2034993 -75.892776 -200 45 -200 45 -200 45
3883753092.182 -4.2029195 -75.81263 -200 45 -200 45 -200 45
3884753208.8681 -4.1989141 -75.733513 -200 45 -200 45 -200 45
3885753325.5543 -4.1994085 -75.652496 -200 45 -200 45 -200 45
3886753442.2404 -4.1969299 -75.573441 -200 45 -200 45 -200 45
3887753558.9265 -4.194963 -75.458977 -200 45 -200 45 -200 45
3888753675.6126 -4.1915641 -75.402138 -200 45 -200 45 -200 45
3889753792.2987 -4.1949229 -75.28595 -200 45 -200 45 -200 45
3890753908.9848 -4.1915283 -75.178978 -200 45 -200 45 -200 45
3891754025.6709 -4.1957521 -75.095215 -200 45 -200 45 -200 45
3892754142.3571 -4.1984615 -74.997078 -200 45 -200 45 -200 45
3893754259.0432 -4.2005801 -74.893127 -200 45 -200 45 -200 45
3894754375.7293 -4.2055979 -74.79528 -200 45 -200 45 -200 45
3895754492.4154 -4.20994 -74.684479 -200 45 -200 45 -200 45
3896754609.1015 -4.2161188 -74.585075 -200 45 -200 45 -200 45
3897754725.7876 -4.2215462 -74.504227 -200 45 -200 45 -200 45
3898754842.4737 -4.228013 -74.417816 -200 45 -200 45 -200 45
3899754959.1599 -4.2354617 -74.325195 -200 45 -200 45 -200 45
3900755075.846 -4.2423978 -74.246674 -200 45 -200 45 -200 45
3901755192.5321 -4.2513323 -74.16861 -200 45 -200 45 -200 45
3902755309.2182 -4.2615194 -74.100883 -200 45 -200 45 -200 45
3903755425.9043 -4.2709336 -74.028961 -200 45 -200 45 -200 45
3904755542.5904 -4.2805171 -73.986458 -200 45 -200 45 -200 45
3905755659.2765 -4.2913022 -73.928253 -200 45 -200 45 -200 45
3906755775.9627 -4.3001781 -73.86042 -200 45 -200 45 -200 45
3907755892.6488 -4.3118238 -73.845604 -200 45 -200 45 -200 45
3908756009.3349 -4.3231235 -73.821556 -200 45 -200 45 -200 45
3909756126.021 -4.3358998 -73.784081 -200 45 -200 45 -200 45
3910756242.7071 -4.3489146 -73.787453 -200 45 -200 45 -200 45
3911756359.3932 -4.3614812 -73.793571 -200 45 -200 45 -200 45
3912756476.0793 -4.3701892 -73.767426 -200 45 -200 45 -200 45
3913756592.7655 -4.3867664 -73.793266 -200 45 -200 45 -200 45
3914756709.4516 -4.3969736 -73.803337 -200 45 -200 45 -200 45
3915756826.1377 -4.4090738 -73.843719 -200 45 -200 45 -200 45
3916756942.8238 -4.4214621 -73.865509 -200 45 -200 45 -200 45
3917757059.5099 -4.4349327 -73.935417 -200 45 -200 45 -200 45
3918757176.196 -4.4497313 -73.981628 -200 45 -200 45 -200 45
3919757292.8821 -4.4568915 -74.068108 -200 45 -200 45 -200 45
3920757409.5683 -4.4692092 -74.118492 -200 45 -200 45 -200 45
3921757526.2544 -4.4789824 -74.231636 -200 45 -200 45 -200 45
3922757642.9405 -4.4908533 -74.311195 -200 45 -200 45 -200 45
3923757759.6266 -4.499557 -74.406639 -200 45 -200 45 -200 45
3924757876.3127 -4.504889 -74.517166 -200 45 -200 45 -200 45
3925757992.9988 -4.5154285 -74.61657 -200 45 -200 45 -200 45
3926758109.6849 -4.5229845 -74.730324 -200 45 -200 45 -200 45
3927758226.3711 -4.5306344 -74.854111 -200 45 -200 45 -200 45
3928758343.0572 -4.5366273 -74.981361 -200 45 -200 45 -200 45
3929758459.7433 -4.5391788 -75.113968 -200 45 -200 45 -200 45
3930758576.4294 -4.5436821 -75.247147 -200 45 -200 45 -200 45
3931758693.1155 -4.5492868 -75.391754 -200 45 -200 45 -200 45
3932758809.8016 -4.551486 -75.533943 -200 45 -200 45 -200 45
3933758926.4877 -4.5550575 -75.688896 -200 45 -200 45 -200 45
3934759043.1739 -4.5562415 -75.83403 -200 45 -200 45 -200 45
3935759159.86 -4.5549545 -75.966049 -200 45 -200 45 -200 45
3936759276.5461 -4.5557003 -76.09845 -200 45 -200 45 -200 45
3937759393.2322 -4.5557685 -76.235291 -200 45 -200 45 -200 45
3938759509.9183 -4.5543995 -76.400917 -200 45 -200 45 -200 45
3939759626.6044 -4.5467257 -76.495537 -200 45 -200 45 -200 45
3940759743.2905 -4.5436935 -76.630424 -200 45 -200 45 -200 45
3941759859.9767 -4.5384278 -76.785515 -200 45 -200 45 -200 45
3942759976.6628 -4.5341053 -76.892258 -200 45 -200 45 -200 45
3943760093.3489 -4.5298586 -77.016823 -200 45 -200 45 -200 45
3944760210.035 -4.5215702 -77.130646 -200 45 -200 45 -200 45
3945760326.7211 -4.5130396 -77.252739 -200 45 -200 45 -200 45
3946760443.4072 -4.5061679 -77.310715 -200 45 -200 45 -200 45
3947760560.0933 -4.5017004 -77.437531 -200 45 -200 45 -200 45
3948760676.7795 -4.4916205 -77.514023 -200 45 -200 45 -200 45
3949760793.4656 -4.4850941 -77.584236 -200 45 -200 45 -200 45
3950760910.1517 -4.476079 -77.642418 -200 45 -200 45 -200 45
3951761026.8378 -4.4676113 -77.711426 -200 45 -200 45 -200 45
3952761143.5239 -4.4538865 -77.764305 -200 45 -200 45 -200 45
3953761260.21 -4.4454989 -77.792999 -200 45 -200 45 -200 45
3954761376.8961 -4.4382782 -77.830109 -200 45 -200 45 -200 45
3955761493.5823 -4.4289689 -77.859428 -200 45 -200 45 -200 45
3956761610.2684 -4.4189734 -77.873276 -200 45 -200 45 -200 45
3957761726.9545 -4.4101629 -77.883949 -200 45 -200 45 -200 45
3958761843.6406 -4.40096 -77.852974 -200 45 -200 45 -200 45
3959761960.3267 -4.3902521 -77.855347 -200 45 -200 45 -200 45
3960762077.0128 -4.3855162 -77.80941 -200 45 -200 45 -200 45
3961762193.6989 -4.3768487 -77.758301 -200 45 -200 45 -200 45
3962762310.3851 -4.3683987 -77.731583 -200 45 -200 45 -200 45
3963762427.0712 -4.3624568 -77.69252 -200 45 -200 45 -200 45
3964762543.7573 -4.3566575 -77.620827 -200 45 -200 45 -200 45
3965762660.4434 -4.3482065 -77.568779 -200 45 -200 45 -200 45
3966762777.1295 -4.3439078 -77.489441 -200 45 -200 45 -200 45
3967762893.8156 -4.3388357 -77.398827 -200 45 -200 45 -200 45
3968763010.5018 -4.3308563 -77.342804 -200 45 -200 45 -200 45
3969763127.1879 -4.3239069 -77.240189 -200 45 -200 45 -200 45
3970763243.874 -4.3225265 -77.154984 -200 45 -200 45 -200 45
3971763360.5601 -4.3212819 -77.073975 -200 45 -200 45 -200 45
3972763477.2462 -4.3178067 -76.987648 -200 45 -200 45 -200 45
3973763593.9323 -4.3129911 -76.892281 -200 45 -200 45 -200 45
3974763710.6184 -4.3142052 -76.795792 -200 45 -200 45 -200 45
3975763827.3046 -4.3135338 -76.67205 -200 45 -200 45 -200 45
3976763943.9907 -4.3158722 -76.593475 -200 45 -200 45 -200 45
3977764060.6768 -4.3173261 -76.500534 -200 45 -200 45 -200 45
3978764177.3629 -4.3221474 -76.394356 -200 45 -200 45 -200 45
3979764294.049 -4.3257437 -76.290909 -200 45 -200 45 -200 45
3980764410.7351 -4.3313842 -76.199051 -200 45 -200 45 -200 45
3981764527.4212 -4.3370242 -76.12014 -200 45 -200 45 -200 45
3982764644.1074 -4.3468833 -76.022789 -200 45 -200 45 -200 45
3983764760.7935 -4.3497419 -75.942749 -200 45 -200 45 -200 45
3984764877.4796 -4.3600488 -75.834862 -200 45 -200 45 -200 45
3985764994.1657 -4.3663516 -75.774834 -200 45 -200 45 -200 45
3986765110.8518 -4.3745942 -75.676437 -200 45 -200 45 -200 45
3987765227.5379 -4.3847256 -75.624428 -200 45 -200 45 -200 45
3988765344.224 -4.3959241 -75.547432 -200 45 -200 45 -200 45
3989765460.9102 -4.4033475 -75.491035 -200 45 -200 45 -200 45
3990765577.5963 -4.4169741 -75.442886 -200 45 -200 45 -200 45
3991765694.2824 -4.4272571 -75.415344 -200 45 -200 45 -200 45
3992765810.9685 -4.4400816 -75.370239 -200 45 -200 45 -200 45
3993765927.6546 -4.4531131 -75.353752 -200 45 -200 45 -200 45
3994766044.3407 -4.4645362 -75.334442 -200 45 -200 45 -200 45
3995766161.0268 -4.4788418 -75.302071 -200 45 -200 45 -200 45
3996766277.713 -4.4921775 -75.303032 -200 45 -200 45 -200 45
3997766394.3991 -4.5083065 -75.308258 -200 45 -200 45 -200 45
3998766511.0852 -4.519938 -75.328453 -200 45 -200 45 -200 45
3999766627.7713 -4.5338187 -75.365501 -200 45 -200 45 -200 45
4000766744.4574 -4.5461874 -75.401802 -200 45 -200 45 -200 45
4001766861.1435 -4.5582957 -75.442276 -200 45 -200 45 -200 45
4002766977.8296 -4.5729804 -75.4925 -200 45 -200 45 -200 45
4003767094.5158 -4.5851288 -75.55307 -200 45 -200 45 -200 45
4004767211.2019 -4.5972958 -75.634529 -200 45 -200 45 -200 45
4005767327.888 -4.6098709 -75.701462 -200 45 -200 45 -200 45
4006767444.5741 -4.6215997 -75.790596 -200 45 -200 45 -200 45
4007767561.2602 -4.6342511 -75.873909 -200 45 -200 45 -200 45
4008767677.9463 -4.6457257 -75.981514 -200 45 -200 45 -200 45
4009767794.6324 -4.654479 -76.082344 -200 45 -200 45 -200 45
4010767911.3186 -4.6669683 -76.197121 -200 45 -200 45 -200 45
4011768028.0047 -4.6723557 -76.330246 -200 45 -200 45 -200 45
4012768144.6908 -4.6809301 -76.442757 -200 45 -200 45 -200 45
4013768261.3769 -4.6927166 -76.572014 -200 45 -200 45 -200 45
4014768378.063 -4.6966271 -76.691467 -200 45 -200 45 -200 45
4015768494.7491 -4.702208 -76.824478 -200 45 -200 45 -200 45
4016768611.4352 -4.7097988 -76.96817 -200 45 -200 45 -200 45
4017768728.1214 -4.7084513 -77.110222 -200 45 -200 45 -200 45
4018768844.8075 -4.7129974 -77.254715 -200 45 -200 45 -200 45
4019768961.4936 -4.7162585 -77.401199 -200 45 -200 45 -200 45
4020769078.1797 -4.7187548 -77.539604 -200 45 -200 45 -200 45
4021769194.8658 -4.7170701 -77.677307 -200 45 -200 45 -200 45
4022769311.5519 -4.7177238 -77.794067 -200 45 -200 45 -200 45
4023769428.238 -4.7161841 -77.952385 -200 45 -200 45 -200 45
4024769544.9242 -4.7145967 -78.077873 -200 45 -200 45 -200 45
4025769661.6103 -4.7103801 -78.183784 -200 45 -200 45 -200 45
4026769778.2964 -4.7061048 -78.321068 -200 45 -200 45 -200 45
4027769894.9825 -4.7058125 -78.435417 -200 45 -200 45 -200 45
4028770011.6686 -4.7007809 -78.530754 -200 45 -200 45 -200 45
4029770128.3547 -4.6953373 -78.661194 -200 45 -200 45 -200 45
4030770245.0408 -4.6902132 -78.745026 -200 45 -200 45 -200 45
4031770361.727 -4.6862254 -78.835732 -200 45 -200 45 -200 45
4032770478.4131 -4.6762385 -78.902985 -200 45 -200 45 -200 45
4033770595.0992 -4.6696811 -79.008377 -200 45 -200 45 -200 45
4034770711.7853 -4.6620102 -79.058029 -200 45 -200 45 -200 45
4035770828.4714 -4.6548929 -79.124748 -200 45 -200 45 -200 45
4036770945.1575 -4.6464891 -79.176079 -200 45 -200 45 -200 45
4037771061.8436 -4.6374202 -79.202148 -200 45 -200 45 -200 45
4038771178.5298 -4.6318731 -79.223167 -200 45 -200 45 -200 45
4039771295.2159 -4.6215916 -79.250359 -200 45 -200 45 -200 45
4040771411.902 -4.6177382 -79.256699 -200 45 -200 45 -200 45
4041771528.5881 -4.6095872 -79.272873 -200 45 -200 45 -200 45
4042771645.2742 -4.60324 -79.247627 -200 45 -200 45 -200 45
4043771761.9603 -4.5973749 -79.244385 -200 45 -200 45 -200 45
4044771878.6464 -4.5920563 -79.224113 -200 45 -200 45 -200 45
4045771995.3326 -4.5892568 -79.1679 -200 45 -200 45 -200 45
4046772112.0187 -4.580369 -79.106392 -200 45 -200 45 -200 45
4047772228.7048 -4.578577 -79.052177 -200 45 -200 45 -200 45
4048772345.3909 -4.5772328 -79.021347 -200 45 -200 45 -200 45
4049772462.077 -4.5717626 -78.958214 -200 45 -200 45 -200 45
4050772578.7631 -4.5700269 -78.836945 -200 45 -200 45 -200 45
4051772695.4492 -4.5689597 -78.756424 -200 45 -200 45 -200 45
4052772812.1354 -4.5705142 -78.67347 -200 45 -200 45 -200 45
4053772928.8215 -4.5690746 -78.538643 -200 45 -200 45 -200 45
4054773045.5076 -4.5714955 -78.454536 -200 45 -200 45 -200 45
4055773162.1937 -4.5748658 -78.335258 -200 45 -200 45 -200 45
4056773278.8798 -4.5759063 -78.192749 -200 45 -200 45 -200 45
4057773395.5659 -4.5815167 -78.063019 -200 45 -200 45 -200 45
4058773512.252 -4.5866599 -77.907799 -200 45 -200 45 -200 45
4059773628.9382 -4.5910053 -77.7742 -200 45 -200 45 -200 45
4060773745.6243 -4.5981541 -77.623062 -200 45 -200 45 -200 45
4061773862.3104 -4.6038313 -77.484909 -200 45 -200 45 -200 45
4062773978.9965 -4.6068811 -77.33773 -200 45 -200 45 -200 45
4063774095.6826 -4.6134191 -77.212868 -200 45 -200 45 -200 45
4064774212.3687 -4.6222906 -77.08075 -200 45 -200 45 -200 45
4065774329.0548 -4.6281128 -76.946053 -200 45 -200 45 -200 45
4066774445.741 -4.6392407 -76.805161 -200 45 -200 45 -200 45
4067774562.4271 -4.6469154 -76.71553 -200 45 -200 45 -200 45
4068774679.1132 -4.6588469 -76.588753 -200 45 -200 45 -200 45
4069774795.7993 -4.6732321 -76.488571 -200 45 -200 45 -200 45
4070774912.4854 -4.6878324 -76.38179 -200 45 -200 45 -200 45
4071775029.1715 -4.7052383 -76.264267 -200 45 -200 45 -200 45
4072775145.8576 -4.7269306 -76.157654 -200 45 -200 45 -200 45
4073775262.5438 -4.7483287 -76.061417 -200 45 -200 45 -200 45
4074775379.2299 -4.7700949 -75.978897 -200 45 -200 45 -200 45
4075775495.916 -4.7945294 -75.862747 -200 45 -200 45 -200 45
4076775612.6021 -4.8233762 -75.738602 -200 45 -200 45 -200 45
4077775729.2882 -4.8509459 -75.644379 -200 45 -200 45 -200 45
4078775845.9743 -4.8794718 -75.536133 -200 45 -200 45 -200 45
4079775962.6604 -4.9109731 -75.392349 -200 45 -200 45 -200 45
4080776079.3466 -4.9376874 -75.251511 -200 45 -200 45 -200 45
4081776196.0327 -4.9695778 -75.077744 -200 45 -200 45 -200 45
4082776312.7188 -4.9959979 -74.877937 -200 45 -200 45 -200 45
4083776429.4049 -5.019001 -74.663422 -200 45 -200 45 -200 45
4084776546.091 -5.0354629 -74.457771 -200 45 -200 45 -200 45
4085776662.7771 -5.0504718 -74.223984 -200 45 -200 45 -200 45
4086776779.4632 -5.0594311 -73.981979 -200 45 -200 45 -200 45
4087776896.1494 -5.0596194 -73.732452 -200 45 -200 45 -200 45
4088777012.8355 -5.0543733 -73.540543 -200 45 -200 45 -200 45
4089777129.5216 -5.0451822 -73.352661 -200 45 -200 45 -200 45
4090777246.2077 -5.0263071 -73.234802 -200 45 -200 45 -200 45
4091777362.8938 -5.0113544 -73.11026 -200 45 -200 45 -200 45
4092777479.5799 -4.9877019 -73.00219 -200 45 -200 45 -200 45
4093777596.266 -4.9607582 -72.934845 -200 45 -200 45 -200 45
4094777712.9522 -4.9269462 -72.887466 -200 45 -200 45 -200 45
4095777829.6383 -4.8924727 -72.904602 -200 45 -200 45 -200 45
4096777946.3244 -4.8505359 -72.968788 -200 45 -200 45 -200 45
4097778063.0105 -4.8153415 -73.068466 -200 45 -200 45 -200 45
4098778179.6966 -4.7730889 -73.230568 -200 45 -200 45 -200 45
4099778296.3827 -4.7381501 -73.412567 -200 45 -200 45 -200 45
4100778413.0688 -4.7014418 -73.627213 -200 45 -200 45 -200 45
4101778529.755 -4.6711712 -73.876198 -200 45 -200 45 -200 45
4102778646.4411 -4.6411405 -74.136162 -200 45 -200 45 -200 45
4103778763.1272 -4.6118774 -74.416267 -200 45 -200 45 -200 45
4104778879.8133 -4.5901647 -74.723671 -200 45 -200 45 -200 45
4105778996.4994 -4.5649114 -75.002808 -200 45 -200 45 -200 45
4106779113.1855 -4.5493584 -75.30558 -200 45 -200 45 -200 45
4107779229.8716 -4.5319562 -75.60125 -200 45 -200 45 -200 45
4108779346.5578 -4.5161028 -75.865601 -200 45 -200 45 -200 45
4109779463.2439 -4.5030403 -76.150009 -200 45 -200 45 -200 45
4110779579.93 -4.4905791 -76.395386 -200 45 -200 45 -200 45
4111779696.6161 -4.4798036 -76.651329 -200 45 -200 45 -200 45
4112779813.3022 -4.4665937 -76.879684 -200 45 -200 45 -200 45
4113779929.9883 -4.4514933 -77.099007 -200 45 -200 45 -200 45
4114780046.6744 -4.4407668 -77.303467 -200 45 -200 45 -200 45
4115780163.3606 -4.4265924 -77.51722 -200 45 -200 45 -200 45
4116780280.0467 -4.4187655 -77.709969 -200 45 -200 45 -200 45
4117780396.7328 -4.4055033 -77.8881 -200 45 -200 45 -200 45
4118780513.4189 -4.395546 -78.043495 -200 45 -200 45 -200 45
4119780630.105 -4.3880053 -78.187698 -200 45 -200 45 -200 45
4120780746.7911 -4.3766222 -78.324745 -200 45 -200 45 -200 45
4121780863.4772 -4.3708529 -78.432732 -200 45 -200 45 -200 45
4122780980.1634 -4.3615131 -78.498497 -200 45 -200 45 -200 45
4123781096.8495 -4.3485665 -78.614624 -200 45 -200 45 -200 45
4124781213.5356 -4.3371577 -78.674026 -200 45 -200 45 -200 45
4125781330.2217 -4.322772 -78.718552 -200 45 -200 45 -200 45
4126781446.9078 -4.3092818 -78.777321 -200 45 -200 45 -200 45
4127781563.5939 -4.3013582 -78.822746 -200 45 -200 45 -200 45
4128781680.28 -4.2889247 -78.86544 -200 45 -200 45 -200 45
4129781796.9662 -4.2770662 -78.882027 -200 45 -200 45 -200 45
4130781913.6523 -4.266717 -78.906754 -200 45 -200 45 -200 45
4131782030.3384 -4.256176 -78.919746 -200 45 -200 45 -200 45
4132782147.0245 -4.2479181 -78.939575 -200 45 -200 45 -200 45
4133782263.7106 -4.2405114 -78.956543 -200 45 -200 45 -200 45
4134782380.3967 -4.2343016 -78.95668 -200 45 -200 45 -200 45
4135782497.0828 -4.2304635 -78.942162 -200 45 -200 45 -200 45
4136782613.769 -4.2310324 -78.920113 -200 45 -200 45 -200 45
4137782730.4551 -4.2293949 -78.891708 -200 45 -200 45 -200 45
4138782847.1412 -4.2277751 -78.835205 -200 45 -200 45 -200 45
4139782963.8273 -4.2334299 -78.799248 -200 45 -200 45 -200 45
4140783080.5134 -4.2325735 -78.68824 -200 45 -200 45 -200 45
4141783197.1995 -4.238924 -78.634926 -200 45 -200 45 -200 45
4142783313.8856 -4.2389197 -78.557098 -200 45 -200 45 -200 45
4143783430.5718 -4.2443538 -78.481491 -200 45 -200 45 -200 45
4144783547.2579 -4.2443113 -78.388649 -200 45 -200 45 -200 45
4145783663.944 -4.25247 -78.311531 -200 45 -200 45 -200 45
4146783780.6301 -4.25524 -78.213806 -200 45 -200 45 -200 45
4147783897.3162 -4.2623305 -78.118736 -200 45 -200 45 -200 45
4148784014.0023 -4.2681389 -77.99379 -200 45 -200 45 -200 45
4149784130.6884 -4.2792716 -77.93132 -200 45 -200 45 -200 45
4150784247.3746 -4.2879491 -77.832497 -200 45 -200 45 -200 45
4151784364.0607 -4.2961197 -77.732925 -200 45 -200 45 -200 45
4152784480.7468 -4.3073425 -77.644348 -200 45 -200 45 -200 45
4153784597.4329 -4.3141174 -77.547218 -200 45 -200 45 -200 45
4154784714.119 -4.3275566 -77.481865 -200 45 -200 45 -200 45
4155784830.8051 -4.3418312 -77.41748 -200 45 -200 45 -200 45
4156784947.4912 -4.3535943 -77.354614 -200 45 -200 45 -200 45
4157785064.1774 -4.3669672 -77.273926 -200 45 -200 45 -200 45
4158785180.8635 -4.3821712 -77.220665 -200 45 -200 45 -200 45
4159785297.5496 -4.3960047 -77.154091 -200 45 -200 45 -200 45
4160785414.2357 -4.4122562 -77.133446 -200 45 -200 45 -200 45
4161785530.9218 -4.4261246 -77.089043 -200 45 -200 45 -200 45
4162785647.6079 -4.4409294 -77.053894 -200 45 -200 45 -200 45
4163785764.294 -4.456449 -77.040833 -200 45 -200 45 -200 45
4164785880.9802 -4.4716153 -77.020714 -200 45 -200 45 -200 45
4165785997.6663 -4.4895787 -77.024704 -200 45 -200 45 -200 45
4166786114.3524 -4.5033011 -77.020256 -200 45 -200 45 -200 45
4167786231.0385 -4.5183287 -77.042313 -200 45 -200 45 -200 45
4168786347.7246 -4.5351543 -77.0569 -200 45 -200 45 -200 45
4169786464.4107 -4.5509939 -77.110435 -200 45 -200 45 -200 45
4170786581.0968 -4.5659757 -77.147041 -200 45 -200 45 -200 45
4171786697.783 -4.5819507 -77.217323 -200 45 -200 45 -200 45
4172786814.4691 -4.5941753 -77.26136 -200 45 -200 45 -200 45
4173786931.1552 -4.6115642 -77.348442 -200 45 -200 45 -200 45
4174787047.8413 -4.6227536 -77.418304 -200 45 -200 45 -200 45
4175787164.5274 -4.6374922 -77.506538 -200 45 -200 45 -200 45
4176787281.2135 -4.6479869 -77.605522 -200 45 -200 45 -200 45
4177787397.8997 -4.6630416 -77.715698 -200 45 -200 45 -200 45
4178787514.5858 -4.6729116 -77.841095 -200 45 -200 45 -200 45
4179787631.2719 -4.6823411 -77.943626 -200 45 -200 45 -200 45
4180787747.958 -4.6914458 -78.082092 -200 45 -200 45 -200 45
4181787864.6441 -4.7030063 -78.208847 -200 45 -200 45 -200 45
4182787981.3302 -4.7101588 -78.346703 -200 45 -200 45 -200 45
4183788098.0163 -4.715251 -78.480797 -200 45 -200 45 -200 45
4184788214.7025 -4.7238183 -78.639893 -200 45 -200 45 -200 45
4185788331.3886 -4.7259612 -78.788689 -200 45 -200 45 -200 45
4186788448.0747 -4.7326035 -78.931267 -200 45 -200 45 -200 45
4187788564.7608 -4.7375031 -79.085236 -200 45 -200 45 -200 45
4188788681.4469 -4.7342024 -79.202988 -200 45 -200 45 -200 45
4189788798.133 -4.7383637 -79.356339 -200 45 -200 45 -200 45
4190788914.8191 -4.7389722 -79.527298 -200 45 -200 45 -200 45
4191789031.5053 -4.7395172 -79.668633 -200 45 -200 45 -200 45
4192789148.1914 -4.7331176 -79.82106 -200 45 -200 45 -200 45
4193789264.8775 -4.7311649 -79.945442 -200 45 -200 45 -200 45
4194789381.5636 -4.7275515 -80.080513 -200 45 -200 45 -200 45
4195789498.2497 -4.7216563 -80.222076 -200 45 -200 45 -200 45
4196789614.9358 -4.7154956 -80.350479 -200 45 -200 45 -200 45
4197789731.6219 -4.706563 -80.453896 -200 45 -200 45 -200 45
4198789848.3081 -4.7015986 -80.569901 -200 45 -200 45 -200 45
4199789964.9942 -4.6983314 -80.677155 -200 45 -200 45 -200 45
4200790081.6803 -4.6850557 -80.76593 -200 45 -200 45 -200 45
4201790198.3664 -4.6754379 -80.862823 -200 45 -200 45 -200 45
4202790315.0525 -4.6699915 -80.925377 -200 45 -200 45 -200 45
4203790431.7386 -4.6622953 -80.995148 -200 45 -200 45 -200 45
4204790548.4247 -4.6528807 -81.043343 -200 45 -200 45 -200 45
4205790665.1109 -4.6403151 -81.093361 -200 45 -200 45 -200 45
4206790781.797 -4.6273112 -81.125153 -200 45 -200 45 -200 45
4207790898.4831 -4.6197228 -81.151611 -200 45 -200 45 -200 45
4208791015.1692 -4.6093798 -81.175346 -200 45 -200 45 -200 45
4209791131.8553 -4.6012912 -81.169792 -200 45 -200 45 -200 45
4210791248.5414 -4.5849638 -81.179794 -200 45 -200 45 -200 45
4211791365.2275 -4.5773878 -81.149834 -200 45 -200 45 -200 45
4212791481.9137 -4.5672331 -81.129845 -200 45 -200 45 -200 45
4213791598.5998 -4.5580602 -81.09005 -200 45 -200 45 -200 45
4214791715.2859 -4.5474639 -81.022545 -200 45 -200 45 -200 45
4215791831.972 -4.5383577 -80.979462 -200 45 -200 45 -200 45
4216791948.6581 -4.5303493 -80.914719 -200 45 -200 45 -200 45
4217792065.3442 -4.5224981 -80.825951 -200 45 -200 45 -200 45
4218792182.0303 -4.5132103 -80.7715 -200 45 -200 45 -200 45
4219792298.7165 -4.5128474 -80.662476 -200 45 -200 45 -200 45
4220792415.4026 -4.5037971 -80.557053 -200 45 -200 45 -200 45
4221792532.0887 -4.4964733 -80.453987 -200 45 -200 45 -200 45
4222792648.7748 -4.4942875 -80.339874 -200 45 -200 45 -200 45
4223792765.4609 -4.4879808 -80.242607 -200 45 -200 45 -200 45
4224792882.147 -4.4879012 -80.123177 -200 45 -200 45 -200 45
4225792998.8331 -4.4876413 -80.004646 -200 45 -200 45 -200 45
4226793115.5193 -4.4859509 -79.869209 -200 45 -200 45 -200 45
4227793232.2054 -4.4858975 -79.741615 -200 45 -200 45 -200 45
4228793348.8915 -4.4892488 -79.609291 -200 45 -200 45 -200 45
4229793465.5776 -4.490581 -79.467033 -200 45 -200 45 -200 45
4230793582.2637 -4.4973845 -79.323669 -200 45 -200 45 -200 45
4231793698.9498 -4.5015349 -79.162567 -200 45 -200 45 -200 45
4232793815.6359 -4.5095215 -79.014549 -200 45 -200 45 -200 45
4233793932.3221 -4.5161648 -78.845818 -200 45 -200 45 -200 45
4234794049.0082 -4.5207677 -78.683708 -200 45 -200 45 -200 45
4235794165.6943 -4.5301762 -78.518341 -200 45 -200 45 -200 45
4236794282.3804 -4.5360379 -78.343208 -200 45 -200 45 -200 45
4237794399.0665 -4.547318 -78.187027 -200 45 -200 45 -200 45
4238794515.7526 -4.5555782 -78.029701 -200 45 -200 45 -200 45
4239794632.4387 -4.5579247 -77.858414 -200 45 -200 45 -200 45
4240794749.1249 -4.5657673 -77.714058 -200 45 -200 45 -200 45
4241794865.811 -4.5714102 -77.579582 -200 45 -200 45 -200 45
4242794982.4971 -4.574945 -77.448921 -200 45 -200 45 -200 45
4243795099.1832 -4.5777287 -77.331932 -200 45 -200 45 -200 45
4244795215.8693 -4.5855565 -77.237755 -200 45 -200 45 -200 45
4245795332.5554 -4.5886707 -77.127281 -200 45 -200 45 -200 45
4246795449.2415 -4.597784 -77.085236 -200 45 -200 45 -200 45
4247795565.9277 -4.6041675 -77.00692 -200 45 -200 45 -200 45
4248795682.6138 -4.6079187 -76.966537 -200 45 -200 45 -200 45
4249795799.2999 -4.6139164 -76.940361 -200 45 -200 45 -200 45
4250795915.986 -4.6227293 -76.931305 -200 45 -200 45 -200 45
4251796032.6721 -4.6262608 -76.913055 -200 45 -200 45 -200 45
4252796149.3582 -4.63379 -76.924629 -200 45 -200 45 -200 45
4253796266.0443 -4.6404247 -76.952644 -200 45 -200 45 -200 45
4254796382.7305 -4.6475024 -76.999405 -200 45 -200 45 -200 45
4255796499.4166 -4.6554651 -77.045517 -200 45 -200 45 -200 45
4256796616.1027 -4.6601529 -77.142776 -200 45 -200 45 -200 45
4257796732.7888 -4.6655602 -77.231102 -200 45 -200 45 -200 45
4258796849.4749 -4.6722069 -77.324509 -200 45 -200 45 -200 45
4259796966.161 -4.6811247 -77.453758 -200 45 -200 45 -200 45
4260797082.8471 -4.688529 -77.582703 -200 45 -200 45 -200 45
4261797199.5333 -4.6974907 -77.695206 -200 45 -200 45 -200 45
4262797316.2194 -4.7034631 -77.852318 -200 45 -200 45 -200 45
4263797432.9055 -4.7086239 -77.968933 -200 45 -200 45 -200 45
4264797549.5916 -4.7157989 -78.139824 -200 45 -200 45 -200 45
4265797666.2777 -4.7238393 -78.294769 -200 45 -200 45 -200 45
4266797782.9638 -4.7289009 -78.451775 -200 45 -200 45 -200 45
4267797899.6499 -4.7322764 -78.608917 -200 45 -200 45 -200 45
4268798016.3361 -4.7335801 -78.799042 -200 45 -200 45 -200 45
4269798133.0222 -4.7383761 -78.962769 -200 45 -200 45 -200 45
4270798249.7083 -4.73702 -79.153084 -200 45 -200 45 -200 45
4271798366.3944 -4.7388744 -79.317856 -200 45 -200 45 -200 45
4272798483.0805 -4.7389035 -79.507866 -200 45 -200 45 -200 45
4273798599.7666 -4.7357397 -79.69323 -200 45 -200 45 -200 45
4274798716.4527 -4.7333474 -79.872345 -200 45 -200 45 -200 45
4275798833.1389 -4.7281737 -80.03582 -200 45 -200 45 -200 45
4276798949.825 -4.7227464 -80.213783 -200 45 -200 45 -200 45
4277799066.5111 -4.7194591 -80.386063 -200 45 -200 45 -200 45
4278799183.1972 -4.7129927 -80.536011 -200 45 -200 45 -200 45
4279799299.8833 -4.7062674 -80.714165 -200 45 -200 45 -200 45
4280799416.5694 -4.6954699 -80.879105 -200 45 -200 45 -200 45
4281799533.2555 -4.6869278 -81.015053 -200 45 -200 45 -200 45
4282799649.9417 -4.679121 -81.154861 -200 45 -200 45 -200 45
4283799766.6278 -4.6686535 -81.298851 -200 45 -200 45 -200 45
4284799883.3139 -4.657393 -81.410614 -200 45 -200 45 -200 45
4285800000 -4.6462545 -81.524139 -200 45 -200 45 -200 45
4286800116.6861 -4.635673 -81.637718 -200 45 -200 45 -200 45
4287800233.3722 -4.6215348 -81.749817 -200 45 -200 45 -200 45
4288800350.0583 -4.6110744 -81.857079 -200 45 -200 45 -200 45
4289800466.7445 -4.5981336 -81.920723 -200 45 -200 45 -200 45
4290800583.4306 -4.5860085 -82.00602 -200 45 -200 45 -200 45
4291800700.1167 -4.5729876 -82.033478 -200 45 -200 45 -200 45
4292800816.8028 -4.5601931 -82.088394 -200 45 -200 45 -200 45
4293800933.4889 -4.5533094 -82.096764 -200 45 -200 45 -200 45
4294801050.175 -4.5377097 -82.135841 -200 45 -200 45 -200 45
4295801166.8611 -4.5286407 -82.1278 -200 45 -200 45 -200 45
4296801283.5473 -4.5165544 -82.122993 -200 45 -200 45 -200 45
4297801400.2334 -4.5050116 -82.121658 -200 45 -200 45 -200 45
4298801516.9195 -4.4961352 -82.092102 -200 45 -200 45 -200 45
4299801633.6056 -4.4849801 -82.071228 -200 45 -200 45 -200 45
4300801750.2917 -4.4777122 -81.999985 -200 45 -200 45 -200 45
4301801866.9778 -4.4689946 -81.969147 -200 45 -200 45 -200 45
4302801983.6639 -4.4570942 -81.885475 -200 45 -200 45 -200 45
4303802100.3501 -4.4535079 -81.804893 -200 45 -200 45 -200 45
4304802217.0362 -4.4444909 -81.729584 -200 45 -200 45 -200 45
4305802333.7223 -4.4357285 -81.646385 -200 45 -200 45 -200 45
4306802450.4084 -4.4332252 -81.539558 -200 45 -200 45 -200 45
4307802567.0945 -4.4248242 -81.448769 -200 45 -200 45 -200 45
4308802683.7806 -4.4214048 -81.332497 -200 45 -200 45 -200 45
4309802800.4667 -4.4186063 -81.222504 -200 45 -200 45 -200 45
4310802917.1529 -4.4152269 -81.108833 -200 45 -200 45 -200 45
4311803033.839 -4.4157462 -81.002541 -200 45 -200 45 -200 45
4312803150.5251 -4.4120626 -80.864922 -200 45 -200 45 -200 45
4313803267.2112 -4.4122148 -80.735703 -200 45 -200 45 -200 45
4314803383.8973 -4.4166894 -80.60006 -200 45 -200 45 -200 45
4315803500.5834 -4.4161744 -80.490883 -200 45 -200 45 -200 45
4316803617.2695 -4.4210811 -80.360115 -200 45 -200 45 -200 45
4317803733.9557 -4.4256616 -80.234421 -200 45 -200 45 -200 45
4318803850.6418 -4.4328895 -80.130745 -200 45 -200 45 -200 45
4319803967.3279 -4.4393873 -80.015991 -200 45 -200 45 -200 45
4320804084.014 -4.4435329 -79.905075 -200 45 -200 45 -200 45
4321804200.7001 -4.4510918 -79.774406 -200 45 -200 45 -200 45
4322804317.3862 -4.4596357 -79.668953 -200 45 -200 45 -200 45
4323804434.0723 -4.4697208 -79.570404 -200 45 -200 45 -200 45
4324804550.7585 -4.4792433 -79.467812 -200 45 -200 45 -200 45
4325804667.4446 -4.4901376 -79.371063 -200 45 -200 45 -200 45
4326804784.1307 -4.50176 -79.313187 -200 45 -200 45 -200 45
4327804900.8168 -4.5147653 -79.226089 -200 45 -200 45 -200 45
4328805017.5029 -4.5274935 -79.176514 -200 45 -200 45 -200 45
4329805134.189 -4.5437708 -79.087624 -200 45 -200 45 -200 45
4330805250.8751 -4.5577402 -79.051521 -200 45 -200 45 -200 45
4331805367.5613 -4.5720973 -79.033913 -200 45 -200 45 -200 45
4332805484.2474 -4.5860305 -78.986725 -200 45 -200 45 -200 45
4333805600.9335 -4.6021523 -79.001617 -200 45 -200 45 -200 45
4334805717.6196 -4.6158991 -78.985138 -200 45 -200 45 -200 45
4335805834.3057 -4.6317639 -78.982628 -200 45 -200 45 -200 45
4336805950.9918 -4.6485939 -78.996162 -200 45 -200 45 -200 45
4337806067.6779 -4.6628489 -79.010391 -200 45 -200 45 -200 45
4338806184.3641 -4.6783395 -79.060738 -200 45 -200 45 -200 45
4339806301.0502 -4.6917639 -79.116524 -200 45 -200 45 -200 45
4340806417.7363 -4.7076488 -79.179695 -200 45 -200 45 -200 45
4341806534.4224 -4.7238946 -79.248619 -200 45 -200 45 -200 45
4342806651.1085 -4.7359023 -79.318726 -200 45 -200 45 -200 45
4343806767.7946 -4.7513423 -79.429939 -200 45 -200 45 -200 45
4344806884.4807 -4.762476 -79.520699 -200 45 -200 45 -200 45
4345807001.1669 -4.7737417 -79.628616 -200 45 -200 45 -200 45
4346807117.853 -4.7900486 -79.738548 -200 45 -200 45 -200 45
4347807234.5391 -4.8013091 -79.873894 -200 45 -200 45 -200 45
4348807351.2252 -4.8109193 -80.007797 -200 45 -200 45 -200 45
4349807467.9113 -4.8167419 -80.145485 -200 45 -200 45 -200 45
4350807584.5974 -4.8294735 -80.290298 -200 45 -200 45 -200 45
4351807701.2835 -4.8335924 -80.44783 -200 45 -200 45 -200 45
4352807817.9697 -4.8402686 -80.610786 -200 45 -200 45 -200 45
4353807934.6558 -4.8491964 -80.758934 -200 45 -200 45 -200 45
4354808051.3419 -4.8469133 -80.919655 -200 45 -200 45 -200 45
4355808168.028 -4.8529763 -81.094376 -200 45 -200 45 -200 45
4356808284.7141 -4.8506503 -81.260185 -200 45 -200 45 -200 45
4357808401.4002 -4.8525391 -81.434082 -200 45 -200 45 -200 45
4358808518.0863 -4.8515 -81.595749 -200 45 -200 45 -200 45
4359808634.7725 -4.849493 -81.754929 -200 45 -200 45 -200 45
4360808751.4586 -4.8473644 -81.922943 -200 45 -200 45 -200 45
4361808868.1447 -4.8441811 -82.069008 -200 45 -200 45 -200 45
4362808984.8308 -4.8398395 -82.229218 -200 45 -200 45 -200 45
4363809101.5169 -4.8291235 -82.391312 -200 45 -200 45 -200 45
4364809218.203 -4.8254714 -82.512566 -200 45 -200 45 -200 45
4365809334.8891 -4.8167243 -82.649658 -200 45 -200 45 -200 45
4366809451.5753 -4.8060727 -82.785194 -200 45 -200 45 -200 45
4367809568.2614 -4.7938013 -82.900627 -200 45 -200 45 -200 45
4368809684.9475 -4.7868638 -83.006729 -200 45 -200 45 -200 45
4369809801.6336 -4.7743273 -83.127121 -200 45 -200 45 -200 45
4370809918.3197 -4.7617211 -83.229004 -200 45 -200 45 -200 45
4371810035.0058 -4.7489119 -83.30838 -200 45 -200 45 -200 45
4372810151.6919 -4.7372375 -83.379547 -200 45 -200 45 -200 45
4373810268.3781 -4.72366 -83.429382 -200 45 -200 45 -200 45
4374810385.0642 -4.7104015 -83.488129 -200 45 -200 45 -200 45
4375810501.7503 -4.6977315 -83.502937 -200 45 -200 45 -200 45
4376810618.4364 -4.6823459 -83.53804 -200 45 -200 45 -200 45
4377810735.1225 -4.6705742 -83.553497 -200 45 -200 45 -200 45
4378810851.8086 -4.6555099 -83.559372 -200 45 -200 45 -200 45
4379810968.4947 -4.640729 -83.550552 -200 45 -200 45 -200 45
4380811085.1809 -4.6297898 -83.531517 -200 45 -200 45 -200 45
4381811201.867 -4.6193519 -83.508156 -200 45 -200 45 -200 45
4382811318.5531 -4.604073 -83.478546 -200 45 -200 45 -200 45
4383811435.2392 -4.5932708 -83.410248 -200 45 -200 45 -200 45
4384811551.9253 -4.5810776 -83.359123 -200 45 -200 45 -200 45
4385811668.6114 -4.5693412 -83.315735 -200 45 -200 45 -200 45
4386811785.2976 -4.5590181 -83.233253 -200 45 -200 45 -200 45
4387811901.9837 -4.5487018 -83.13044 -200 45 -200 45 -200 45
4388812018.6698 -4.5379314 -83.043915 -200 45 -200 45 -200 45
4389812135.3559 -4.5327005 -82.931725 -200 45 -200 45 -200 45
4390812252.042 -4.5245166 -82.820168 -200 45 -200 45 -200 45
4391812368.7281 -4.5202727 -82.70224 -200 45 -200 45 -200 45
4392812485.4142 -4.5134959 -82.591255 -200 45 -200 45 -200 45
4393812602.1004 -4.5099916 -82.477364 -200 45 -200 45 -200 45
4394812718.7865 -4.5075417 -82.339539 -200 45 -200 45 -200 45
4395812835.4726 -4.5027361 -82.214973 -200 45 -200 45 -200 45
4396812952.1587 -4.5038247 -82.074379 -200 45 -200 45 -200 45
4397813068.8448 -4.5027227 -81.946198 -200 45 -200 45 -200 45
4398813185.5309 -4.5029836 -81.789886 -200 45 -200 45 -200 45
4399813302.217 -4.505033 -81.660439 -200 45 -200 45 -200 45
4400813418.9032 -4.5076046 -81.515251 -200 45 -200 45 -200 45
4401813535.5893 -4.5095038 -81.387505 -200 45 -200 45 -200 45
4402813652.2754 -4.514935 -81.256012 -200 45 -200 45 -200 45
4403813768.9615 -4.5217519 -81.120934 -200 45 -200 45 -200 45
4404813885.6476 -4.5289578 -80.997849 -200 45 -200 45 -200 45
4405814002.3337 -4.5353355 -80.881248 -200 45 -200 45 -200 45
4406814119.0198 -4.5453711 -80.735252 -200 45 -200 45 -200 45
4407814235.706 -4.5550456 -80.651306 -200 45 -200 45 -200 45
4408814352.3921 -4.5658021 -80.527115 -200 45 -200 45 -200 45
4409814469.0782 -4.5775614 -80.423149 -200 45 -200 45 -200 45
4410814585.7643 -4.5905509 -80.339279 -200 45 -200 45 -200 45
4411814702.4504 -4.603178 -80.244225 -200 45 -200 45 -200 45
4412814819.1365 -4.61485 -80.185822 -200 45 -200 45 -200 45
4413814935.8226 -4.6312108 -80.115768 -200 45 -200 45 -200 45
4414815052.5088 -4.6453834 -80.077652 -200 45 -200 45 -200 45
4415815169.1949 -4.6614642 -80.011826 -200 45 -200 45 -200 45
4416815285.881 -4.6757979 -79.97541 -200 45 -200 45 -200 45
4417815402.5671 -4.6933289 -79.96077 -200 45 -200 45 -200 45
4418815519.2532 -4.7072291 -79.96077 -200 45 -200 45 -200 45
4419815635.9393 -4.7245278 -79.950226 -200 45 -200 45 -200 45
4420815752.6254 -4.738574 -79.955826 -200 45 -200 45 -200 45
4421815869.3116 -4.7548299 -79.984848 -200 45 -200 45 -200 45
4422815985.9977 -4.7747502 -80.011612 -200 45 -200 45 -200 45
4423816102.6838 -4.7891264 -80.047668 -200 45 -200 45 -200 45
4424816219.3699 -4.8068328 -80.110413 -200 45 -200 45 -200 45
4425816336.056 -4.8243155 -80.179497 -200 45 -200 45 -200 45
4426816452.7421 -4.8374424 -80.255554 -200 45 -200 45 -200 45
4427816569.4282 -4.8551059 -80.367188 -200 45 -200 45 -200 45
4428816686.1144 -4.8694954 -80.461395 -200 45 -200 45 -200 45
4429816802.8005 -4.8827987 -80.583336 -200 45 -200 45 -200 45
4430816919.4866 -4.8937416 -80.680733 -200 45 -200 45 -200 45
4431817036.1727 -4.907167 -80.831551 -200 45 -200 45 -200 45
4432817152.8588 -4.9162865 -80.965523 -200 45 -200 45 -200 45
4433817269.5449 -4.9283714 -81.114487 -200 45 -200 45 -200 45
4434817386.231 -4.9338055 -81.264404 -200 45 -200 45 -200 45
4435817502.9172 -4.9434981 -81.421364 -200 45 -200 45 -200 45
4436817619.6033 -4.9490695 -81.58979 -200 45 -200 45 -200 45
4437817736.2894 -4.9550705 -81.769112 -200 45 -200 45 -200 45
4438817852.9755 -4.9587126 -81.917519 -200 45 -200 45 -200 45
4439817969.6616 -4.9602504 -82.128601 -200 45 -200 45 -200 45
4440818086.3477 -4.965507 -82.313713 -200 45 -200 45 -200 45
4441818203.0338 -4.9652648 -82.469696 -200 45 -200 45 -200 45
4442818319.72 -4.9648299 -82.642754 -200 45 -200 45 -200 45
4443818436.4061 -4.9612446 -82.819038 -200 45 -200 45 -200 45
4444818553.0922 -4.9570155 -82.977058 -200 45 -200 45 -200 45
4445818669.7783 -4.9540877 -83.170639 -200 45 -200 45 -200 45
4446818786.4644 -4.9475627 -83.347038 -200 45 -200 45 -200 45
4447818903.1505 -4.9419475 -83.479156 -200 45 -200 45 -200 45
4448819019.8366 -4.9327269 -83.631203 -200 45 -200 45 -200 45
4449819136.5228 -4.9248071 -83.792442 -200 45 -200 45 -200 45
4450819253.2089 -4.915494 -83.945442 -200 45 -200 45 -200 45
4451819369.895 -4.899704 -84.062988 -200 45 -200 45 -200 45
4452819486.5811 -4.8949423 -84.181282 -200 45 -200 45 -200 45
4453819603.2672 -4.8802013 -84.295212 -200 45 -200 45 -200 45
4454819719.9533 -4.8641744 -84.388603 -200 45 -200 45 -200 45
4455819836.6394 -4.8520374 -84.49601 -200 45 -200 45 -200 45
4456819953.3256 -4.8400378 -84.564651 -200 45 -200 45 -200 45
4457820070.0117 -4.8240099 -84.634079 -200 45 -200 45 -200 45
4458820186.6978 -4.8083758 -84.681892 -200 45 -200 45 -200 45
4459820303.3839 -4.7946281 -84.734451 -200 45 -200 45 -200 45
4460820420.07 -4.7787933 -84.741455 -200 45 -200 45 -200 45
4461820536.7561 -4.7644525 -84.784775 -200 45 -200 45 -200 45
4462820653.4422 -4.7453356 -84.801521 -200 45 -200 45 -200 45
4463820770.1284 -4.7377453 -84.767838 -200 45 -200 45 -200 45
4464820886.8145 -4.7199998 -84.789795 -200 45 -200 45 -200 45
4465821003.5006 -4.709373 -84.756592 -200 45 -200 45 -200 45
4466821120.1867 -4.6918063 -84.708519 -200 45 -200 45 -200 45
4467821236.8728 -4.67837 -84.675819 -200 45 -200 45 -200 45
4468821353.5589 -4.6641231 -84.606651 -200 45 -200 45 -200 45
4469821470.245 -4.6523557 -84.536896 -200 45 -200 45 -200 45
4470821586.9312 -4.642714 -84.451866 -200 45 -200 45 -200 45
4471821703.6173 -4.6315575 -84.366371 -200 45 -200 45 -200 45
4472821820.3034 -4.6206264 -84.284271 -200 45 -200 45 -200 45
4473821936.9895 -4.6118617 -84.180458 -200 45 -200 45 -200 45
4474822053.6756 -4.6046009 -84.049156 -200 45 -200 45 -200 45
4475822170.3617 -4.5956478 -83.921364 -200 45 -200 45 -200 45
4476822287.0478 -4.5926661 -83.814316 -200 45 -200 45 -200 45
4477822403.734 -4.5844569 -83.674301 -200 45 -200 45 -200 45
4478822520.4201 -4.5824337 -83.535904 -200 45 -200 45 -200 45
4479822637.1062 -4.577075 -83.408432 -200 45 -200 45 -200 45
4480822753.7923 -4.5752282 -83.269211 -200 45 -200 45 -200 45
4481822870.4784 -4.5724874 -83.112495 -200 45 -200 45 -200 45
4482822987.1645 -4.577302 -82.978111 -200 45 -200 45 -200 45
4483823103.8506 -4.5729065 -82.825668 -200 45 -200 45 -200 45
4484823220.5368 -4.578083 -82.695259 -200 45 -200 45 -200 45
4485823337.2229 -4.5807776 -82.537384 -200 45 -200 45 -200 45
4486823453.909 -4.5879321 -82.402084 -200 45 -200 45 -200 45
4487823570.5951 -4.5899453 -82.266899 -200 45 -200 45 -200 45
4488823687.2812 -4.6007075 -82.120338 -200 45 -200 45 -200 45
4489823803.9673 -4.6050272 -81.986443 -200 45 -200 45 -200 45
4490823920.6534 -4.6149273 -81.864044 -200 45 -200 45 -200 45
4491824037.3396 -4.6258354 -81.733757 -200 45 -200 45 -200 45
4492824154.0257 -4.6390305 -81.622864 -200 45 -200 45 -200 45
4493824270.7118 -4.6514034 -81.518867 -200 45 -200 45 -200 45
4494824387.3979 -4.6622353 -81.423874 -200 45 -200 45 -200 45
4495824504.084 -4.6764069 -81.3172 -200 45 -200 45 -200 45
4496824620.7701 -4.6911006 -81.238274 -200 45 -200 45 -200 45
4497824737.4562 -4.7085972 -81.168854 -200 45 -200 45 -200 45
4498824854.1424 -4.7232599 -81.089844 -200 45 -200 45 -200 45
4499824970.8285 -4.7403207 -81.047272 -200 45 -200 45 -200 45
4500825087.5146 -4.755106 -81.025978 -200 45 -200 45 -200 45
4501825204.2007 -4.7727132 -80.977341 -200 45 -200 45 -200 45
4502825320.8868 -4.788929 -80.955231 -200 45 -200 45 -200 45
4503825437.5729 -4.8110938 -80.96241 -200 45 -200 45 -200 45
4504825554.259 -4.827826 -80.960716 -200 45 -200 45 -200 45
4505825670.9452 -4.845305 -80.967323 -200 45 -200 45 -200 45
4506825787.6313 -4.8634558 -81.001732 -200 45 -200 45 -200 45
4507825904.3174 -4.8837085 -81.045753 -200 45 -200 45 -200 45
4508826021.0035 -4.9017329 -81.109383 -200 45 -200 45 -200 45
4509826137.6896 -4.9176917 -81.181549 -200 45 -200 45 -200 45
4510826254.3757 -4.9358592 -81.262276 -200 45 -200 45 -200 45
4511826371.0618 -4.9514027 -81.347328 -200 45 -200 45 -200 45
4512826487.748 -4.9655757 -81.447411 -200 45 -200 45 -200 45
4513826604.4341 -4.9831147 -81.575348 -200 45 -200 45 -200 45
4514826721.1202 -4.9958634 -81.696373 -200 45 -200 45 -200 45
4515826837.8063 -5.0109577 -81.82621 -200 45 -200 45 -200 45
4516826954.4924 -5.0229521 -81.964073 -200 45 -200 45 -200 45
4517827071.1785 -5.0352592 -82.11216 -200 45 -200 45 -200 45
4518827187.8646 -5.0436602 -82.26252 -200 45 -200 45 -200 45
4519827304.5508 -5.0512204 -82.418709 -200 45 -200 45 -200 45
4520827421.2369 -5.0608692 -82.572487 -200 45 -200 45 -200 45
4521827537.923 -5.0654817 -82.755936 -200 45 -200 45 -200 45
4522827654.6091 -5.0761433 -82.89846 -200 45 -200 45 -200 45
4523827771.2952 -5.0748372 -83.118515 -200 45 -200 45 -200 45
4524827887.9813 -5.0734572 -83.279686 -200 45 -200 45 -200 45
4525828004.6674 -5.076479 -83.459206 -200 45 -200 45 -200 45
4526828121.3536 -5.0733705 -83.639519 -200 45 -200 45 -200 45
4527828238.0397 -5.0717154 -83.831718 -200 45 -200 45 -200 45
4528828354.7258 -5.0673742 -84.026726 -200 45 -200 45 -200 45
4529828471.4119 -5.0598011 -84.19648 -200 45 -200 45 -200 45
4530828588.098 -5.054502 -84.368927 -200 45 -200 45 -200 45
4531828704.7841 -5.0443511 -84.543907 -200 45 -200 45 -200 45
4532828821.4702 -5.036315 -84.709763 -200 45 -200 45 -200 45
4533828938.1564 -5.0274763 -84.86422 -200 45 -200 45 -200 45
4534829054.8425 -5.0145531 -85.017136 -200 45 -200 45 -200 45
4535829171.5286 -5.0030284 -85.149315 -200 45 -200 45 -200 45
4536829288.2147 -4.9867067 -85.284874 -200 45 -200 45 -200 45
4537829404.9008 -4.9741888 -85.40155 -200 45 -200 45 -200 45
4538829521.5869 -4.9609051 -85.508926 -200 45 -200 45 -200 45
4539829638.273 -4.9485188 -85.608086 -200 45 -200 45 -200 45
4540829754.9592 -4.9327779 -85.705238 -200 45 -200 45 -200 45
4541829871.6453 -4.9152975 -85.785095 -200 45 -200 45 -200 45
4542829988.3314 -4.8991013 -85.845276 -200 45 -200 45 -200 45
4543830105.0175 -4.8818913 -85.870857 -200 45 -200 45 -200 45
4544830221.7036 -4.8656855 -85.923981 -200 45 -200 45 -200 45
4545830338.3897 -4.847692 -85.942078 -200 45 -200 45 -200 45
4546830455.0758 -4.8303719 -85.964996 -200 45 -200 45 -200 45
4547830571.762 -4.8153448 -85.968529 -200 45 -200 45 -200 45
4548830688.4481 -4.796134 -85.935165 -200 45 -200 45 -200 45
4549830805.1342 -4.7823105 -85.936058 -200 45 -200 45 -200 45
4550830921.8203 -4.7616997 -85.892647 -200 45 -200 45 -200 45
4551831038.5064 -4.7526231 -85.848618 -200 45 -200 45 -200 45
4552831155.1925 -4.7339921 -85.778656 -200 45 -200 45 -200 45
4553831271.8786 -4.7210975 -85.708229 -200 45 -200 45 -200 45
4554831388.5648 -4.7081037 -85.634727 -200 45 -200 45 -200 45
4555831505.2509 -4.6966715 -85.5299 -200 45 -200 45 -200 45
4556831621.937 -4.6818156 -85.458199 -200 45 -200 45 -200 45
4557831738.6231 -4.6757002 -85.333839 -200 45 -200 45 -200 45
4558831855.3092 -4.6636868 -85.222488 -200 45 -200 45 -200 45
4559831971.9953 -4.6574492 -85.103615 -200 45 -200 45 -200 45
4560832088.6814 -4.6521931 -84.956551 -200 45 -200 45 -200 45
4561832205.3676 -4.6419683 -84.833687 -200 45 -200 45 -200 45
4562832322.0537 -4.6370039 -84.677582 -200 45 -200 45 -200 45
4563832438.7398 -4.6329517 -84.54361 -200 45 -200 45 -200 45
4564832555.4259 -4.6281228 -84.383461 -200 45 -200 45 -200 45
4565832672.112 -4.6272354 -84.239799 -200 45 -200 45 -200 45
4566832788.7981 -4.6279211 -84.082146 -200 45 -200 45 -200 45
4567832905.4842 -4.6260715 -83.925461 -200 45 -200 45 -200 45
4568833022.1704 -4.6278219 -83.777321 -200 45 -200 45 -200 45
4569833138.8565 -4.6327815 -83.60202 -200 45 -200 45 -200 45
4570833255.5426 -4.6381388 -83.460175 -200 45 -200 45 -200 45
4571833372.2287 -4.6447926 -83.289619 -200 45 -200 45 -200 45
4572833488.9148 -4.6531229 -83.157425 -200 45 -200 45 -200 45
4573833605.6009 -4.6594267 -83.020844 -200 45 -200 45 -200 45
4574833722.287 -4.6720243 -82.874947 -200 45 -200 45 -200 45
4575833838.9732 -4.6780553 -82.737045 -200 45 -200 45 -200 45
4576833955.6593 -4.691824 -82.611343 -200 45 -200 45 -200 45
4577834072.3454 -4.7024856 -82.476082 -200 45 -200 45 -200 45
4578834189.0315 -4.7172942 -82.357391 -200 45 -200 45 -200 45
4579834305.7176 -4.7293816 -82.28759 -200 45 -200 45 -200 45
4580834422.4037 -4.7455468 -82.175064 -200 45 -200 45 -200 45
4581834539.0898 -4.7605085 -82.072853 -200 45 -200 45 -200 45
4582834655.776 -4.7774682 -82.003189 -200 45 -200 45 -200 45
4583834772.4621 -4.7945776 -81.940331 -200 45 -200 45 -200 45
4584834889.1482 -4.8102317 -81.879639 -200 45 -200 45 -200 45
4585835005.8343 -4.8290997 -81.841469 -200 45 -200 45 -200 45
4586835122.5204 -4.8499389 -81.805626 -200 45 -200 45 -200 45
4587835239.2065 -4.8694439 -81.793755 -200 45 -200 45 -200 45
4588835355.8926 -4.887959 -81.807526 -200 45 -200 45 -200 45
4589835472.5788 -4.9063916 -81.800194 -200 45 -200 45 -200 45
4590835589.2649 -4.9270759 -81.823242 -200 45 -200 45 -200 45
4591835705.951 -4.9410644 -81.840164 -200 45 -200 45 -200 45
4592835822.6371 -4.9646697 -81.923584 -200 45 -200 45 -200 45
4593835939.3232 -4.981915 -81.975731 -200 45 -200 45 -200 45
4594836056.0093 -4.9995646 -82.048576 -200 45 -200 45 -200 45
4595836172.6954 -5.0159831 -82.150177 -200 45 -200 45 -200 45
4596836289.3816 -5.0320067 -82.249336 -200 45 -200 45 -200 45
4597836406.0677 -5.0469885 -82.357269 -200 45 -200 45 -200 45
4598836522.7538 -5.0659423 -82.478241 -200 45 -200 45 -200 45
4599836639.4399 -5.0799146 -82.619888 -200 45 -200 45 -200 45
4600836756.126 -5.0938749 -82.753189 -200 45 -200 45 -200 45
4601836872.8121 -5.1065311 -82.910141 -200 45 -200 45 -200 45
4602836989.4983 -5.1156759 -83.06868 -200 45 -200 45 -200 45
4603837106.1844 -5.1260042 -83.226814 -200 45 -200 45 -200 45
4604837222.8705 -5.1344604 -83.39846 -200 45 -200 45 -200 45
4605837339.5566 -5.1438694 -83.597038 -200 45 -200 45 -200 45
4606837456.2427 -5.1483064 -83.74839 -200 45 -200 45 -200 45
4607837572.9288 -5.1551595 -83.972054 -200 45 -200 45 -200 45
4608837689.6149 -5.156672 -84.147087 -200 45 -200 45 -200 45
4609837806.3011 -5.1571884 -84.366203 -200 45 -200 45 -200 45
4610837922.9872 -5.1598339 -84.549789 -200 45 -200 45 -200 45
4611838039.6733 -5.1579981 -84.732918 -200 45 -200 45 -200 45
4612838156.3594 -5.1513457 -84.90834 -200 45 -200 45 -200 45
4613838273.0455 -5.1504598 -85.110001 -200 45 -200 45 -200 45
4614838389.7316 -5.1445818 -85.298386 -200 45 -200 45 -200 45
4615838506.4177 -5.1362653 -85.474426 -200 45 -200 45 -200 45
4616838623.1039 -5.1281281 -85.649971 -200 45 -200 45 -200 45
4617838739.79 -5.1218915 -85.816711 -200 45 -200 45 -200 45
4618838856.4761 -5.1099935 -85.981026 -200 45 -200 45 -200 45
4619838973.1622 -5.0981216 -86.122643 -200 45 -200 45 -200 45
4620839089.8483 -5.0863667 -86.275986 -200 45 -200 45 -200 45
4621839206.5344 -5.0716362 -86.401031 -200 45 -200 45 -200 45
4622839323.2205 -5.0558987 -86.533531 -200 45 -200 45 -200 45
4623839439.9067 -5.0438213 -86.619865 -200 45 -200 45 -200 45
4624839556.5928 -5.0228186 -86.698112 -200 45 -200 45 -200 45
4625839673.2789 -5.0093803 -86.767845 -200 45 -200 45 -200 45
4626839789.965 -4.9924841 -86.845436 -200 45 -200 45 -200 45
4627839906.6511 -4.9774308 -86.915237 -200 45 -200 45 -200 45
4628840023.3372 -4.9593368 -86.974953 -200 45 -200 45 -200 45
4629840140.0233 -4.9437003 -86.964973 -200 45 -200 45 -200 45
4630840256.7095 -4.9251022 -86.972595 -200 45 -200 45 -200 45
4631840373.3956 -4.9116817 -86.974403 -200 45 -200 45 -200 45
4632840490.0817 -4.8923926 -86.979218 -200 45 -200 45 -200 45
4633840606.7678 -4.8775921 -86.954132 -200 45 -200 45 -200 45
4634840723.4539 -4.864254 -86.900169 -200 45 -200 45 -200 45
4635840840.14 -4.846271 -86.851112 -200 45 -200 45 -200 45
4636840956.8261 -4.8307776 -86.780457 -200 45 -200 45 -200 45
4637841073.5123 -4.8168716 -86.721832 -200 45 -200 45 -200 45
4638841190.1984 -4.8019786 -86.627754 -200 45 -200 45 -200 45
4639841306.8845 -4.7897334 -86.536201 -200 45 -200 45 -200 45
4640841423.5706 -4.7781401 -86.443321 -200 45 -200 45 -200 45
4641841540.2567 -4.7653999 -86.320465 -200 45 -200 45 -200 45
4642841656.9428 -4.7562189 -86.180367 -200 45 -200 45 -200 45
4643841773.6289 -4.7443728 -86.053535 -200 45 -200 45 -200 45
4644841890.3151 -4.7377915 -85.925102 -200 45 -200 45 -200 45
4645842007.0012 -4.7326975 -85.77047 -200 45 -200 45 -200 45
4646842123.6873 -4.7250652 -85.617935 -200 45 -200 45 -200 45
4647842240.3734 -4.7203569 -85.473198 -200 45 -200 45 -200 45
4648842357.0595 -4.7191796 -85.308151 -200 45 -200 45 -200 45
4649842473.7456 -4.7160397 -85.13179 -200 45 -200 45 -200 45
4650842590.4317 -4.7175112 -84.990326 -200 45 -200 45 -200 45
4651842707.1179 -4.7168965 -84.813141 -200 45 -200 45 -200 45
4652842823.804 -4.7174845 -84.648102 -200 45 -200 45 -200 45
4653842940.4901 -4.7168341 -84.493752 -200 45 -200 45 -200 45
4654843057.1762 -4.724431 -84.312988 -200 45 -200 45 -200 45
4655843173.8623 -4.7294102 -84.181786 -200 45 -200 45 -200 45
4656843290.5484 -4.7369332 -84.00605 -200 45 -200 45 -200 45
4657843407.2345 -4.7429271 -83.854088 -200 45 -200 45 -200 45
4658843523.9207 -4.7497063 -83.683891 -200 45 -200 45 -200 45
4659843640.6068 -4.7608247 -83.569183 -200 45 -200 45 -200 45
4660843757.2929 -4.772747 -83.439301 -200 45 -200 45 -200 45
4661843873.979 -4.7839956 -83.314003 -200 45 -200 45 -200 45
4662843990.6651 -4.7983565 -83.169891 -200 45 -200 45 -200 45
4663844107.3512 -4.8108425 -83.094994 -200 45 -200 45 -200 45
4664844224.0373 -4.8264866 -82.984406 -200 45 -200 45 -200 45
4665844340.7235 -4.8441625 -82.899147 -200 45 -200 45 -200 45
4666844457.4096 -4.8574333 -82.809685 -200 45 -200 45 -200 45
4667844574.0957 -4.876133 -82.757774 -200 45 -200 45 -200 45
4668844690.7818 -4.8948345 -82.693108 -200 45 -200 45 -200 45
4669844807.4679 -4.9140062 -82.64975 -200 45 -200 45 -200 45
4670844924.154 -4.934464 -82.605476 -200 45 -200 45 -200 45
4671845040.8401 -4.9524641 -82.616226 -200 45 -200 45 -200 45
4672845157.5263 -4.9736629 -82.602859 -200 45 -200 45 -200 45
4673845274.2124 -4.9924088 -82.608521 -200 45 -200 45 -200 45
4674845390.8985 -5.0121827 -82.660889 -200 45 -200 45 -200 45
4675845507.5846 -5.029911 -82.704163 -200 45 -200 45 -200 45
4676845624.2707 -5.0505638 -82.736191 -200 45 -200 45 -200 45
4677845740.9568 -5.0701861 -82.797096 -200 45 -200 45 -200 45
4678845857.6429 -5.0889659 -82.882813 -200 45 -200 45 -200 45
4679845974.3291 -5.1073442 -82.974037 -200 45 -200 45 -200 45
4680846091.0152 -5.1227803 -83.077217 -200 45 -200 45 -200 45
4681846207.7013 -5.1414771 -83.17514 -200 45 -200 45 -200 45
4682846324.3874 -5.1578913 -83.31147 -200 45 -200 45 -200 45
4683846441.0735 -5.1718669 -83.451889 -200 45 -200 45 -200 45
4684846557.7596 -5.1878457 -83.603569 -200 45 -200 45 -200 45
4685846674.4457 -5.2026854 -83.779938 -200 45 -200 45 -200 45
4686846791.1319 -5.212873 -83.951973 -200 45 -200 45 -200 45
4687846907.818 -5.223197 -84.110046 -200 45 -200 45 -200 45
4688847024.5041 -5.23667 -84.313789 -200 45 -200 45 -200 45
4689847141.1902 -5.2368069 -84.486931 -200 45 -200 45 -200 45
4690847257.8763 -5.2465043 -84.685455 -200 45 -200 45 -200 45
4691847374.5624 -5.2503691 -84.85334 -200 45 -200 45 -200 45
4692847491.2485 -5.251658 -85.059799 -200 45 -200 45 -200 45
4693847607.9347 -5.2595825 -85.274399 -200 45 -200 45 -200 45
4694847724.6208 -5.2572374 -85.456886 -200 45 -200 45 -200 45
4695847841.3069 -5.2556167 -85.657928 -200 45 -200 45 -200 45
4696847957.993 -5.2535033 -85.864395 -200 45 -200 45 -200 45
4697848074.6791 -5.2474494 -86.041901 -200 45 -200 45 -200 45
4698848191.3652 -5.2423024 -86.247704 -200 45 -200 45 -200 45
4699848308.0513 -5.2359705 -86.414597 -200 45 -200 45 -200 45
4700848424.7375 -5.2264981 -86.608109 -200 45 -200 45 -200 45
4701848541.4236 -5.2156014 -86.767006 -200 45 -200 45 -200 45
4702848658.1097 -5.2092109 -86.931999 -200 45 -200 45 -200 45
4703848774.7958 -5.1960173 -87.07 -200 45 -200 45 -200 45
4704848891.4819 -5.1834307 -87.20977 -200 45 -200 45 -200 45
4705849008.168 -5.1625223 -87.334427 -200 45 -200 45 -200 45
4706849124.8541 -5.1512556 -87.461143 -200 45 -200 45 -200 45
4707849241.5403 -5.1378698 -87.555344 -200 45 -200 45 -200 45
4708849358.2264 -5.1184778 -87.631943 -200 45 -200 45 -200 45
4709849474.9125 -5.1062703 -87.741882 -200 45 -200 45 -200 45
4710849591.5986 -5.0894217 -87.778076 -200 45 -200 45 -200 45
4711849708.2847 -5.0728669 -87.853676 -200 45 -200 45 -200 45
4712849824.9708 -5.0515203 -87.873878 -200 45 -200 45 -200 45
4713849941.6569 -5.0331597 -87.914009 -200 45 -200 45 -200 45
4714850058.3431 -5.0198007 -87.924538 -200 45 -200 45 -200 45
4715850175.0292 -5.0038362 -87.919075 -200 45 -200 45 -200 45
4716850291.7153 -4.9858327 -87.865448 -200 45 -200 45 -200 45
4717850408.4014 -4.9692869 -87.834747 -200 45 -200 45 -200 45
4718850525.0875 -4.9546976 -87.793816 -200 45 -200 45 -200 45
4719850641.7736 -4.9393158 -87.734604 -200 45 -200 45 -200 45
4720850758.4597 -4.9211526 -87.633377 -200 45 -200 45 -200 45
4721850875.1459 -4.9092174 -87.52327 -200 45 -200 45 -200 45
4722850991.832 -4.8938694 -87.434555 -200 45 -200 45 -200 45
4723851108.5181 -4.8799829 -87.315155 -200 45 -200 45 -200 45
4724851225.2042 -4.8744693 -87.195778 -200 45 -200 45 -200 45
4725851341.8903 -4.85921 -87.036705 -200 45 -200 45 -200 45
4726851458.5764 -4.8480263 -86.881172 -200 45 -200 45 -200 45
4727851575.2625 -4.8381729 -86.729034 -200 45 -200 45 -200 45
4728851691.9487 -4.8292909 -86.564095 -200 45 -200 45 -200 45
4729851808.6348 -4.822618 -86.359413 -200 45 -200 45 -200 45
4730851925.3209 -4.8125558 -86.183083 -200 45 -200 45 -200 45
4731852042.007 -4.8061624 -86.012383 -200 45 -200 45 -200 45
4732852158.6931 -4.8013773 -85.800476 -200 45 -200 45 -200 45
4733852275.3792 -4.7951989 -85.619965 -200 45 -200 45 -200 45
4734852392.0653 -4.7906332 -85.440392 -200 45 -200 45 -200 45
4735852508.7515 -4.7823801 -85.25116 -200 45 -200 45 -200 45
4736852625.4376 -4.7815971 -85.054878 -200 45 -200 45 -200 45
4737852742.1237 -4.7810788 -84.889366 -200 45 -200 45 -200 45
4738852858.8098 -4.778801 -84.744179 -200 45 -200 45 -200 45
4739852975.4959 -4.7824817 -84.574463 -200 45 -200 45 -200 45
4740853092.182 -4.7878013 -84.411636 -200 45 -200 45 -200 45
4741853208.8681 -4.7952666 -84.258537 -200 45 -200 45 -200 45
4742853325.5543 -4.7972026 -84.098099 -200 45 -200 45 -200 45
4743853442.2404 -4.8086486 -83.965401 -200 45 -200 45 -200 45
4744853558.9265 -4.818202 -83.838486 -200 45 -200 45 -200 45
4745853675.6126 -4.8316569 -83.748497 -200 45 -200 45 -200 45
4746853792.2987 -4.8421164 -83.600365 -200 45 -200 45 -200 45
4747853908.9848 -4.8565454 -83.499405 -200 45 -200 45 -200 45
4748854025.6709 -4.8723731 -83.411819 -200 45 -200 45 -200 45
4749854142.3571 -4.8894506 -83.305061 -200 45 -200 45 -200 45
4750854259.0432 -4.9122138 -83.244278 -200 45 -200 45 -200 45
4751854375.7293 -4.9299664 -83.164429 -200 45 -200 45 -200 45
4752854492.4154 -4.9495111 -83.098259 -200 45 -200 45 -200 45
4753854609.1015 -4.9683661 -83.069519 -200 45 -200 45 -200 45
4754854725.7876 -4.9895272 -83.032921 -200 45 -200 45 -200 45
4755854842.4737 -5.0067792 -83.020149 -200 45 -200 45 -200 45
4756854959.1599 -5.0291338 -83.023224 -200 45 -200 45 -200 45
4757855075.846 -5.0457635 -83.034775 -200 45 -200 45 -200 45
4758855192.5321 -5.0684991 -83.049988 -200 45 -200 45 -200 45
4759855309.2182 -5.0865078 -83.096199 -200 45 -200 45 -200 45
4760855425.9043 -5.1064472 -83.159058 -200 45 -200 45 -200 45
4761855542.5904 -5.1285505 -83.231781 -200 45 -200 45 -200 45
4762855659.2765 -5.1461296 -83.322083 -200 45 -200 45 -200 45
4763855775.9627 -5.1644831 -83.418877 -200 45 -200 45 -200 45
4764855892.6488 -5.1829958 -83.527664 -200 45 -200 45 -200 45
4765856009.3349 -5.2030573 -83.657166 -200 45 -200 45 -200 45
4766856126.021 -5.2168984 -83.792053 -200 45 -200 45 -200 45
4767856242.7071 -5.2350302 -83.982414 -200 45 -200 45 -200 45
4768856359.3932 -5.2512817 -84.12751 -200 45 -200 45 -200 45
4769856476.0793 -5.2627296 -84.305893 -200 45 -200 45 -200 45
4770856592.7655 -5.276546 -84.476685 -200 45 -200 45 -200 45
4771856709.4516 -5.2848282 -84.683037 -200 45 -200 45 -200 45
4772856826.1377 -5.2955117 -84.883736 -200 45 -200 45 -200 45
4773856942.8238 -5.3033795 -85.110619 -200 45 -200 45 -200 45
4774857059.5099 -5.311933 -85.301331 -200 45 -200 45 -200 45
4775857176.196 -5.3181486 -85.508087 -200 45 -200 45 -200 45
4776857292.8821 -5.319581 -85.730217 -200 45 -200 45 -200 45
4777857409.5683 -5.3228283 -85.941612 -200 45 -200 45 -200 45
4778857526.2544 -5.3248911 -86.16629 -200 45 -200 45 -200 45
4779857642.9405 -5.3254285 -86.374428 -200 45 -200 45 -200 45
4780857759.6266 -5.3206344 -86.562622 -200 45 -200 45 -200 45
4781857876.3127 -5.3176517 -86.801743 -200 45 -200 45 -200 45
4782857992.9988 -5.3148327 -86.991455 -200 45 -200 45 -200 45
4783858109.6849 -5.306417 -87.18972 -200 45 -200 45 -200 45
4784858226.3711 -5.2959857 -87.37104 -200 45 -200 45 -200 45
4785858343.0572 -5.2869053 -87.550278 -200 45 -200 45 -200 45
4786858459.7433 -5.2740755 -87.723816 -200 45 -200 45 -200 45
4787858576.4294 -5.2624826 -87.882156 -200 45 -200 45 -200 45
4788858693.1155 -5.2510352 -88.023552 -200 45 -200 45 -200 45
4789858809.8016 -5.234242 -88.173897 -200 45 -200 45 -200 45
4790858926.4877 -5.2199063 -88.289177 -200 45 -200 45 -200 45
4791859043.1739 -5.201448 -88.416069 -200 45 -200 45 -200 45
4792859159.86 -5.1832805 -88.504059 -200 45 -200 45 -200 45
4793859276.5461 -5.1692681 -88.567307 -200 45 -200 45 -200 45
4794859393.2322 -5.1492505 -88.651878 -200 45 -200 45 -200 45
4795859509.9183 -5.1318116 -88.695465 -200 45 -200 45 -200 45
4796859626.6044 -5.1134415 -88.746353 -200 45 -200 45 -200 45
4797859743.2905 -5.092257 -88.765671 -200 45 -200 45 -200 45
4798859859.9767 -5.0755219 -88.78685 -200 45 -200 45 -200 45
4799859976.6628 -5.0551071 -88.765411 -200 45 -200 45 -200 45
4800860093.3489 -5.0375781 -88.757645 -200 45 -200 45 -200 45
4801860210.035 -5.0222912 -88.718864 -200 45 -200 45 -200 45
4802860326.7211 -5.001884 -88.658867 -200 45 -200 45 -200 45
4803860443.4072 -4.98032 -88.629219 -200 45 -200 45 -200 45
4804860560.0933 -4.969533 -88.521019 -200 45 -200 45 -200 45
4805860676.7795 -4.9558983 -88.444267 -200 45 -200 45 -200 45
4806860793.4656 -4.939198 -88.325302 -200 45 -200 45 -200 45
4807860910.1517 -4.923749 -88.216972 -200 45 -200 45 -200 45
4808861026.8378 -4.9089193 -88.102768 -200 45 -200 45 -200 45
4809861143.5239 -4.9029808 -87.942223 -200 45 -200 45 -200 45
4810861260.21 -4.8928447 -87.816765 -200 45 -200 45 -200 45
4811861376.8961 -4.8833413 -87.677528 -200 45 -200 45 -200 45
4812861493.5823 -4.8739161 -87.515747 -200 45 -200 45 -200 45
4813861610.2684 -4.8680758 -87.338669 -200 45 -200 45 -200 45
4814861726.9545 -4.858449 -87.17836 -200 45 -200 45 -200 45
4815861843.6406 -4.8581862 -87.005699 -200 45 -200 45 -200 45
4816861960.3267 -4.8558936 -86.791458 -200 45 -200 45 -200 45
4817862077.0128 -4.853816 -86.628532 -200 45 -200 45 -200 45
4818862193.6989 -4.851624 -86.446136 -200 45 -200 45 -200 45
4819862310.3851 -4.8539367 -86.25145 -200 45 -200 45 -200 45
4820862427.0712 -4.8567753 -86.062347 -200 45 -200 45 -200 45
4821862543.7573 -4.8580098 -85.874565 -200 45 -200 45 -200 45
4822862660.4434 -4.8694572 -85.676476 -200 45 -200 45 -200 45
4823862777.1295 -4.873281 -85.48111 -200 45 -200 45 -200 45
4824862893.8156 -4.882987 -85.293419 -200 45 -200 45 -200 45
4825863010.5018 -4.8917918 -85.118095 -200 45 -200 45 -200 45
4826863127.1879 -4.9062405 -84.947609 -200 45 -200 45 -200 45
4827863243.874 -4.9190512 -84.776062 -200 45 -200 45 -200 45
4828863360.5601 -4.9302197 -84.59243 -200 45 -200 45 -200 45
4829863477.2462 -4.9488435 -84.446678 -200 45 -200 45 -200 45
4830863593.9323 -4.9658656 -84.292992 -200 45 -200 45 -200 45
4831863710.6184 -4.9852209 -84.144943 -200 45 -200 45 -200 45
4832863827.3046 -5.0032377 -84.012589 -200 45 -200 45 -200 45
4833863943.9907 -5.0244899 -83.886124 -200 45 -200 45 -200 45
4834864060.6768 -5.0435781 -83.760368 -200 45 -200 45 -200 45
4835864177.3629 -5.0687943 -83.661339 -200 45 -200 45 -200 45
4836864294.049 -5.0877051 -83.559967 -200 45 -200 45 -200 45
4837864410.7351 -5.1089902 -83.464188 -200 45 -200 45 -200 45
4838864527.4212 -5.1378942 -83.40213 -200 45 -200 45 -200 45
4839864644.1074 -5.1565456 -83.318657 -200 45 -200 45 -200 45
4840864760.7935 -5.1788831 -83.291954 -200 45 -200 45 -200 45
4841864877.4796 -5.2002821 -83.22097 -200 45 -200 45 -200 45
4842864994.1657 -5.2196536 -83.200943 -200 45 -200 45 -200 45
4843865110.8518 -5.2406387 -83.184723 -200 45 -200 45 -200 45
4844865227.5379 -5.2569156 -83.190582 -200 45 -200 45 -200 45
4845865344.224 -5.2760968 -83.195671 -200 45 -200 45 -200 45
4846865460.9102 -5.2871189 -83.258263 -200 45 -200 45 -200 45
4847865577.5963 -5.302187 -83.317398 -200 45 -200 45 -200 45
4848865694.2824 -5.3152418 -83.373817 -200 45 -200 45 -200 45
4849865810.9685 -5.3258576 -83.474007 -200 45 -200 45 -200 45
4850865927.6546 -5.3346639 -83.601028 -200 45 -200 45 -200 45
4851866044.3407 -5.3434424 -83.731239 -200 45 -200 45 -200 45
4852866161.0268 -5.3528337 -83.905266 -200 45 -200 45 -200 45
4853866277.713 -5.3575554 -84.090828 -200 45 -200 45 -200 45
4854866394.3991 -5.3615913 -84.277687 -200 45 -200 45 -200 45
4855866511.0852 -5.368104 -84.478714 -200 45 -200 45 -200 45
4856866627.7713 -5.3718419 -84.68631 -200 45 -200 45 -200 45
4857866744.4574 -5.3744164 -84.930687 -200 45 -200 45 -200 45
4858866861.1435 -5.3770275 -85.160789 -200 45 -200 45 -200 45
4859866977.8296 -5.3785105 -85.406303 -200 45 -200 45 -200 45
4860867094.5158 -5.3767037 -85.659241 -200 45 -200 45 -200 45
4861867211.2019 -5.3742032 -85.903786 -200 45 -200 45 -200 45
4862867327.888 -5.371366 -86.143181 -200 45 -200 45 -200 45
4863867444.5741 -5.3699417 -86.400291 -200 45 -200 45 -200 45
4864867561.2602 -5.3650579 -86.610237 -200 45 -200 45 -200 45
4865867677.9463 -5.3581233 -86.892906 -200 45 -200 45 -200 45
4866867794.6324 -5.3486948 -87.126297 -200 45 -200 45 -200 45
4867867911.3186 -5.3415442 -87.35598 -200 45 -200 45 -200 45
4868868028.0047 -5.3279629 -87.561653 -200 45 -200 45 -200 45
4869868144.6908 -5.3212094 -87.777565 -200 45 -200 45 -200 45
4870868261.3769 -5.305892 -87.99173 -200 45 -200 45 -200 45
4871868378.063 -5.2927232 -88.156143 -200 45 -200 45 -200 45
4872868494.7491 -5.2799578 -88.350578 -200 45 -200 45 -200 45
4873868611.4352 -5.2651377 -88.526176 -200 45 -200 45 -200 45
4874868728.1214 -5.2471848 -88.65461 -200 45 -200 45 -200 45
4875868844.8075 -5.2303467 -88.844574 -200 45 -200 45 -200 45
4876868961.4936 -5.2143807 -88.939308 -200 45 -200 45 -200 45
4877869078.1797 -5.1989579 -89.046844 -200 45 -200 45 -200 45
4878869194.8658 -5.1821799 -89.155296 -200 45 -200 45 -200 45
4879869311.5519 -5.1694069 -89.19516 -200 45 -200 45 -200 45
4880869428.238 -5.1486492 -89.271294 -200 45 -200 45 -200 45
4881869544.9242 -5.1345558 -89.275818 -200 45 -200 45 -200 45
4882869661.6103 -5.117106 -89.30162 -200 45 -200 45 -200 45
4883869778.2964 -5.0999389 -89.28376 -200 45 -200 45 -200 45
4884869894.9825 -5.0822034 -89.255661 -200 45 -200 45 -200 45
4885870011.6686 -5.0680375 -89.24839 -200 45 -200 45 -200 45
4886870128.3547 -5.0542369 -89.186485 -200 45 -200 45 -200 45
4887870245.0408 -5.0415154 -89.077065 -200 45 -200 45 -200 45
4888870361.727 -5.026257 -88.973099 -200 45 -200 45 -200 45
4889870478.4131 -5.0140958 -88.833504 -200 45 -200 45 -200 45
4890870595.0992 -5.0026965 -88.712715 -200 45 -200 45 -200 45
4891870711.7853 -4.9924545 -88.54332 -200 45 -200 45 -200 45
4892870828.4714 -4.978622 -88.38839 -200 45 -200 45 -200 45
4893870945.1575 -4.9686794 -88.190567 -200 45 -200 45 -200 45
4894871061.8436 -4.9577637 -87.977303 -200 45 -200 45 -200 45
4895871178.5298 -4.9455538 -87.761162 -200 45 -200 45 -200 45
4896871295.2159 -4.9351249 -87.53669 -200 45 -200 45 -200 45
4897871411.902 -4.9258971 -87.31189 -200 45 -200 45 -200 45
4898871528.5881 -4.9142175 -87.044945 -200 45 -200 45 -200 45
4899871645.2742 -4.905952 -86.831459 -200 45 -200 45 -200 45
4900871761.9603 -4.895659 -86.553703 -200 45 -200 45 -200 45
4901871878.6464 -4.887641 -86.303177 -200 45 -200 45 -200 45
4902871995.3326 -4.8762026 -86.041641 -200 45 -200 45 -200 45
4903872112.0187 -4.8731136 -85.793816 -200 45 -200 45 -200 45
4904872228.7048 -4.8576698 -85.548798 -200 45 -200 45 -200 45
4905872345.3909 -4.8570743 -85.281921 -200 45 -200 45 -200 45
4906872462.077 -4.8492165 -85.042671 -200 45 -200 45 -200 45
4907872578.7631 -4.8393188 -84.816147 -200 45 -200 45 -200 45
4908872695.4492 -4.833972 -84.5868 -200 45 -200 45 -200 45
4909872812.1354 -4.8278861 -84.388992 -200 45 -200 45 -200 45
4910872928.8215 -4.8263426 -84.220749 -200 45 -200 45 -200 45
4911873045.5076 -4.8250194 -84.026184 -200 45 -200 45 -200 45
4912873162.1937 -4.8242831 -83.868683 -200 45 -200 45 -200 45
4913873278.8798 -4.8253193 -83.72596 -200 45 -200 45 -200 45
4914873395.5659 -4.8252883 -83.594803 -200 45 -200 45 -200 45
4915873512.252 -4.8320389 -83.501137 -200 45 -200 45 -200 45
4916873628.9382 -4.8368015 -83.389832 -200 45 -200 45 -200 45
4917873745.6243 -4.8431163 -83.306267 -200 45 -200 45 -200 45
4918873862.3104 -4.8524246 -83.233971 -200 45 -200 45 -200 45
4919873978.9965 -4.864615 -83.176674 -200 45 -200 45 -200 45
4920874095.6826 -4.877151 -83.150055 -200 45 -200 45 -200 45
4921874212.3687 -4.8905492 -83.125862 -200 45 -200 45 -200 45
4922874329.0548 -4.907053 -83.138077 -200 45 -200 45 -200 45
4923874445.741 -4.9183908 -83.130783 -200 45 -200 45 -200 45
4924874562.4271 -4.9323859 -83.161598 -200 45 -200 45 -200 45
4925874679.1132 -4.9504523 -83.210976 -200 45 -200 45 -200 45
4926874795.7993 -4.9650221 -83.283821 -200 45 -200 45 -200 45
4927874912.4854 -4.979887 -83.330772 -200 45 -200 45 -200 45
4928875029.1715 -4.9957676 -83.453506 -200 45 -200 45 -200 45
4929875145.8576 -5.0106764 -83.560837 -200 45 -200 45 -200 45
4930875262.5438 -5.0300374 -83.672676 -200 45 -200 45 -200 45
4931875379.2299 -5.0432405 -83.823273 -200 45 -200 45 -200 45
4932875495.916 -5.0611949 -83.990074 -200 45 -200 45 -200 45
4933875612.6021 -5.0791636 -84.176529 -200 45 -200 45 -200 45
4934875729.2882 -5.0935607 -84.374458 -200 45 -200 45 -200 45
4935875845.9743 -5.1098785 -84.555229 -200 45 -200 45 -200 45
4936875962.6604 -5.1275716 -84.80024 -200 45 -200 45 -200 45
4937876079.3466 -5.1378698 -85.004417 -200 45 -200 45 -200 45
4938876196.0327 -5.1513381 -85.262955 -200 45 -200 45 -200 45
4939876312.7188 -5.1631331 -85.497505 -200 45 -200 45 -200 45
4940876429.4049 -5.1771407 -85.77964 -200 45 -200 45 -200 45
4941876546.091 -5.1836295 -85.996193 -200 45 -200 45 -200 45
4942876662.7771 -5.1940761 -86.277878 -200 45 -200 45 -200 45
4943876779.4632 -5.1983428 -86.522018 -200 45 -200 45 -200 45
4944876896.1494 -5.2004328 -86.80954 -200 45 -200 45 -200 45
4945877012.8355 -5.2041535 -87.054085 -200 45 -200 45 -200 45
4946877129.5216 -5.2048779 -87.329895 -200 45 -200 45 -200 45
4947877246.2077 -5.2083898 -87.590714 -200 45 -200 45 -200 45
4948877362.8938 -5.2065592 -87.841278 -200 45 -200 45 -200 45
4949877479.5799 -5.2045312 -88.107513 -200 45 -200 45 -200 45
4950877596.266 -5.1963577 -88.365654 -200 45 -200 45 -200 45
4951877712.9522 -5.1933017 -88.597862 -200 45 -200 45 -200 45
4952877829.6383 -5.1827192 -88.850578 -200 45 -200 45 -200 45
4953877946.3244 -5.1719136 -89.072884 -200 45 -200 45 -200 45
4954878063.0105 -5.1652932 -89.293594 -200 45 -200 45 -200 45
4955878179.6966 -5.1516657 -89.509712 -200 45 -200 45 -200 45
4956878296.3827 -5.1403947 -89.686989 -200 45 -200 45 -200 45
4957878413.0688 -5.1278529 -89.864464 -200 45 -200 45 -200 45
4958878529.755 -5.1109324 -90.039474 -200 45 -200 45 -200 45
4959878646.4411 -5.0975122 -90.181969 -200 45 -200 45 -200 45
4960878763.1272 -5.0768948 -90.306793 -200 45 -200 45 -200 45
4961878879.8133 -5.0619302 -90.439156 -200 45 -200 45 -200 45
4962878996.4994 -5.0450187 -90.513374 -200 45 -200 45 -200 45
4963879113.1855 -5.0253701 -90.616165 -200 45 -200 45 -200 45
4964879229.8716 -5.0090737 -90.687759 -200 45 -200 45 -200 45
4965879346.5578 -4.9906788 -90.733711 -200 45 -200 45 -200 45
4966879463.2439 -4.9709663 -90.768127 -200 45 -200 45 -200 45
4967879579.93 -4.9513068 -90.764 -200 45 -200 45 -200 45
4968879696.6161 -4.9326196 -90.773949 -200 45 -200 45 -200 45
4969879813.3022 -4.9172134 -90.782043 -200 45 -200 45 -200 45
4970879929.9883 -4.8979712 -90.736824 -200 45 -200 45 -200 45
4971880046.6744 -4.8791842 -90.673813 -200 45 -200 45 -200 45
4972880163.3606 -4.8666034 -90.62571 -200 45 -200 45 -200 45
4973880280.0467 -4.8501892 -90.539841 -200 45 -200 45 -200 45
4974880396.7328 -4.8379951 -90.459694 -200 45 -200 45 -200 45
4975880513.4189 -4.8239999 -90.359261 -200 45 -200 45 -200 45
4976880630.105 -4.8116031 -90.242355 -200 45 -200 45 -200 45
4977880746.7911 -4.7976179 -90.105835 -200 45 -200 45 -200 45
4978880863.4772 -4.7898121 -89.981506 -200 45 -200 45 -200 45
4979880980.1634 -4.7790246 -89.838013 -200 45 -200 45 -200 45
4980881096.8495 -4.77107 -89.677841 -200 45 -200 45 -200 45
4981881213.5356 -4.7658329 -89.518974 -200 45 -200 45 -200 45
4982881330.2217 -4.7608309 -89.359932 -200 45 -200 45 -200 45
4983881446.9078 -4.7564378 -89.179573 -200 45 -200 45 -200 45
4984881563.5939 -4.7559571 -89.004044 -200 45 -200 45 -200 45
4985881680.28 -4.7528176 -88.82843 -200 45 -200 45 -200 45
4986881796.9662 -4.756392 -88.6418 -200 45 -200 45 -200 45
4987881913.6523 -4.7580609 -88.432114 -200 45 -200 45 -200 45
4988882030.3384 -4.7616935 -88.277161 -200 45 -200 45 -200 45
4989882147.0245 -4.7709022 -88.071686 -200 45 -200 45 -200 45
4990882263.7106 -4.7744417 -87.884277 -200 45 -200 45 -200 45
4991882380.3967 -4.7848396 -87.723145 -200 45 -200 45 -200 45
4992882497.0828 -4.7944317 -87.523125 -200 45 -200 45 -200 45
4993882613.769 -4.8059549 -87.339043 -200 45 -200 45 -200 45
4994882730.4551 -4.8183265 -87.160217 -200 45 -200 45 -200 45
4995882847.1412 -4.8345537 -87.006485 -200 45 -200 45 -200 45
4996882963.8273 -4.8516197 -86.837936 -200 45 -200 45 -200 45
4997883080.5134 -4.867713 -86.70092 -200 45 -200 45 -200 45
4998883197.1995 -4.8858638 -86.556084 -200 45 -200 45 -200 45
4999883313.8856 -4.9088869 -86.422401 -200 45 -200 45 -200 45
5000883430.5718 -4.9270015 -86.307388 -200 45 -200 45 -200 45
5001883547.2579 -4.9492674 -86.185455 -200 45 -200 45 -200 45
5002883663.944 -4.974967 -86.088646 -200 45 -200 45 -200 45
5003883780.6301 -4.9994979 -85.999237 -200 45 -200 45 -200 45
5004883897.3162 -5.0267367 -85.931587 -200 45 -200 45 -200 45
5005884014.0023 -5.0511279 -85.869064 -200 45 -200 45 -200 45
5006884130.6884 -5.0783496 -85.806274 -200 45 -200 45 -200 45
5007884247.3746 -5.1060052 -85.748634 -200 45 -200 45 -200 45
5008884364.0607 -5.1354589 -85.767471 -200 45 -200 45 -200 45
5009884480.7468 -5.1638103 -85.753952 -200 45 -200 45 -200 45
5010884597.4329 -5.1935925 -85.742867 -200 45 -200 45 -200 45
5011884714.119 -5.2207632 -85.764771 -200 45 -200 45 -200 45
5012884830.8051 -5.2469797 -85.790382 -200 45 -200 45 -200 45
5013884947.4912 -5.2787566 -85.842255 -200 45 -200 45 -200 45
5014885064.1774 -5.3045344 -85.865318 -200 45 -200 45 -200 45
5015885180.8635 -5.3336344 -85.971573 -200 45 -200 45 -200 45
5016885297.5496 -5.3644242 -86.040604 -200 45 -200 45 -200 45
5017885414.2357 -5.3883533 -86.127022 -200 45 -200 45 -200 45
5018885530.9218 -5.4135575 -86.212379 -200 45 -200 45 -200 45
5019885647.6079 -5.4369636 -86.321632 -200 45 -200 45 -200 45
5020885764.294 -5.4594641 -86.428772 -200 45 -200 45 -200 45
5021885880.9802 -5.4812841 -86.572174 -200 45 -200 45 -200 45
5022885997.6663 -5.4964843 -86.684181 -200 45 -200 45 -200 45
5023886114.3524 -5.509624 -86.794144 -200 45 -200 45 -200 45
5024886231.0385 -5.5257206 -86.920784 -200 45 -200 45 -200 45
5025886347.7246 -5.5370698 -87.05867 -200 45 -200 45 -200 45
5026886464.4107 -5.5446005 -87.209984 -200 45 -200 45 -200 45
5027886581.0968 -5.5503693 -87.352333 -200 45 -200 45 -200 45
5028886697.783 -5.5497456 -87.487831 -200 45 -200 45 -200 45
5029886814.4691 -5.5488734 -87.624893 -200 45 -200 45 -200 45
5030886931.1552 -5.546792 -87.75927 -200 45 -200 45 -200 45
5031887047.8413 -5.5368319 -87.937431 -200 45 -200 45 -200 45
5032887164.5274 -5.5218725 -88.065132 -200 45 -200 45 -200 45
5033887281.2135 -5.5102859 -88.231575 -200 45 -200 45 -200 45
5034887397.8997 -5.4927015 -88.378349 -200 45 -200 45 -200 45
5035887514.5858 -5.4731855 -88.531136 -200 45 -200 45 -200 45
5036887631.2719 -5.4513459 -88.690735 -200 45 -200 45 -200 45
5037887747.958 -5.4240813 -88.837532 -200 45 -200 45 -200 45
5038887864.6441 -5.397881 -88.953644 -200 45 -200 45 -200 45
5039887981.3302 -5.3691249 -89.107262 -200 45 -200 45 -200 45
5040888098.0163 -5.3446126 -89.253349 -200 45 -200 45 -200 45
5041888214.7025 -5.3116932 -89.387939 -200 45 -200 45 -200 45
5042888331.3886 -5.2804198 -89.536209 -200 45 -200 45 -200 45
5043888448.0747 -5.2493944 -89.654739 -200 45 -200 45 -200 45
5044888564.7608 -5.2142787 -89.781586 -200 45 -200 45 -200 45
5045888681.4469 -5.1819463 -89.878464 -200 45 -200 45 -200 45
5046888798.133 -5.146975 -89.974014 -200 45 -200 45 -200 45
5047888914.8191 -5.1190023 -90.078682 -200 45 -200 45 -200 45
5048889031.5053 -5.0893497 -90.146858 -200 45 -200 45 -200 45
5049889148.1914 -5.055934 -90.191437 -200 45 -200 45 -200 45
5050889264.8775 -5.031415 -90.256615 -200 45 -200 45 -200 45
5051889381.5636 -5.0016112 -90.281387 -200 45 -200 45 -200 45
5052889498.2497 -4.9715939 -90.278961 -200 45 -200 45 -200 45
5053889614.9358 -4.9469361 -90.257545 -200 45 -200 45 -200 45
5054889731.6219 -4.9181671 -90.221413 -200 45 -200 45 -200 45
5055889848.3081 -4.8925176 -90.177261 -200 45 -200 45 -200 45
5056889964.9942 -4.8673701 -90.127243 -200 45 -200 45 -200 45
5057890081.6803 -4.8437567 -90.039154 -200 45 -200 45 -200 45
5058890198.3664 -4.820704 -89.982529 -200 45 -200 45 -200 45
5059890315.0525 -4.7976604 -89.881531 -200 45 -200 45 -200 45
5060890431.7386 -4.7752414 -89.757652 -200 45 -200 45 -200 45
5061890548.4247 -4.7567682 -89.666962 -200 45 -200 45 -200 45
5062890665.1109 -4.7361841 -89.534866 -200 45 -200 45 -200 45
5063890781.797 -4.7162786 -89.394279 -200 45 -200 45 -200 45
5064890898.4831 -4.7037392 -89.265068 -200 45 -200 45 -200 45
5065891015.1692 -4.6874452 -89.131882 -200 45 -200 45 -200 45
5066891131.8553 -4.6732512 -88.990295 -200 45 -200 45 -200 45
5067891248.5414 -4.6628366 -88.845375 -200 45 -200 45 -200 45
5068891365.2275 -4.6551161 -88.677628 -200 45 -200 45 -200 45
5069891481.9137 -4.6425762 -88.543259 -200 45 -200 45 -200 45
5070891598.5998 -4.6410031 -88.37571 -200 45 -200 45 -200 45
5071891715.2859 -4.6341586 -88.224297 -200 45 -200 45 -200 45
5072891831.972 -4.6337147 -88.070061 -200 45 -200 45 -200 45
5073891948.6581 -4.633975 -87.930931 -200 45 -200 45 -200 45
5074892065.3442 -4.6389251 -87.771049 -200 45 -200 45 -200 45
5075892182.0303 -4.6444354 -87.634781 -200 45 -200 45 -200 45
5076892298.7165 -4.6482687 -87.467606 -200 45 -200 45 -200 45
5077892415.4026 -4.6582494 -87.351791 -200 45 -200 45 -200 45
5078892532.0887 -4.6682439 -87.204926 -200 45 -200 45 -200 45
5079892648.7748 -4.6785302 -87.08284 -200 45 -200 45 -200 45
5080892765.4609 -4.6939435 -86.97879 -200 45 -200 45 -200 45
5081892882.147 -4.7049494 -86.844978 -200 45 -200 45 -200 45
5082892998.8331 -4.7249446 -86.744949 -200 45 -200 45 -200 45
5083893115.5193 -4.7410235 -86.652161 -200 45 -200 45 -200 45
5084893232.2054 -4.7591529 -86.575493 -200 45 -200 45 -200 45
5085893348.8915 -4.7820692 -86.490715 -200 45 -200 45 -200 45
5086893465.5776 -4.8032022 -86.417336 -200 45 -200 45 -200 45
5087893582.2637 -4.824872 -86.362747 -200 45 -200 45 -200 45
5088893698.9498 -4.8486562 -86.308167 -200 45 -200 45 -200 45
5089893815.6359 -4.8711052 -86.300941 -200 45 -200 45 -200 45
5090893932.3221 -4.8967462 -86.285286 -200 45 -200 45 -200 45
5091894049.0082 -4.9220386 -86.289345 -200 45 -200 45 -200 45
5092894165.6943 -4.9472136 -86.297691 -200 45 -200 45 -200 45
5093894282.3804 -4.9793458 -86.348114 -200 45 -200 45 -200 45
5094894399.0665 -5.0027041 -86.400139 -200 45 -200 45 -200 45
5095894515.7526 -5.0288968 -86.430939 -200 45 -200 45 -200 45
5096894632.4387 -5.0563078 -86.518715 -200 45 -200 45 -200 45
5097894749.1249 -5.081181 -86.628532 -200 45 -200 45 -200 45
5098894865.811 -5.1054921 -86.751755 -200 45 -200 45 -200 45
5099894982.4971 -5.1311259 -86.860466 -200 45 -200 45 -200 45
5100895099.1832 -5.1561036 -86.989746 -200 45 -200 45 -200 45
5101895215.8693 -5.1792612 -87.158943 -200 45 -200 45 -200 45
5102895332.5554 -5.2026439 -87.298103 -200 45 -200 45 -200 45
5103895449.2415 -5.2230849 -87.485641 -200 45 -200 45 -200 45
5104895565.9277 -5.2382073 -87.662331 -200 45 -200 45 -200 45
5105895682.6138 -5.2576175 -87.861443 -200 45 -200 45 -200 45
5106895799.2999 -5.2763906 -88.070702 -200 45 -200 45 -200 45
5107895915.986 -5.287271 -88.296318 -200 45 -200 45 -200 45
5108896032.6721 -5.3011899 -88.527893 -200 45 -200 45 -200 45
5109896149.3582 -5.3148551 -88.749207 -200 45 -200 45 -200 45
5110896266.0443 -5.321517 -88.978752 -200 45 -200 45 -200 45
5111896382.7305 -5.3286052 -89.206711 -200 45 -200 45 -200 45
5112896499.4166 -5.3346739 -89.456802 -200 45 -200 45 -200 45
5113896616.1027 -5.3383932 -89.709496 -200 45 -200 45 -200 45
5114896732.7888 -5.3376493 -89.957664 -200 45 -200 45 -200 45
5115896849.4749 -5.3408852 -90.218269 -200 45 -200 45 -200 45
5116896966.161 -5.3368564 -90.447876 -200 45 -200 45 -200 45
5117897082.8471 -5.3305902 -90.698944 -200 45 -200 45 -200 45
5118897199.5333 -5.3209691 -90.90979 -200 45 -200 45 -200 45
5119897316.2194 -5.3120956 -91.146454 -200 45 -200 45 -200 45
5120897432.9055 -5.300766 -91.340111 -200 45 -200 45 -200 45
5121897549.5916 -5.2928109 -91.549431 -200 45 -200 45 -200 45
5122897666.2777 -5.2798061 -91.746246 -200 45 -200 45 -200 45
5123897782.9638 -5.2633939 -91.903908 -200 45 -200 45 -200 45
5124897899.6499 -5.249516 -92.099525 -200 45 -200 45 -200 45
5125898016.3361 -5.2335367 -92.263039 -200 45 -200 45 -200 45
5126898133.0222 -5.211772 -92.399513 -200 45 -200 45 -200 45
5127898249.7083 -5.1969805 -92.51519 -200 45 -200 45 -200 45
5128898366.3944 -5.1785626 -92.628578 -200 45 -200 45 -200 45
5129898483.0805 -5.1535587 -92.732826 -200 45 -200 45 -200 45
5130898599.7666 -5.1364841 -92.80291 -200 45 -200 45 -200 45
5131898716.4527 -5.1102257 -92.867065 -200 45 -200 45 -200 45
5132898833.1389 -5.091701 -92.914322 -200 45 -200 45 -200 45
5133898949.825 -5.0704703 -92.948982 -200 45 -200 45 -200 45
5134899066.5111 -5.0456767 -92.925438 -200 45 -200 45 -200 45
5135899183.1972 -5.0257893 -92.931633 -200 45 -200 45 -200 45
5136899299.8833 -5.0050521 -92.912392 -200 45 -200 45 -200 45
5137899416.5694 -4.9861426 -92.862595 -200 45 -200 45 -200 45
5138899533.2555 -4.9628181 -92.808517 -200 45 -200 45 -200 45
5139899649.9417 -4.9451685 -92.729042 -200 45 -200 45 -200 45
5140899766.6278 -4.9281802 -92.650146 -200 45 -200 45 -200 45
5141899883.3139 -4.9104557 -92.552177 -200 45 -200 45 -200 45
5142900000 -4.8937364 -92.458321 -200 45 -200 45 -200 45
5143900116.6861 -4.8777552 -92.319794 -200 45 -200 45 -200 45
5144900233.3722 -4.8619232 -92.162979 -200 45 -200 45 -200 45
5145900350.0583 -4.8502822 -92.023216 -200 45 -200 45 -200 45
5146900466.7445 -4.8401895 -91.870773 -200 45 -200 45 -200 45
5147900583.4306 -4.8323627 -91.694145 -200 45 -200 45 -200 45
5148900700.1167 -4.8187375 -91.503761 -200 45 -200 45 -200 45
5149900816.8028 -4.8125429 -91.306007 -200 45 -200 45 -200 45
5150900933.4889 -4.8039675 -91.118149 -200 45 -200 45 -200 45
5151901050.175 -4.7970805 -90.921707 -200 45 -200 45 -200 45
5152901166.8611 -4.7902217 -90.721443 -200 45 -200 45 -200 45
5153901283.5473 -4.788991 -90.512352 -200 45 -200 45 -200 45
5154901400.2334 -4.7878218 -90.301277 -200 45 -200 45 -200 45
5155901516.9195 -4.7932906 -90.084015 -200 45 -200 45 -200 45
5156901633.6056 -4.7913318 -89.878624 -200 45 -200 45 -200 45
5157901750.2917 -4.7976418 -89.66227 -200 45 -200 45 -200 45
5158901866.9778 -4.8031716 -89.461853 -200 45 -200 45 -200 45
5159901983.6639 -4.8097568 -89.26622 -200 45 -200 45 -200 45
5160902100.3501 -4.8170052 -89.078796 -200 45 -200 45 -200 45
5161902217.0362 -4.8294497 -88.870239 -200 45 -200 45 -200 45
5162902333.7223 -4.8438845 -88.696426 -200 45 -200 45 -200 45
5163902450.4084 -4.8575239 -88.530457 -200 45 -200 45 -200 45
5164902567.0945 -4.873661 -88.357933 -200 45 -200 45 -200 45
5165902683.7806 -4.8926458 -88.186852 -200 45 -200 45 -200 45
5166902800.4667 -4.9095373 -88.032356 -200 45 -200 45 -200 45
5167902917.1529 -4.9309602 -87.882256 -200 45 -200 45 -200 45
5168903033.839 -4.954525 -87.737564 -200 45 -200 45 -200 45
5169903150.5251 -4.977634 -87.626427 -200 45 -200 45 -200 45
5170903267.2112 -5.0037899 -87.514755 -200 45 -200 45 -200 45
5171903383.8973 -5.0309653 -87.410385 -200 45 -200 45 -200 45
5172903500.5834 -5.056427 -87.312569 -200 45 -200 45 -200 45
5173903617.2695 -5.0816875 -87.238197 -200 45 -200 45 -200 45
5174903733.9557 -5.1126118 -87.173889 -200 45 -200 45 -200 45
5175903850.6418 -5.1391716 -87.124176 -200 45 -200 45 -200 45
5176903967.3279 -5.1651893 -87.061249 -200 45 -200 45 -200 45
5177904084.014 -5.1981587 -87.065826 -200 45 -200 45 -200 45
5178904200.7001 -5.2269292 -87.059082 -200 45 -200 45 -200 45
5179904317.3862 -5.2552171 -87.039528 -200 45 -200 45 -200 45
5180904434.0723 -5.2820792 -87.062981 -200 45 -200 45 -200 45
5181904550.7585 -5.3070879 -87.067566 -200 45 -200 45 -200 45
5182904667.4446 -5.3339663 -87.133308 -200 45 -200 45 -200 45
5183904784.1307 -5.3527212 -87.153976 -200 45 -200 45 -200 45
5184904900.8168 -5.3793883 -87.210159 -200 45 -200 45 -200 45
5185905017.5029 -5.4005537 -87.304695 -200 45 -200 45 -200 45
5186905134.189 -5.420558 -87.385452 -200 45 -200 45 -200 45
5187905250.8751 -5.4322295 -87.471016 -200 45 -200 45 -200 45
5188905367.5613 -5.4479742 -87.599205 -200 45 -200 45 -200 45
5189905484.2474 -5.4601312 -87.724045 -200 45 -200 45 -200 45
5190905600.9335 -5.465765 -87.850754 -200 45 -200 45 -200 45
5191905717.6196 -5.4672794 -87.99041 -200 45 -200 45 -200 45
5192905834.3057 -5.4720268 -88.16497 -200 45 -200 45 -200 45
5193905950.9918 -5.466948 -88.364098 -200 45 -200 45 -200 45
5194906067.6779 -5.462903 -88.537521 -200 45 -200 45 -200 45
5195906184.3641 -5.4532003 -88.780479 -200 45 -200 45 -200 45
5196906301.0502 -5.4459481 -89.008522 -200 45 -200 45 -200 45
5197906417.7363 -5.4298806 -89.267578 -200 45 -200 45 -200 45
5198906534.4224 -5.4163918 -89.497337 -200 45 -200 45 -200 45
5199906651.1085 -5.4034934 -89.791611 -200 45 -200 45 -200 45
5200906767.7946 -5.3857331 -90.057297 -200 45 -200 45 -200 45
5201906884.4807 -5.371304 -90.294426 -200 45 -200 45 -200 45
5202907001.1669 -5.3515563 -90.569572 -200 45 -200 45 -200 45
5203907117.853 -5.3340783 -90.851021 -200 45 -200 45 -200 45
5204907234.5391 -5.3146105 -91.087975 -200 45 -200 45 -200 45
5205907351.2252 -5.291769 -91.343834 -200 45 -200 45 -200 45
5206907467.9113 -5.2713618 -91.560448 -200 45 -200 45 -200 45
5207907584.5974 -5.2495723 -91.791832 -200 45 -200 45 -200 45
5208907701.2835 -5.2229538 -91.99749 -200 45 -200 45 -200 45
5209907817.9697 -5.1997728 -92.193069 -200 45 -200 45 -200 45
5210907934.6558 -5.1763444 -92.366783 -200 45 -200 45 -200 45
5211908051.3419 -5.1501732 -92.537651 -200 45 -200 45 -200 45
5212908168.028 -5.1222281 -92.675385 -200 45 -200 45 -200 45
5213908284.7141 -5.095562 -92.80146 -200 45 -200 45 -200 45
5214908401.4002 -5.0712061 -92.948143 -200 45 -200 45 -200 45
5215908518.0863 -5.0413294 -93.022102 -200 45 -200 45 -200 45
5216908634.7725 -5.0095153 -93.117348 -200 45 -200 45 -200 45
5217908751.4586 -4.9867363 -93.184151 -200 45 -200 45 -200 45
5218908868.1447 -4.9580979 -93.231644 -200 45 -200 45 -200 45
5219908984.8308 -4.9316802 -93.265366 -200 45 -200 45 -200 45
5220909101.5169 -4.9088974 -93.270432 -200 45 -200 45 -200 45
5221909218.203 -4.8825541 -93.279427 -200 45 -200 45 -200 45
5222909334.8891 -4.8576488 -93.295013 -200 45 -200 45 -200 45
5223909451.5753 -4.8348408 -93.256844 -200 45 -200 45 -200 45
5224909568.2614 -4.8120227 -93.206818 -200 45 -200 45 -200 45
5225909684.9475 -4.7963181 -93.141708 -200 45 -200 45 -200 45
5226909801.6336 -4.7748141 -93.057037 -200 45 -200 45 -200 45
5227909918.3197 -4.7568078 -92.969902 -200 45 -200 45 -200 45
5228910035.0058 -4.7398267 -92.875145 -200 45 -200 45 -200 45
5229910151.6919 -4.7252254 -92.776237 -200 45 -200 45 -200 45
5230910268.3781 -4.7105675 -92.617531 -200 45 -200 45 -200 45
5231910385.0642 -4.6992536 -92.488266 -200 45 -200 45 -200 45
5232910501.7503 -4.692904 -92.338013 -200 45 -200 45 -200 45
5233910618.4364 -4.6809955 -92.175873 -200 45 -200 45 -200 45
5234910735.1225 -4.6759791 -92.017769 -200 45 -200 45 -200 45
5235910851.8086 -4.6704478 -91.805962 -200 45 -200 45 -200 45
5236910968.4947 -4.667192 -91.648483 -200 45 -200 45 -200 45
5237911085.1809 -4.666934 -91.462242 -200 45 -200 45 -200 45
5238911201.867 -4.6660604 -91.277489 -200 45 -200 45 -200 45
5239911318.5531 -4.662075 -91.078056 -200 45 -200 45 -200 45
5240911435.2392 -4.6670027 -90.866257 -200 45 -200 45 -200 45
5241911551.9253 -4.6683879 -90.707321 -200 45 -200 45 -200 45
5242911668.6114 -4.6766591 -90.498238 -200 45 -200 45 -200 45
5243911785.2976 -4.6823192 -90.328026 -200 45 -200 45 -200 45
5244911901.9837 -4.6870637 -90.11264 -200 45 -200 45 -200 45
5245912018.6698 -4.6970706 -89.95903 -200 45 -200 45 -200 45
5246912135.3559 -4.7113681 -89.781166 -200 45 -200 45 -200 45
5247912252.042 -4.7186408 -89.630089 -200 45 -200 45 -200 45
5248912368.7281 -4.7344408 -89.476433 -200 45 -200 45 -200 45
5249912485.4142 -4.7511697 -89.3312 -200 45 -200 45 -200 45
5250912602.1004 -4.7686896 -89.199326 -200 45 -200 45 -200 45
5251912718.7865 -4.7888656 -89.039955 -200 45 -200 45 -200 45
5252912835.4726 -4.807281 -88.964264 -200 45 -200 45 -200 45
5253912952.1587 -4.8303981 -88.834084 -200 45 -200 45 -200 45
5254913068.8448 -4.8542142 -88.742653 -200 45 -200 45 -200 45
5255913185.5309 -4.8739152 -88.694839 -200 45 -200 45 -200 45
5256913302.217 -4.8991632 -88.624039 -200 45 -200 45 -200 45
5257913418.9032 -4.9254403 -88.569786 -200 45 -200 45 -200 45
5258913535.5893 -4.9498405 -88.556252 -200 45 -200 45 -200 45
5259913652.2754 -4.9716682 -88.532082 -200 45 -200 45 -200 45
5260913768.9615 -4.9974012 -88.542633 -200 45 -200 45 -200 45
5261913885.6476 -5.0262265 -88.568916 -200 45 -200 45 -200 45
5262914002.3337 -5.0498152 -88.620644 -200 45 -200 45 -200 45
5263914119.0198 -5.0784907 -88.676834 -200 45 -200 45 -200 45
5264914235.706 -5.1021299 -88.738525 -200 45 -200 45 -200 45
5265914352.3921 -5.1282897 -88.8255 -200 45 -200 45 -200 45
5266914469.0782 -5.1548781 -88.930969 -200 45 -200 45 -200 45
5267914585.7643 -5.1763144 -89.049812 -200 45 -200 45 -200 45
5268914702.4504 -5.1996984 -89.210663 -200 45 -200 45 -200 45
5269914819.1365 -5.2226734 -89.370934 -200 45 -200 45 -200 45
5270914935.8226 -5.2452855 -89.541924 -200 45 -200 45 -200 45
5271915052.5088 -5.2651234 -89.729347 -200 45 -200 45 -200 45
5272915169.1949 -5.2855024 -89.937073 -200 45 -200 45 -200 45
5273915285.881 -5.3046966 -90.148018 -200 45 -200 45 -200 45
5274915402.5671 -5.3163395 -90.378738 -200 45 -200 45 -200 45
5275915519.2532 -5.3324733 -90.62574 -200 45 -200 45 -200 45
5276915635.9393 -5.3445826 -90.828407 -200 45 -200 45 -200 45
5277915752.6254 -5.3539538 -91.066757 -200 45 -200 45 -200 45
5278915869.3116 -5.363081 -91.352112 -200 45 -200 45 -200 45
5279915985.9977 -5.3688207 -91.616493 -200 45 -200 45 -200 45
5280916102.6838 -5.3748956 -91.845901 -200 45 -200 45 -200 45
5281916219.3699 -5.3745513 -92.121239 -200 45 -200 45 -200 45
5282916336.056 -5.3761964 -92.393959 -200 45 -200 45 -200 45
5283916452.7421 -5.3780346 -92.653709 -200 45 -200 45 -200 45
5284916569.4282 -5.3690681 -92.932846 -200 45 -200 45 -200 45
5285916686.1144 -5.3634334 -93.171753 -200 45 -200 45 -200 45
5286916802.8005 -5.3574476 -93.417007 -200 45 -200 45 -200 45
5287916919.4866 -5.3461876 -93.653557 -200 45 -200 45 -200 45
5288917036.1727 -5.334621 -93.909538 -200 45 -200 45 -200 45
5289917152.8588 -5.3202281 -94.113388 -200 45 -200 45 -200 45
5290917269.5449 -5.307086 -94.325302 -200 45 -200 45 -200 45
5291917386.231 -5.2890563 -94.505302 -200 45 -200 45 -200 45
5292917502.9172 -5.2678375 -94.686783 -200 45 -200 45 -200 45
5293917619.6033 -5.2519798 -94.83844 -200 45 -200 45 -200 45
5294917736.2894 -5.2292552 -95.010452 -200 45 -200 45 -200 45
5295917852.9755 -5.2102027 -95.134132 -200 45 -200 45 -200 45
5296917969.6616 -5.1868286 -95.262703 -200 45 -200 45 -200 45
5297918086.3477 -5.1646357 -95.357719 -200 45 -200 45 -200 45
5298918203.0338 -5.1395106 -95.455696 -200 45 -200 45 -200 45
5299918319.72 -5.118784 -95.523804 -200 45 -200 45 -200 45
5300918436.4061 -5.0925307 -95.572327 -200 45 -200 45 -200 45
5301918553.0922 -5.0702939 -95.606377 -200 45 -200 45 -200 45
5302918669.7783 -5.0463085 -95.613144 -200 45 -200 45 -200 45
5303918786.4644 -5.0221381 -95.627014 -200 45 -200 45 -200 45
5304918903.1505 -4.9984479 -95.60006 -200 45 -200 45 -200 45
5305919019.8366 -4.9748058 -95.56041 -200 45 -200 45 -200 45
5306919136.5228 -4.9532151 -95.50946 -200 45 -200 45 -200 45
5307919253.2089 -4.9308171 -95.435371 -200 45 -200 45 -200 45
5308919369.895 -4.9089727 -95.352516 -200 45 -200 45 -200 45
5309919486.5811 -4.8907247 -95.255753 -200 45 -200 45 -200 45
5310919603.2672 -4.8698077 -95.154129 -200 45 -200 45 -200 45
5311919719.9533 -4.8529267 -95.009277 -200 45 -200 45 -200 45
5312919836.6394 -4.8341093 -94.879402 -200 45 -200 45 -200 45
5313919953.3256 -4.8197851 -94.741669 -200 45 -200 45 -200 45
5314920070.0117 -4.8049479 -94.557388 -200 45 -200 45 -200 45
5315920186.6978 -4.7941804 -94.378151 -200 45 -200 45 -200 45
5316920303.3839 -4.7832026 -94.191818 -200 45 -200 45 -200 45
5317920420.07 -4.7761779 -94.017143 -200 45 -200 45 -200 45
5318920536.7561 -4.7662024 -93.826897 -200 45 -200 45 -200 45
5319920653.4422 -4.7605186 -93.633842 -200 45 -200 45 -200 45
5320920770.1284 -4.7541838 -93.441742 -200 45 -200 45 -200 45
5321920886.8145 -4.749671 -93.211777 -200 45 -200 45 -200 45
5322921003.5006 -4.7509923 -93.022217 -200 45 -200 45 -200 45
5323921120.1867 -4.7476192 -92.813622 -200 45 -200 45 -200 45
5324921236.8728 -4.752986 -92.590347 -200 45 -200 45 -200 45
5325921353.5589 -4.7549272 -92.381142 -200 45 -200 45 -200 45
5326921470.245 -4.7592034 -92.179008 -200 45 -200 45 -200 45
5327921586.9312 -4.7688317 -91.958412 -200 45 -200 45 -200 45
5328921703.6173 -4.7767944 -91.770119 -200 45 -200 45 -200 45
5329921820.3034 -4.7861776 -91.568024 -200 45 -200 45 -200 45
5330921936.9895 -4.8020792 -91.388588 -200 45 -200 45 -200 45
5331922053.6756 -4.8148689 -91.211205 -200 45 -200 45 -200 45
5332922170.3617 -4.8276873 -91.031189 -200 45 -200 45 -200 45
5333922287.0478 -4.8458219 -90.87265 -200 45 -200 45 -200 45
5334922403.734 -4.8635659 -90.696037 -200 45 -200 45 -200 45
5335922520.4201 -4.8838367 -90.555237 -200 45 -200 45 -200 45
5336922637.1062 -4.9039621 -90.443741 -200 45 -200 45 -200 45
5337922753.7923 -4.9261007 -90.318077 -200 45 -200 45 -200 45
5338922870.4784 -4.9493351 -90.199112 -200 45 -200 45 -200 45
5339922987.1645 -4.9733 -90.112038 -200 45 -200 45 -200 45
5340923103.8506 -4.9963517 -90.016045 -200 45 -200 45 -200 45
5341923220.5368 -5.0193043 -89.968369 -200 45 -200 45 -200 45
5342923337.2229 -5.0493617 -89.901169 -200 45 -200 45 -200 45
5343923453.909 -5.074265 -89.892937 -200 45 -200 45 -200 45
5344923570.5951 -5.0998988 -89.851524 -200 45 -200 45 -200 45
5345923687.2812 -5.1252337 -89.886024 -200 45 -200 45 -200 45
5346923803.9673 -5.1530519 -89.891533 -200 45 -200 45 -200 45
5347923920.6534 -5.1802263 -89.935028 -200 45 -200 45 -200 45
5348924037.3396 -5.2044325 -89.979271 -200 45 -200 45 -200 45
5349924154.0257 -5.2304611 -90.073303 -200 45 -200 45 -200 45
5350924270.7118 -5.2524829 -90.178413 -200 45 -200 45 -200 45
5351924387.3979 -5.2771196 -90.259415 -200 45 -200 45 -200 45
5352924504.084 -5.3003483 -90.399818 -200 45 -200 45 -200 45
5353924620.7701 -5.3234096 -90.551193 -200 45 -200 45 -200 45
5354924737.4562 -5.3403926 -90.707642 -200 45 -200 45 -200 45
5355924854.1424 -5.3576703 -90.892189 -200 45 -200 45 -200 45
5356924970.8285 -5.3779249 -91.094856 -200 45 -200 45 -200 45
5357925087.5146 -5.398159 -91.296616 -200 45 -200 45 -200 45
5358925204.2007 -5.4105992 -91.492935 -200 45 -200 45 -200 45
5359925320.8868 -5.4222565 -91.735168 -200 45 -200 45 -200 45
5360925437.5729 -5.4320431 -91.996536 -200 45 -200 45 -200 45
5361925554.259 -5.4447002 -92.227463 -200 45 -200 45 -200 45
5362925670.9452 -5.4545555 -92.482071 -200 45 -200 45 -200 45
5363925787.6313 -5.4583564 -92.761604 -200 45 -200 45 -200 45
5364925904.3174 -5.4600897 -93.010895 -200 45 -200 45 -200 45
5365926021.0035 -5.46205 -93.276512 -200 45 -200 45 -200 45
5366926137.6896 -5.4611077 -93.544998 -200 45 -200 45 -200 45
5367926254.3757 -5.4580884 -93.810295 -200 45 -200 45 -200 45
5368926371.0618 -5.449676 -94.06868 -200 45 -200 45 -200 45
5369926487.748 -5.4424124 -94.328484 -200 45 -200 45 -200 45
5370926604.4341 -5.434391 -94.573631 -200 45 -200 45 -200 45
5371926721.1202 -5.4235163 -94.814262 -200 45 -200 45 -200 45
5372926837.8063 -5.4108186 -95.041199 -200 45 -200 45 -200 45
5373926954.4924 -5.3952608 -95.258812 -200 45 -200 45 -200 45
5374927071.1785 -5.3796368 -95.46524 -200 45 -200 45 -200 45
5375927187.8646 -5.3643327 -95.700714 -200 45 -200 45 -200 45
5376927304.5508 -5.3467131 -95.876122 -200 45 -200 45 -200 45
5377927421.2369 -5.3243804 -96.05275 -200 45 -200 45 -200 45
5378927537.923 -5.3010416 -96.19313 -200 45 -200 45 -200 45
5379927654.6091 -5.2840357 -96.339035 -200 45 -200 45 -200 45
5380927771.2952 -5.2580061 -96.47596 -200 45 -200 45 -200 45
5381927887.9813 -5.2340565 -96.573532 -200 45 -200 45 -200 45
5382928004.6674 -5.2096949 -96.656792 -200 45 -200 45 -200 45
5383928121.3536 -5.1847835 -96.746826 -200 45 -200 45 -200 45
5384928238.0397 -5.1591392 -96.7845 -200 45 -200 45 -200 45
5385928354.7258 -5.1338677 -96.810089 -200 45 -200 45 -200 45
5386928471.4119 -5.1086292 -96.835037 -200 45 -200 45 -200 45
5387928588.098 -5.0838151 -96.840637 -200 45 -200 45 -200 45
5388928704.7841 -5.0593076 -96.822533 -200 45 -200 45 -200 45
5389928821.4702 -5.0386848 -96.783508 -200 45 -200 45 -200 45
5390928938.1564 -5.0144687 -96.742111 -200 45 -200 45 -200 45
5391929054.8425 -4.9915791 -96.675865 -200 45 -200 45 -200 45
5392929171.5286 -4.9734941 -96.579872 -200 45 -200 45 -200 45
5393929288.2147 -4.9501572 -96.479149 -200 45 -200 45 -200 45
5394929404.9008 -4.9327879 -96.391052 -200 45 -200 45 -200 45
5395929521.5869 -4.9137979 -96.24231 -200 45 -200 45 -200 45
5396929638.273 -4.8948603 -96.107979 -200 45 -200 45 -200 45
5397929754.9592 -4.8812075 -95.971809 -200 45 -200 45 -200 45
5398929871.6453 -4.8658257 -95.815018 -200 45 -200 45 -200 45
5399929988.3314 -4.8516588 -95.643143 -200 45 -200 45 -200 45
5400930105.0175 -4.8430619 -95.473999 -200 45 -200 45 -200 45
5401930221.7036 -4.8306532 -95.281776 -200 45 -200 45 -200 45
5402930338.3897 -4.8233085 -95.095978 -200 45 -200 45 -200 45
5403930455.0758 -4.8163648 -94.877289 -200 45 -200 45 -200 45
5404930571.762 -4.8124943 -94.690376 -200 45 -200 45 -200 45
5405930688.4481 -4.8117228 -94.484734 -200 45 -200 45 -200 45
5406930805.1342 -4.8111224 -94.273674 -200 45 -200 45 -200 45
5407930921.8203 -4.8099661 -94.061089 -200 45 -200 45 -200 45
5408931038.5064 -4.8120179 -93.863739 -200 45 -200 45 -200 45
5409931155.1925 -4.8177285 -93.639236 -200 45 -200 45 -200 45
5410931271.8786 -4.8259382 -93.446686 -200 45 -200 45 -200 45
5411931388.5648 -4.8289824 -93.216049 -200 45 -200 45 -200 45
5412931505.2509 -4.8426089 -93.027534 -200 45 -200 45 -200 45
5413931621.937 -4.8499455 -92.829353 -200 45 -200 45 -200 45
5414931738.6231 -4.865232 -92.641335 -200 45 -200 45 -200 45
5415931855.3092 -4.87991 -92.488014 -200 45 -200 45 -200 45
5416931971.9953 -4.8922462 -92.296318 -200 45 -200 45 -200 45
5417932088.6814 -4.908298 -92.13559 -200 45 -200 45 -200 45
5418932205.3676 -4.9278169 -91.985397 -200 45 -200 45 -200 45
5419932322.0537 -4.9501047 -91.845642 -200 45 -200 45 -200 45
5420932438.7398 -4.9693747 -91.69529 -200 45 -200 45 -200 45
5421932555.4259 -4.9950318 -91.577477 -200 45 -200 45 -200 45
5422932672.112 -5.0162797 -91.489128 -200 45 -200 45 -200 45
5423932788.7981 -5.0418139 -91.378952 -200 45 -200 45 -200 45
5424932905.4842 -5.0642295 -91.330521 -200 45 -200 45 -200 45
5425933022.1704 -5.0923204 -91.261147 -200 45 -200 45 -200 45
5426933138.8565 -5.1212497 -91.240692 -200 45 -200 45 -200 45
5427933255.5426 -5.1448894 -91.232361 -200 45 -200 45 -200 45
5428933372.2287 -5.1745796 -91.233253 -200 45 -200 45 -200 45
5429933488.9148 -5.2026091 -91.239616 -200 45 -200 45 -200 45
5430933605.6009 -5.2271509 -91.268677 -200 45 -200 45 -200 45
5431933722.287 -5.2567878 -91.335838 -200 45 -200 45 -200 45
5432933838.9732 -5.2824035 -91.377197 -200 45 -200 45 -200 45
5433933955.6593 -5.3077011 -91.478119 -200 45 -200 45 -200 45
5434934072.3454 -5.3341713 -91.577011 -200 45 -200 45 -200 45
5435934189.0315 -5.361834 -91.700226 -200 45 -200 45 -200 45
5436934305.7176 -5.3831043 -91.828613 -200 45 -200 45 -200 45
5437934422.4037 -5.4104242 -91.99926 -200 45 -200 45 -200 45
5438934539.0898 -5.4319739 -92.181801 -200 45 -200 45 -200 45
5439934655.776 -5.450314 -92.34993 -200 45 -200 45 -200 45
5440934772.4621 -5.4729023 -92.545387 -200 45 -200 45 -200 45
5441934889.1482 -5.4902449 -92.762947 -200 45 -200 45 -200 45
5442935005.8343 -5.5079761 -92.994713 -200 45 -200 45 -200 45
5443935122.5204 -5.5198545 -93.219894 -200 45 -200 45 -200 45
5444935239.2065 -5.533 -93.475227 -200 45 -200 45 -200 45
5445935355.8926 -5.5448203 -93.699699 -200 45 -200 45 -200 45
5446935472.5788 -5.5454955 -94.003479 -200 45 -200 45 -200 45
5447935589.2649 -5.5522475 -94.234581 -200 45 -200 45 -200 45
5448935705.951 -5.5555711 -94.498116 -200 45 -200 45 -200 45
5449935822.6371 -5.557281 -94.780418 -200 45 -200 45 -200 45
5450935939.3232 -5.5556407 -95.045723 -200 45 -200 45 -200 45
5451936056.0093 -5.5545535 -95.324615 -200 45 -200 45 -200 45
5452936172.6954 -5.5432191 -95.577278 -200 45 -200 45 -200 45
5453936289.3816 -5.5397601 -95.809456 -200 45 -200 45 -200 45
5454936406.0677 -5.5263186 -96.069885 -200 45 -200 45 -200 45
5455936522.7538 -5.5193758 -96.317375 -200 45 -200 45 -200 45
5456936639.4399 -5.5036788 -96.551842 -200 45 -200 45 -200 45
5457936756.126 -5.4903626 -96.771988 -200 45 -200 45 -200 45
5458936872.8121 -5.4726629 -96.999924 -200 45 -200 45 -200 45
5459936989.4983 -5.4534597 -97.178993 -200 45 -200 45 -200 45
5460937106.1844 -5.4340229 -97.364059 -200 45 -200 45 -200 45
5461937222.8705 -5.4110246 -97.540802 -200 45 -200 45 -200 45
5462937339.5566 -5.386179 -97.702904 -200 45 -200 45 -200 45
5463937456.2427 -5.3646774 -97.846886 -200 45 -200 45 -200 45
5464937572.9288 -5.3396907 -97.961311 -200 45 -200 45 -200 45
5465937689.6149 -5.3117528 -98.050087 -200 45 -200 45 -200 45
5466937806.3011 -5.2903175 -98.136215 -200 45 -200 45 -200 45
5467937922.9872 -5.2625895 -98.192154 -200 45 -200 45 -200 45
5468938039.6733 -5.2387099 -98.250671 -200 45 -200 45 -200 45
5469938156.3594 -5.2092156 -98.287743 -200 45 -200 45 -200 45
5470938273.0455 -5.1840549 -98.29364 -200 45 -200 45 -200 45
5471938389.7316 -5.161046 -98.29657 -200 45 -200 45 -200 45
5472938506.4177 -5.1352382 -98.266937 -200 45 -200 45 -200 45
5473938623.1039 -5.1105576 -98.207283 -200 45 -200 45 -200 45
5474938739.79 -5.0838504 -98.186508 -200 45 -200 45 -200 45
5475938856.4761 -5.0638156 -98.076691 -200 45 -200 45 -200 45
5476938973.1622 -5.0413299 -98.001785 -200 45 -200 45 -200 45
5477939089.8483 -5.0189862 -97.908775 -200 45 -200 45 -200 45
5478939206.5344 -4.9955435 -97.802376 -200 45 -200 45 -200 45
5479939323.2205 -4.9755459 -97.668671 -200 45 -200 45 -200 45
5480939439.9067 -4.9639645 -97.512787 -200 45 -200 45 -200 45
5481939556.5928 -4.9416132 -97.344429 -200 45 -200 45 -200 45
5482939673.2789 -4.9286566 -97.191063 -200 45 -200 45 -200 45
5483939789.965 -4.9171166 -97.008713 -200 45 -200 45 -200 45
5484939906.6511 -4.9013853 -96.844559 -200 45 -200 45 -200 45
5485940023.3372 -4.8927193 -96.641357 -200 45 -200 45 -200 45
5486940140.0233 -4.8872638 -96.427338 -200 45 -200 45 -200 45
5487940256.7095 -4.8796778 -96.239014 -200 45 -200 45 -200 45
5488940373.3956 -4.8741622 -96.027206 -200 45 -200 45 -200 45
5489940490.0817 -4.8700767 -95.794853 -200 45 -200 45 -200 45
5490940606.7678 -4.8703823 -95.575859 -200 45 -200 45 -200 45
5491940723.4539 -4.8724189 -95.371361 -200 45 -200 45 -200 45
5492940840.14 -4.8740072 -95.162819 -200 45 -200 45 -200 45
5493940956.8261 -4.8772683 -94.932213 -200 45 -200 45 -200 45
5494941073.5123 -4.8816514 -94.720993 -200 45 -200 45 -200 45
5495941190.1984 -4.8903899 -94.510574 -200 45 -200 45 -200 45
5496941306.8845 -4.8965473 -94.286919 -200 45 -200 45 -200 45
5497941423.5706 -4.9081798 -94.08625 -200 45 -200 45 -200 45
5498941540.2567 -4.9209733 -93.878693 -200 45 -200 45 -200 45
5499941656.9428 -4.9380183 -93.678398 -200 45 -200 45 -200 45
5500941773.6289 -4.951201 -93.505096 -200 45 -200 45 -200 45
5501941890.3151 -4.9693518 -93.323799 -200 45 -200 45 -200 45
5502942007.0012 -4.9907417 -93.167999 -200 45 -200 45 -200 45
5503942123.6873 -5.0098267 -93.005318 -200 45 -200 45 -200 45
5504942240.3734 -5.0300889 -92.870186 -200 45 -200 45 -200 45
5505942357.0595 -5.0561457 -92.727554 -200 45 -200 45 -200 45
5506942473.7456 -5.0770164 -92.630959 -200 45 -200 45 -200 45
5507942590.4317 -5.0995607 -92.526657 -200 45 -200 45 -200 45
5508942707.1179 -5.1280465 -92.431702 -200 45 -200 45 -200 45
5509942823.804 -5.1546607 -92.408516 -200 45 -200 45 -200 45
5510942940.4901 -5.1794734 -92.318146 -200 45 -200 45 -200 45
5511943057.1762 -5.2087688 -92.31636 -200 45 -200 45 -200 45
5512943173.8623 -5.2340641 -92.288673 -200 45 -200 45 -200 45
5513943290.5484 -5.2624302 -92.289024 -200 45 -200 45 -200 45
5514943407.2345 -5.286674 -92.313454 -200 45 -200 45 -200 45
5515943523.9207 -5.3145528 -92.344048 -200 45 -200 45 -200 45
5516943640.6068 -5.3461204 -92.422798 -200 45 -200 45 -200 45
5517943757.2929 -5.3738494 -92.464493 -200 45 -200 45 -200 45
5518943873.979 -5.400053 -92.589066 -200 45 -200 45 -200 45
5519943990.6651 -5.4276781 -92.699097 -200 45 -200 45 -200 45
5520944107.3512 -5.4511046 -92.853027 -200 45 -200 45 -200 45
5521944224.0373 -5.4814248 -92.98877 -200 45 -200 45 -200 45
5522944340.7235 -5.5040607 -93.137939 -200 45 -200 45 -200 45
5523944457.4096 -5.5211272 -93.359352 -200 45 -200 45 -200 45
5524944574.0957 -5.546638 -93.552567 -200 45 -200 45 -200 45
5525944690.7818 -5.5646882 -93.777351 -200 45 -200 45 -200 45
5526944807.4679 -5.5799103 -93.972061 -200 45 -200 45 -200 45
5527944924.154 -5.5973272 -94.219025 -200 45 -200 45 -200 45
5528945040.8401 -5.6089606 -94.468269 -200 45 -200 45 -200 45
5529945157.5263 -5.6208267 -94.707108 -200 45 -200 45 -200 45
5530945274.2124 -5.6268482 -94.971199 -200 45 -200 45 -200 45
5531945390.8985 -5.636744 -95.225594 -200 45 -200 45 -200 45
5532945507.5846 -5.6414232 -95.512123 -200 45 -200 45 -200 45
5533945624.2707 -5.6429543 -95.779396 -200 45 -200 45 -200 45
5534945740.9568 -5.6417985 -96.042778 -200 45 -200 45 -200 45
5535945857.6429 -5.6392422 -96.322266 -200 45 -200 45 -200 45
5536945974.3291 -5.6373725 -96.587845 -200 45 -200 45 -200 45
5537946091.0152 -5.6334991 -96.886284 -200 45 -200 45 -200 45
5538946207.7013 -5.620481 -97.102554 -200 45 -200 45 -200 45
5539946324.3874 -5.6099887 -97.363403 -200 45 -200 45 -200 45
5540946441.0735 -5.5968566 -97.623604 -200 45 -200 45 -200 45
5541946557.7596 -5.5854902 -97.848686 -200 45 -200 45 -200 45
5542946674.4457 -5.5695758 -98.06546 -200 45 -200 45 -200 45
5543946791.1319 -5.5478249 -98.304039 -200 45 -200 45 -200 45
5544946907.818 -5.5278783 -98.467918 -200 45 -200 45 -200 45
5545947024.5041 -5.5114522 -98.662872 -200 45 -200 45 -200 45
5546947141.1902 -5.4870272 -98.812164 -200 45 -200 45 -200 45
5547947257.8763 -5.4660306 -98.968109 -200 45 -200 45 -200 45
5548947374.5624 -5.4416199 -99.088074 -200 45 -200 45 -200 45
5549947491.2485 -5.4175143 -99.199303 -200 45 -200 45 -200 45
5550947607.9347 -5.3951731 -99.304306 -200 45 -200 45 -200 45
5551947724.6208 -5.368093 -99.385826 -200 45 -200 45 -200 45
5552947841.3069 -5.3436093 -99.434685 -200 45 -200 45 -200 45
5553947957.993 -5.3182836 -99.501717 -200 45 -200 45 -200 45
5554948074.6791 -5.2934871 -99.506165 -200 45 -200 45 -200 45
5555948191.3652 -5.2671671 -99.490685 -200 45 -200 45 -200 45
5556948308.0513 -5.2459683 -99.472397 -200 45 -200 45 -200 45
5557948424.7375 -5.2209892 -99.422806 -200 45 -200 45 -200 45
5558948541.4236 -5.194294 -99.376152 -200 45 -200 45 -200 45
5559948658.1097 -5.1709237 -99.289703 -200 45 -200 45 -200 45
5560948774.7958 -5.1535788 -99.226151 -200 45 -200 45 -200 45
5561948891.4819 -5.1315331 -99.094467 -200 45 -200 45 -200 45
5562949008.168 -5.1100593 -98.986618 -200 45 -200 45 -200 45
5563949124.8541 -5.0925527 -98.829697 -200 45 -200 45 -200 45
5564949241.5403 -5.0743408 -98.675163 -200 45 -200 45 -200 45
5565949358.2264 -5.0580616 -98.503075 -200 45 -200 45 -200 45
5566949474.9125 -5.0437112 -98.337433 -200 45 -200 45 -200 45
5567949591.5986 -5.0297709 -98.151573 -200 45 -200 45 -200 45
5568949708.2847 -5.0203381 -97.953827 -200 45 -200 45 -200 45
5569949824.9708 -5.0115552 -97.731552 -200 45 -200 45 -200 45
5570949941.6569 -4.9959264 -97.521896 -200 45 -200 45 -200 45
5571950058.3431 -4.9856281 -97.301285 -200 45 -200 45 -200 45
5572950175.0292 -4.9795618 -97.0783 -200 45 -200 45 -200 45
5573950291.7153 -4.9771581 -96.844688 -200 45 -200 45 -200 45
5574950408.4014 -4.9716573 -96.603371 -200 45 -200 45 -200 45
5575950525.0875 -4.9659643 -96.335213 -200 45 -200 45 -200 45
5576950641.7736 -4.9667277 -96.123146 -200 45 -200 45 -200 45
5577950758.4597 -4.968492 -95.866341 -200 45 -200 45 -200 45
5578950875.1459 -4.9683175 -95.645042 -200 45 -200 45 -200 45
5579950991.832 -4.9712071 -95.418152 -200 45 -200 45 -200 45
5580951108.5181 -4.9783516 -95.185043 -200 45 -200 45 -200 45
5581951225.2042 -4.9838367 -94.971146 -200 45 -200 45 -200 45
5582951341.8903 -4.9921584 -94.769531 -200 45 -200 45 -200 45
5583951458.5764 -5.0048022 -94.573387 -200 45 -200 45 -200 45
5584951575.2625 -5.0143261 -94.387772 -200 45 -200 45 -200 45
5585951691.9487 -5.029448 -94.217133 -200 45 -200 45 -200 45
5586951808.6348 -5.0399184 -94.069359 -200 45 -200 45 -200 45
5587951925.3209 -5.0562787 -93.920555 -200 45 -200 45 -200 45
5588952042.007 -5.0727129 -93.790802 -200 45 -200 45 -200 45
5589952158.6931 -5.0933537 -93.663383 -200 45 -200 45 -200 45
5590952275.3792 -5.1145191 -93.574409 -200 45 -200 45 -200 45
5591952392.0653 -5.1341414 -93.492767 -200 45 -200 45 -200 45
5592952508.7515 -5.1583948 -93.431862 -200 45 -200 45 -200 45
5593952625.4376 -5.1823244 -93.351097 -200 45 -200 45 -200 45
5594952742.1237 -5.2031798 -93.328468 -200 45 -200 45 -200 45
5595952858.8098 -5.2330837 -93.295509 -200 45 -200 45 -200 45
5596952975.4959 -5.2599993 -93.291191 -200 45 -200 45 -200 45
5597953092.182 -5.28368 -93.290344 -200 45 -200 45 -200 45
5598953208.8681 -5.3088288 -93.331337 -200 45 -200 45 -200 45
5599953325.5543 -5.3390326 -93.362961 -200 45 -200 45 -200 45
5600953442.2404 -5.3644376 -93.433891 -200 45 -200 45 -200 45
5601953558.9265 -5.3893723 -93.523331 -200 45 -200 45 -200 45
5602953675.6126 -5.4167657 -93.619789 -200 45 -200 45 -200 45
5603953792.2987 -5.439806 -93.753754 -200 45 -200 45 -200 45
5604953908.9848 -5.4642129 -93.871964 -200 45 -200 45 -200 45
5605954025.6709 -5.4890652 -94.020622 -200 45 -200 45 -200 45
5606954142.3571 -5.5098939 -94.200867 -200 45 -200 45 -200 45
5607954259.0432 -5.5271597 -94.377205 -200 45 -200 45 -200 45
5608954375.7293 -5.5524507 -94.558807 -200 45 -200 45 -200 45
5609954492.4154 -5.5656185 -94.779442 -200 45 -200 45 -200 45
5610954609.1015 -5.583806 -94.977272 -200 45 -200 45 -200 45
5611954725.7876 -5.5967383 -95.227379 -200 45 -200 45 -200 45
5612954842.4737 -5.6107869 -95.480644 -200 45 -200 45 -200 45
5613954959.1599 -5.6160541 -95.728554 -200 45 -200 45 -200 45
5614955075.846 -5.6281829 -95.99102 -200 45 -200 45 -200 45
5615955192.5321 -5.6326666 -96.242691 -200 45 -200 45 -200 45
5616955309.2182 -5.6368437 -96.502045 -200 45 -200 45 -200 45
5617955425.9043 -5.6356916 -96.782356 -200 45 -200 45 -200 45
5618955542.5904 -5.6369057 -97.071083 -200 45 -200 45 -200 45
5619955659.2765 -5.6320291 -97.323616 -200 45 -200 45 -200 45
5620955775.9627 -5.6306701 -97.588158 -200 45 -200 45 -200 45
5621955892.6488 -5.6221557 -97.874229 -200 45 -200 45 -200 45
5622956009.3349 -5.6120224 -98.125679 -200 45 -200 45 -200 45
5623956126.021 -5.6025991 -98.383942 -200 45 -200 45 -200 45
5624956242.7071 -5.5920339 -98.617767 -200 45 -200 45 -200 45
5625956359.3932 -5.5725193 -98.827393 -200 45 -200 45 -200 45
5626956476.0793 -5.5541825 -99.062981 -200 45 -200 45 -200 45
5627956592.7655 -5.5365629 -99.276527 -200 45 -200 45 -200 45
5628956709.4516 -5.5213737 -99.465645 -200 45 -200 45 -200 45
5629956826.1377 -5.501894 -99.657097 -200 45 -200 45 -200 45
5630956942.8238 -5.481617 -99.808128 -200 45 -200 45 -200 45
5631957059.5099 -5.4592466 -99.954147 -200 45 -200 45 -200 45
5632957176.196 -5.43401 -100.1162 -200 45 -200 45 -200 45
5633957292.8821 -5.4074755 -100.22025 -200 45 -200 45 -200 45
5634957409.5683 -5.3853207 -100.29285 -200 45 -200 45 -200 45
5635957526.2544 -5.3580451 -100.36561 -200 45 -200 45 -200 45
5636957642.9405 -5.3335929 -100.42682 -200 45 -200 45 -200 45
5637957759.6266 -5.3076911 -100.47147 -200 45 -200 45 -200 45
5638957876.3127 -5.2852945 -100.4978 -200 45 -200 45 -200 45
5639957992.9988 -5.2564363 -100.50372 -200 45 -200 45 -200 45
5640958109.6849 -5.2329073 -100.48284 -200 45 -200 45 -200 45
5641958226.3711 -5.2080011 -100.46087 -200 45 -200 45 -200 45
5642958343.0572 -5.1834421 -100.3995 -200 45 -200 45 -200 45
5643958459.7433 -5.1638904 -100.3547 -200 45 -200 45 -200 45
5644958576.4294 -5.1372619 -100.26363 -200 45 -200 45 -200 45
5645958693.1155 -5.1198606 -100.16367 -200 45 -200 45 -200 45
5646958809.8016 -5.1030207 -100.04645 -200 45 -200 45 -200 45
5647958926.4877 -5.0821352 -99.943687 -200 45 -200 45 -200 45
5648959043.1739 -5.0637507 -99.803413 -200 45 -200 45 -200 45
5649959159.86 -5.0494967 -99.643379 -200 45 -200 45 -200 45
5650959276.5461 -5.0346537 -99.475029 -200 45 -200 45 -200 45
5651959393.2322 -5.018198 -99.313042 -200 45 -200 45 -200 45
5652959509.9183 -5.0074873 -99.132439 -200 45 -200 45 -200 45
5653959626.6044 -4.9970431 -98.940033 -200 45 -200 45 -200 45
5654959743.2905 -4.9886584 -98.76667 -200 45 -200 45 -200 45
5655959859.9767 -4.9826469 -98.573883 -200 45 -200 45 -200 45
5656959976.6628 -4.9774961 -98.347488 -200 45 -200 45 -200 45
5657960093.3489 -4.9754715 -98.134605 -200 45 -200 45 -200 45
5658960210.035 -4.9735823 -97.932739 -200 45 -200 45 -200 45
5659960326.7211 -4.9731274 -97.70578 -200 45 -200 45 -200 45
5660960443.4072 -4.9755721 -97.504242 -200 45 -200 45 -200 45
5661960560.0933 -4.9793873 -97.276733 -200 45 -200 45 -200 45
5662960676.7795 -4.9836035 -97.053223 -200 45 -200 45 -200 45
5663960793.4656 -4.9967823 -96.840591 -200 45 -200 45 -200 45
5664960910.1517 -5.0031767 -96.669044 -200 45 -200 45 -200 45
5665961026.8378 -5.0152111 -96.467957 -200 45 -200 45 -200 45
5666961143.5239 -5.0262718 -96.283607 -200 45 -200 45 -200 45
5667961260.21 -5.0420675 -96.09507 -200 45 -200 45 -200 45
5668961376.8961 -5.0573683 -95.931389 -200 45 -200 45 -200 45
5669961493.5823 -5.0735145 -95.765701 -200 45 -200 45 -200 45
5670961610.2684 -5.0928149 -95.601837 -200 45 -200 45 -200 45
5671961726.9545 -5.1120915 -95.444252 -200 45 -200 45 -200 45
5672961843.6406 -5.1335058 -95.328056 -200 45 -200 45 -200 45
5673961960.3267 -5.1549268 -95.192642 -200 45 -200 45 -200 45
5674962077.0128 -5.1793189 -95.07782 -200 45 -200 45 -200 45
5675962193.6989 -5.2058139 -94.993591 -200 45 -200 45 -200 45
5676962310.3851 -5.2341595 -94.919212 -200 45 -200 45 -200 45
5677962427.0712 -5.258934 -94.849243 -200 45 -200 45 -200 45
5678962543.7573 -5.2877188 -94.81266 -200 45 -200 45 -200 45
5679962660.4434 -5.3159595 -94.798019 -200 45 -200 45 -200 45
5680962777.1295 -5.3413863 -94.780296 -200 45 -200 45 -200 45
5681962893.8156 -5.3697443 -94.781212 -200 45 -200 45 -200 45
5682963010.5018 -5.3991895 -94.83992 -200 45 -200 45 -200 45
5683963127.1879 -5.428247 -94.852715 -200 45 -200 45 -200 45
5684963243.874 -5.456255 -94.915848 -200 45 -200 45 -200 45
5685963360.5601 -5.481257 -95.000778 -200 45 -200 45 -200 45
5686963477.2462 -5.51195 -95.122902 -200 45 -200 45 -200 45
5687963593.9323 -5.5337019 -95.223129 -200 45 -200 45 -200 45
5688963710.6184 -5.5592103 -95.35247 -200 45 -200 45 -200 45
5689963827.3046 -5.5845685 -95.51651 -200 45 -200 45 -200 45
5690963943.9907 -5.608007 -95.671684 -200 45 -200 45 -200 45
5691964060.6768 -5.6306705 -95.835037 -200 45 -200 45 -200 45
5692964177.3629 -5.6484289 -96.040443 -200 45 -200 45 -200 45
5693964294.049 -5.6678834 -96.260422 -200 45 -200 45 -200 45
5694964410.7351 -5.686389 -96.487091 -200 45 -200 45 -200 45
5695964527.4212 -5.7021165 -96.716255 -200 45 -200 45 -200 45
5696964644.1074 -5.715414 -96.948364 -200 45 -200 45 -200 45
5697964760.7935 -5.7259583 -97.186707 -200 45 -200 45 -200 45
5698964877.4796 -5.7306032 -97.461243 -200 45 -200 45 -200 45
5699964994.1657 -5.7404375 -97.69455 -200 45 -200 45 -200 45
5700965110.8518 -5.7430968 -97.977287 -200 45 -200 45 -200 45
5701965227.5379 -5.7426295 -98.239441 -200 45 -200 45 -200 45
5702965344.224 -5.746428 -98.526566 -200 45 -200 45 -200 45
5703965460.9102 -5.7425694 -98.757378 -200 45 -200 45 -200 45
5704965577.5963 -5.7392688 -99.038879 -200 45 -200 45 -200 45
5705965694.2824 -5.7348819 -99.296501 -200 45 -200 45 -200 45
5706965810.9685 -5.7249484 -99.526085 -200 45 -200 45 -200 45
5707965927.6546 -5.7141366 -99.781052 -200 45 -200 45 -200 45
5708966044.3407 -5.6992049 -100.02444 -200 45 -200 45 -200 45
5709966161.0268 -5.6871037 -100.23419 -200 45 -200 45 -200 45
5710966277.713 -5.6691742 -100.44874 -200 45 -200 45 -200 45
5711966394.3991 -5.6514235 -100.65398 -200 45 -200 45 -200 45
5712966511.0852 -5.6311145 -100.85403 -200 45 -200 45 -200 45
5713966627.7713 -5.6127958 -101.01218 -200 45 -200 45 -200 45
5714966744.4574 -5.583499 -101.18215 -200 45 -200 45 -200 45
5715966861.1435 -5.5625534 -101.31747 -200 45 -200 45 -200 45
5716966977.8296 -5.5401502 -101.43566 -200 45 -200 45 -200 45
5717967094.5158 -5.5153151 -101.52935 -200 45 -200 45 -200 45
5718967211.2019 -5.4938684 -101.63787 -200 45 -200 45 -200 45
5719967327.888 -5.4631467 -101.69804 -200 45 -200 45 -200 45
5720967444.5741 -5.4392095 -101.75572 -200 45 -200 45 -200 45
5721967561.2602 -5.4114876 -101.79682 -200 45 -200 45 -200 45
5722967677.9463 -5.3849926 -101.81191 -200 45 -200 45 -200 45
5723967794.6324 -5.3603878 -101.80929 -200 45 -200 45 -200 45
5724967911.3186 -5.3357997 -101.76717 -200 45 -200 45 -200 45
5725968028.0047 -5.3098798 -101.71796 -200 45 -200 45 -200 45
5726968144.6908 -5.287128 -101.66824 -200 45 -200 45 -200 45
5727968261.3769 -5.2633696 -101.61211 -200 45 -200 45 -200 45
5728968378.063 -5.240633 -101.50929 -200 45 -200 45 -200 45
5729968494.7491 -5.2188272 -101.419 -200 45 -200 45 -200 45
5730968611.4352 -5.1962986 -101.29851 -200 45 -200 45 -200 45
5731968728.1214 -5.1806102 -101.18329 -200 45 -200 45 -200 45
5732968844.8075 -5.1620121 -101.04994 -200 45 -200 45 -200 45
5733968961.4936 -5.1459899 -100.86755 -200 45 -200 45 -200 45
5734969078.1797 -5.1291814 -100.69782 -200 45 -200 45 -200 45
5735969194.8658 -5.1159439 -100.53403 -200 45 -200 45 -200 45
5736969311.5519 -5.1022186 -100.34125 -200 45 -200 45 -200 45
5737969428.238 -5.0945592 -100.15105 -200 45 -200 45 -200 45
5738969544.9242 -5.0851488 -99.942787 -200 45 -200 45 -200 45
5739969661.6103 -5.0776219 -99.749321 -200 45 -200 45 -200 45
5740969778.2964 -5.0725889 -99.527786 -200 45 -200 45 -200 45
5741969894.9825 -5.0677552 -99.319603 -200 45 -200 45 -200 45
5742970011.6686 -5.0644073 -99.099922 -200 45 -200 45 -200 45
5743970128.3547 -5.065937 -98.852608 -200 45 -200 45 -200 45
5744970245.0408 -5.06705 -98.64904 -200 45 -200 45 -200 45
5745970361.727 -5.0707254 -98.405327 -200 45 -200 45 -200 45
5746970478.4131 -5.0776849 -98.204071 -200 45 -200 45 -200 45
5747970595.0992 -5.0817738 -98.010078 -200 45 -200 45 -200 45
5748970711.7853 -5.0926042 -97.792786 -200 45 -200 45 -200 45
5749970828.4714 -5.1026196 -97.612892 -200 45 -200 45 -200 45
5750970945.1575 -5.1149654 -97.405678 -200 45 -200 45 -200 45
5751971061.8436 -5.1287909 -97.23111 -200 45 -200 45 -200 45
5752971178.5298 -5.1422267 -97.022881 -200 45 -200 45 -200 45
5753971295.2159 -5.16466 -96.868668 -200 45 -200 45 -200 45
5754971411.902 -5.1807127 -96.685394 -200 45 -200 45 -200 45
5755971528.5881 -5.20258 -96.539551 -200 45 -200 45 -200 45
5756971645.2742 -5.2264895 -96.409821 -200 45 -200 45 -200 45
5757971761.9603 -5.2471881 -96.286972 -200 45 -200 45 -200 45
5758971878.6464 -5.2752151 -96.200691 -200 45 -200 45 -200 45
5759971995.3326 -5.3004007 -96.097839 -200 45 -200 45 -200 45
5760972112.0187 -5.3230233 -96.015915 -200 45 -200 45 -200 45
5761972228.7048 -5.3512235 -95.962479 -200 45 -200 45 -200 45
5762972345.3909 -5.3811731 -95.930794 -200 45 -200 45 -200 45
5763972462.077 -5.4066763 -95.884773 -200 45 -200 45 -200 45
5764972578.7631 -5.4355693 -95.885048 -200 45 -200 45 -200 45
5765972695.4492 -5.4627247 -95.909378 -200 45 -200 45 -200 45
5766972812.1354 -5.4956188 -95.917015 -200 45 -200 45 -200 45
5767972928.8215 -5.5207729 -95.979965 -200 45 -200 45 -200 45
5768973045.5076 -5.5506158 -96.023697 -200 45 -200 45 -200 45
5769973162.1937 -5.5808721 -96.129082 -200 45 -200 45 -200 45
5770973278.8798 -5.6089954 -96.220581 -200 45 -200 45 -200 45
5771973395.5659 -5.6381025 -96.331581 -200 45 -200 45 -200 45
5772973512.252 -5.6644864 -96.469887 -200 45 -200 45 -200 45
5773973628.9382 -5.6916704 -96.625938 -200 45 -200 45 -200 45
5774973745.6243 -5.7130961 -96.805359 -200 45 -200 45 -200 45
5775973862.3104 -5.7354255 -96.986778 -200 45 -200 45 -200 45
5776973978.9965 -5.7588654 -97.198326 -200 45 -200 45 -200 45
5777974095.6826 -5.7765665 -97.39119 -200 45 -200 45 -200 45
5778974212.3687 -5.7935696 -97.642433 -200 45 -200 45 -200 45
5779974329.0548 -5.8136687 -97.861603 -200 45 -200 45 -200 45
5780974445.741 -5.826745 -98.131866 -200 45 -200 45 -200 45
5781974562.4271 -5.8352294 -98.365952 -200 45 -200 45 -200 45
5782974679.1132 -5.8469477 -98.623055 -200 45 -200 45 -200 45
5783974795.7993 -5.8551812 -98.901993 -200 45 -200 45 -200 45
5784974912.4854 -5.8585925 -99.161827 -200 45 -200 45 -200 45
5785975029.1715 -5.8640146 -99.450165 -200 45 -200 45 -200 45
5786975145.8576 -5.8637848 -99.719872 -200 45 -200 45 -200 45
5787975262.5438 -5.8675294 -99.961311 -200 45 -200 45 -200 45
5788975379.2299 -5.8632431 -100.21297 -200 45 -200 45 -200 45
5789975495.916 -5.8565598 -100.48652 -200 45 -200 45 -200 45
5790975612.6021 -5.8500252 -100.74588 -200 45 -200 45 -200 45
5791975729.2882 -5.841043 -101.00622 -200 45 -200 45 -200 45
5792975845.9743 -5.8292317 -101.25138 -200 45 -200 45 -200 45
5793975962.6604 -5.8144712 -101.49487 -200 45 -200 45 -200 45
5794976079.3466 -5.801352 -101.71236 -200 45 -200 45 -200 45
5795976196.0327 -5.782249 -101.87819 -200 45 -200 45 -200 45
5796976312.7188 -5.7658076 -102.10231 -200 45 -200 45 -200 45
5797976429.4049 -5.7459216 -102.28702 -200 45 -200 45 -200 45
5798976546.091 -5.7261419 -102.43655 -200 45 -200 45 -200 45
5799976662.7771 -5.7047834 -102.57969 -200 45 -200 45 -200 45
5800976779.4632 -5.6830449 -102.67413 -200 45 -200 45 -200 45
5801976896.1494 -5.6598997 -102.78323 -200 45 -200 45 -200 45
5802977012.8355 -5.6370854 -102.88492 -200 45 -200 45 -200 45
5803977129.5216 -5.6182628 -102.93025 -200 45 -200 45 -200 45
5804977246.2077 -5.595428 -102.99142 -200 45 -200 45 -200 45
5805977362.8938 -5.5722208 -103.00635 -200 45 -200 45 -200 45
5806977479.5799 -5.549407 -103.01244 -200 45 -200 45 -200 45
5807977596.266 -5.5263615 -102.99525 -200 45 -200 45 -200 45
5808977712.9522 -5.5064611 -102.96532 -200 45 -200 45 -200 45
5809977829.6383 -5.4843001 -102.92047 -200 45 -200 45 -200 45
5810977946.3244 -5.4637423 -102.82496 -200 45 -200 45 -200 45
5811978063.0105 -5.4455032 -102.71319 -200 45 -200 45 -200 45
5812978179.6966 -5.426259 -102.61127 -200 45 -200 45 -200 45
5813978296.3827 -5.408669 -102.47607 -200 45 -200 45 -200 45
5814978413.0688 -5.394299 -102.32478 -200 45 -200 45 -200 45
5815978529.755 -5.382123 -102.13747 -200 45 -200 45 -200 45
5816978646.4411 -5.369617 -101.95136 -200 45 -200 45 -200 45
5817978763.1272 -5.3548331 -101.73816 -200 45 -200 45 -200 45
5818978879.8133 -5.3452086 -101.49727 -200 45 -200 45 -200 45
5819978996.4994 -5.3342052 -101.25918 -200 45 -200 45 -200 45
5820979113.1855 -5.3265963 -100.97054 -200 45 -200 45 -200 45
5821979229.8716 -5.3157644 -100.71016 -200 45 -200 45 -200 45
5822979346.5578 -5.3071251 -100.39185 -200 45 -200 45 -200 45
5823979463.2439 -5.3000555 -100.11125 -200 45 -200 45 -200 45
5824979579.93 -5.2933755 -99.789719 -200 45 -200 45 -200 45
5825979696.6161 -5.284265 -99.469841 -200 45 -200 45 -200 45
5826979813.3022 -5.2782841 -99.145004 -200 45 -200 45 -200 45
5827979929.9883 -5.2661872 -98.83046 -200 45 -200 45 -200 45
5828980046.6744 -5.2621365 -98.521782 -200 45 -200 45 -200 45
5829980163.3606 -5.253973 -98.216179 -200 45 -200 45 -200 45
5830980280.0467 -5.2428288 -97.891106 -200 45 -200 45 -200 45
5831980396.7328 -5.2401347 -97.623833 -200 45 -200 45 -200 45
5832980513.4189 -5.2336679 -97.333313 -200 45 -200 45 -200 45
5833980630.105 -5.2299871 -97.086388 -200 45 -200 45 -200 45
5834980746.7911 -5.2299042 -96.863251 -200 45 -200 45 -200 45
5835980863.4772 -5.2276182 -96.622925 -200 45 -200 45 -200 45
5836980980.1634 -5.230474 -96.431709 -200 45 -200 45 -200 45
5837981096.8495 -5.2342329 -96.250343 -200 45 -200 45 -200 45
5838981213.5356 -5.2404542 -96.083817 -200 45 -200 45 -200 45
5839981330.2217 -5.2457175 -95.949036 -200 45 -200 45 -200 45
5840981446.9078 -5.2568293 -95.808701 -200 45 -200 45 -200 45
5841981563.5939 -5.2636356 -95.702095 -200 45 -200 45 -200 45
5842981680.28 -5.2802415 -95.6054 -200 45 -200 45 -200 45
5843981796.9662 -5.2972531 -95.514938 -200 45 -200 45 -200 45
5844981913.6523 -5.3145504 -95.448853 -200 45 -200 45 -200 45
5845982030.3384 -5.334199 -95.39225 -200 45 -200 45 -200 45
5846982147.0245 -5.3538566 -95.378143 -200 45 -200 45 -200 45
5847982263.7106 -5.3744202 -95.374168 -200 45 -200 45 -200 45
5848982380.3967 -5.3976927 -95.36528 -200 45 -200 45 -200 45
5849982497.0828 -5.4185319 -95.392738 -200 45 -200 45 -200 45
5850982613.769 -5.4406509 -95.421036 -200 45 -200 45 -200 45
5851982730.4551 -5.4616733 -95.488686 -200 45 -200 45 -200 45
5852982847.1412 -5.4882231 -95.571655 -200 45 -200 45 -200 45
5853982963.8273 -5.5084105 -95.659752 -200 45 -200 45 -200 45
5854983080.5134 -5.5337205 -95.806168 -200 45 -200 45 -200 45
5855983197.1995 -5.5546355 -95.923706 -200 45 -200 45 -200 45
5856983313.8856 -5.5717049 -96.1007 -200 45 -200 45 -200 45
5857983430.5718 -5.5927286 -96.282623 -200 45 -200 45 -200 45
5858983547.2579 -5.6095905 -96.476875 -200 45 -200 45 -200 45
5859983663.944 -5.6288896 -96.672241 -200 45 -200 45 -200 45
5860983780.6301 -5.6456046 -96.884567 -200 45 -200 45 -200 45
5861983897.3162 -5.6609893 -97.13356 -200 45 -200 45 -200 45
5862984014.0023 -5.6751013 -97.394928 -200 45 -200 45 -200 45
5863984130.6884 -5.6865606 -97.641266 -200 45 -200 45 -200 45
5864984247.3746 -5.6978745 -97.895996 -200 45 -200 45 -200 45
5865984364.0607 -5.7079725 -98.19313 -200 45 -200 45 -200 45
5866984480.7468 -5.7165136 -98.501709 -200 45 -200 45 -200 45
5867984597.4329 -5.7219214 -98.810257 -200 45 -200 45 -200 45
5868984714.119 -5.7267394 -99.116463 -200 45 -200 45 -200 45
5869984830.8051 -5.7297716 -99.407013 -200 45 -200 45 -200 45
5870984947.4912 -5.7280602 -99.71965 -200 45 -200 45 -200 45
5871985064.1774 -5.7262335 -100.02085 -200 45 -200 45 -200 45
5872985180.8635 -5.7190442 -100.32034 -200 45 -200 45 -200 45
5873985297.5496 -5.7140141 -100.62222 -200 45 -200 45 -200 45
5874985414.2357 -5.7097068 -100.88141 -200 45 -200 45 -200 45
5875985530.9218 -5.6964316 -101.1672 -200 45 -200 45 -200 45
5876985647.6079 -5.6816177 -101.43755 -200 45 -200 45 -200 45
5877985764.294 -5.6663299 -101.67105 -200 45 -200 45 -200 45
5878985880.9802 -5.6489348 -101.95351 -200 45 -200 45 -200 45
5879985997.6663 -5.63377 -102.15154 -200 45 -200 45 -200 45
5880986114.3524 -5.6123362 -102.36703 -200 45 -200 45 -200 45
5881986231.0385 -5.594717 -102.57059 -200 45 -200 45 -200 45
5882986347.7246 -5.5689416 -102.74322 -200 45 -200 45 -200 45
5883986464.4107 -5.5491281 -102.93644 -200 45 -200 45 -200 45
5884986581.0968 -5.5270371 -103.06743 -200 45 -200 45 -200 45
5885986697.783 -5.4969635 -103.21452 -200 45 -200 45 -200 45
5886986814.4691 -5.4688373 -103.32134 -200 45 -200 45 -200 45
5887986931.1552 -5.4444222 -103.38641 -200 45 -200 45 -200 45
5888987047.8413 -5.4223332 -103.48519 -200 45 -200 45 -200 45
5889987164.5274 -5.3907666 -103.53406 -200 45 -200 45 -200 45
5890987281.2135 -5.3655047 -103.56685 -200 45 -200 45 -200 45
5891987397.8997 -5.3391695 -103.57623 -200 45 -200 45 -200 45
5892987514.5858 -5.3182878 -103.5662 -200 45 -200 45 -200 45
5893987631.2719 -5.2910113 -103.56472 -200 45 -200 45 -200 45
5894987747.958 -5.2654295 -103.52576 -200 45 -200 45 -200 45
5895987864.6441 -5.2406635 -103.49184 -200 45 -200 45 -200 45
5896987981.3302 -5.2189837 -103.39172 -200 45 -200 45 -200 45
5897988098.0163 -5.2003636 -103.31673 -200 45 -200 45 -200 45
5898988214.7025 -5.1790953 -103.21902 -200 45 -200 45 -200 45
5899988331.3886 -5.1637292 -103.10023 -200 45 -200 45 -200 45
5900988448.0747 -5.142539 -102.97236 -200 45 -200 45 -200 45
5901988564.7608 -5.1293044 -102.82522 -200 45 -200 45 -200 45
5902988681.4469 -5.1079392 -102.67713 -200 45 -200 45 -200 45
5903988798.133 -5.0966587 -102.50226 -200 45 -200 45 -200 45
5904988914.8191 -5.0847244 -102.33089 -200 45 -200 45 -200 45
5905989031.5053 -5.0726171 -102.14495 -200 45 -200 45 -200 45
5906989148.1914 -5.0621266 -101.96595 -200 45 -200 45 -200 45
5907989264.8775 -5.0554771 -101.7655 -200 45 -200 45 -200 45
5908989381.5636 -5.053297 -101.54878 -200 45 -200 45 -200 45
5909989498.2497 -5.0501266 -101.35029 -200 45 -200 45 -200 45
5910989614.9358 -5.0466828 -101.1103 -200 45 -200 45 -200 45
5911989731.6219 -5.0454822 -100.91888 -200 45 -200 45 -200 45
5912989848.3081 -5.0516729 -100.70337 -200 45 -200 45 -200 45
5913989964.9942 -5.0552096 -100.4892 -200 45 -200 45 -200 45
5914990081.6803 -5.0594244 -100.25945 -200 45 -200 45 -200 45
5915990198.3664 -5.0692372 -100.06134 -200 45 -200 45 -200 45
5916990315.0525 -5.075716 -99.837753 -200 45 -200 45 -200 45
5917990431.7386 -5.0883393 -99.64225 -200 45 -200 45 -200 45
5918990548.4247 -5.0989184 -99.464668 -200 45 -200 45 -200 45
5919990665.1109 -5.1143084 -99.254608 -200 45 -200 45 -200 45
5920990781.797 -5.1268229 -99.064224 -200 45 -200 45 -200 45
5921990898.4831 -5.1484332 -98.874352 -200 45 -200 45 -200 45
5922991015.1692 -5.1649594 -98.732758 -200 45 -200 45 -200 45
5923991131.8553 -5.1876936 -98.573372 -200 45 -200 45 -200 45
5924991248.5414 -5.2073197 -98.450829 -200 45 -200 45 -200 45
5925991365.2275 -5.2307558 -98.290474 -200 45 -200 45 -200 45
5926991481.9137 -5.2558913 -98.199631 -200 45 -200 45 -200 45
5927991598.5998 -5.2819238 -98.10656 -200 45 -200 45 -200 45
5928991715.2859 -5.309226 -98.022537 -200 45 -200 45 -200 45
5929991831.972 -5.3362756 -97.934814 -200 45 -200 45 -200 45
5930991948.6581 -5.3605676 -97.885948 -200 45 -200 45 -200 45
5931992065.3442 -5.3898778 -97.863884 -200 45 -200 45 -200 45
5932992182.0303 -5.423111 -97.862885 -200 45 -200 45 -200 45
5933992298.7165 -5.4485769 -97.855865 -200 45 -200 45 -200 45
5934992415.4026 -5.4771004 -97.87529 -200 45 -200 45 -200 45
5935992532.0887 -5.5091124 -97.922577 -200 45 -200 45 -200 45
5936992648.7748 -5.5329113 -97.972374 -200 45 -200 45 -200 45
5937992765.4609 -5.5628448 -98.045425 -200 45 -200 45 -200 45
5938992882.147 -5.5888333 -98.144211 -200 45 -200 45 -200 45
5939992998.8331 -5.6213155 -98.273224 -200 45 -200 45 -200 45
5940993115.5193 -5.6431146 -98.39772 -200 45 -200 45 -200 45
5941993232.2054 -5.6696501 -98.536446 -200 45 -200 45 -200 45
5942993348.8915 -5.6957617 -98.709908 -200 45 -200 45 -200 45
5943993465.5776 -5.7191896 -98.876808 -200 45 -200 45 -200 45
5944993582.2637 -5.7406669 -99.053673 -200 45 -200 45 -200 45
5945993698.9498 -5.7581892 -99.281914 -200 45 -200 45 -200 45
5946993815.6359 -5.7775655 -99.499481 -200 45 -200 45 -200 45
5947993932.3221 -5.7953591 -99.74678 -200 45 -200 45 -200 45
5948994049.0082 -5.8093085 -99.985435 -200 45 -200 45 -200 45
5949994165.6943 -5.8210564 -100.22324 -200 45 -200 45 -200 45
5950994282.3804 -5.827693 -100.50557 -200 45 -200 45 -200 45
5951994399.0665 -5.8351712 -100.77989 -200 45 -200 45 -200 45
5952994515.7526 -5.8429999 -101.0145 -200 45 -200 45 -200 45
5953994632.4387 -5.8453383 -101.31343 -200 45 -200 45 -200 45
5954994749.1249 -5.8443427 -101.56269 -200 45 -200 45 -200 45
5955994865.811 -5.8415518 -101.8576 -200 45 -200 45 -200 45
5956994982.4971 -5.8388829 -102.09261 -200 45 -200 45 -200 45
5957995099.1832 -5.8333268 -102.36993 -200 45 -200 45 -200 45
5958995215.8693 -5.8247442 -102.63052 -200 45 -200 45 -200 45
5959995332.5554 -5.81357 -102.90163 -200 45 -200 45 -200 45
5960995449.2415 -5.7987952 -103.1632 -200 45 -200 45 -200 45
5961995565.9277 -5.7862539 -103.3491 -200 45 -200 45 -200 45
5962995682.6138 -5.7672973 -103.583 -200 45 -200 45 -200 45
5963995799.2999 -5.7492685 -103.82297 -200 45 -200 45 -200 45
5964995915.986 -5.7293434 -103.97974 -200 45 -200 45 -200 45
5965996032.6721 -5.7065268 -104.16518 -200 45 -200 45 -200 45
5966996149.3582 -5.6828637 -104.33817 -200 45 -200 45 -200 45
5967996266.0443 -5.6629214 -104.50369 -200 45 -200 45 -200 45
5968996382.7305 -5.6386299 -104.63293 -200 45 -200 45 -200 45
5969996499.4166 -5.6100416 -104.75161 -200 45 -200 45 -200 45
5970996616.1027 -5.5857229 -104.83169 -200 45 -200 45 -200 45
5971996732.7888 -5.5578623 -104.90232 -200 45 -200 45 -200 45
5972996849.4749 -5.5313249 -104.98721 -200 45 -200 45 -200 45
5973996966.161 -5.5045218 -105.03594 -200 45 -200 45 -200 45
5974997082.8471 -5.4738531 -105.0545 -200 45 -200 45 -200 45
5975997199.5333 -5.4531746 -105.05546 -200 45 -200 45 -200 45
5976997316.2194 -5.4263458 -105.04112 -200 45 -200 45 -200 45
5977997432.9055 -5.3988676 -105.00838 -200 45 -200 45 -200 45
5978997549.5916 -5.3709173 -104.93649 -200 45 -200 45 -200 45
5979997666.2777 -5.3483844 -104.89513 -200 45 -200 45 -200 45
5980997782.9638 -5.3213449 -104.79841 -200 45 -200 45 -200 45
5981997899.6499 -5.3025255 -104.70768 -200 45 -200 45 -200 45
5982998016.3361 -5.2795572 -104.61789 -200 45 -200 45 -200 45
5983998133.0222 -5.2551498 -104.49037 -200 45 -200 45 -200 45
5984998249.7083 -5.2402954 -104.32604 -200 45 -200 45 -200 45
5985998366.3944 -5.2210293 -104.18452 -200 45 -200 45 -200 45
5986998483.0805 -5.2043791 -104.01594 -200 45 -200 45 -200 45
5987998599.7666 -5.191678 -103.82655 -200 45 -200 45 -200 45
5988998716.4527 -5.1771607 -103.63862 -200 45 -200 45 -200 45
5989998833.1389 -5.1641793 -103.44884 -200 45 -200 45 -200 45
5990998949.825 -5.1532235 -103.26479 -200 45 -200 45 -200 45
5991999066.5111 -5.1454716 -103.01876 -200 45 -200 45 -200 45
5992999183.1972 -5.1419067 -102.8103 -200 45 -200 45 -200 45
5993999299.8833 -5.1375422 -102.61576 -200 45 -200 45 -200 45
5994999416.5694 -5.1315212 -102.39559 -200 45 -200 45 -200 45
5995999533.2555 -5.1295176 -102.18451 -200 45 -200 45 -200 45
5996999649.9417 -5.1316314 -101.95781 -200 45 -200 45 -200 45
5997999766.6278 -5.13656 -101.72971 -200 45 -200 45 -200 45
5998999883.3139 -5.1364074 -101.51461 -200 45 -200 45 -200 45
6000000000 -5.1412845 -101.29244 -200 45 -200 45 -200 45
