!Keysight Technologies,P9374A,MY57304198,A.17.20.09
!Date: Tuesday, August 20, 2024 10:37:19
!Correction: S11(C  1-Port  ) 
!S21(C  1-Port  ) 
!S12(Off) 
!S22(Off) 
!S2P File: Measurements: S11, S21, S12, S22:
# Hz S  dB   R 50
300000 0.0016719117 -0.0092087379 -200 45 -200 45 -200 45
1300116.6861144 0.0010347978 -0.021734487 -200 45 -200 45 -200 45
2300233.3722287 0.00076926284 -0.046593137 -200 45 -200 45 -200 45
3300350.0583431 -0.00049626239 -0.072025917 -200 45 -200 45 -200 45
4300466.7444574 -0.00047788126 -0.0882774 -200 45 -200 45 -200 45
5300583.4305718 0.00053114758 -0.10485412 -200 45 -200 45 -200 45
6300700.1166861 -0.0003049474 -0.12688558 -200 45 -200 45 -200 45
7300816.8028005 -0.00022495489 -0.14469975 -200 45 -200 45 -200 45
8300933.4889148 -3.3651772e-006 -0.16507572 -200 45 -200 45 -200 45
9301050.1750292 0.00010664888 -0.1894282 -200 45 -200 45 -200 45
10301166.861144 -0.0015518821 -0.18911085 -200 45 -200 45 -200 45
11301283.547258 -0.00062829792 -0.22433047 -200 45 -200 45 -200 45
12301400.233372 -5.8243819e-005 -0.24816884 -200 45 -200 45 -200 45
13301516.919487 -0.0016217999 -0.26503786 -200 45 -200 45 -200 45
14301633.605601 -0.00057185866 -0.28433844 -200 45 -200 45 -200 45
15301750.291715 0.00010923742 -0.299346 -200 45 -200 45 -200 45
16301866.97783 -0.00015971936 -0.31866655 -200 45 -200 45 -200 45
17301983.663944 -0.00088694383 -0.3421731 -200 45 -200 45 -200 45
18302100.350058 -0.0035905733 -0.36823019 -200 45 -200 45 -200 45
19302217.036173 -0.0022935846 -0.37782732 -200 45 -200 45 -200 45
20302333.722287 -0.0018170574 -0.39949405 -200 45 -200 45 -200 45
21302450.408401 -0.0018476157 -0.41156897 -200 45 -200 45 -200 45
22302567.094516 -0.0018623769 -0.44550347 -200 45 -200 45 -200 45
23302683.78063 -0.0015624992 -0.45842379 -200 45 -200 45 -200 45
24302800.466744 -0.0021537289 -0.47469747 -200 45 -200 45 -200 45
25302917.152859 -0.0024471723 -0.48979419 -200 45 -200 45 -200 45
26303033.838973 -0.0040628905 -0.51942462 -200 45 -200 45 -200 45
27303150.525088 -0.0043686414 -0.53719574 -200 45 -200 45 -200 45
28303267.211202 -0.0027559178 -0.55712038 -200 45 -200 45 -200 45
29303383.897316 -0.0037851422 -0.58279437 -200 45 -200 45 -200 45
30303500.583431 -0.0041408809 -0.60483915 -200 45 -200 45 -200 45
31303617.269545 -0.0035701066 -0.61737323 -200 45 -200 45 -200 45
32303733.955659 -0.0022889227 -0.63191891 -200 45 -200 45 -200 45
33303850.641774 -0.00459175 -0.65549111 -200 45 -200 45 -200 45
34303967.327888 -0.0059111989 -0.68153667 -200 45 -200 45 -200 45
35304084.014002 -0.0055117714 -0.6887573 -200 45 -200 45 -200 45
36304200.700117 -0.0043857438 -0.7131291 -200 45 -200 45 -200 45
37304317.386231 -0.0059016082 -0.7293424 -200 45 -200 45 -200 45
38304434.072345 -0.0073772916 -0.75787568 -200 45 -200 45 -200 45
39304550.75846 -0.0065154647 -0.79055828 -200 45 -200 45 -200 45
40304667.444574 -0.0063697696 -0.79077911 -200 45 -200 45 -200 45
41304784.130688 -0.007293798 -0.80527139 -200 45 -200 45 -200 45
42304900.816803 -0.0078437971 -0.82390207 -200 45 -200 45 -200 45
43305017.502917 -0.0074413391 -0.83564532 -200 45 -200 45 -200 45
44305134.189032 -0.0093110614 -0.87239295 -200 45 -200 45 -200 45
45305250.875146 -0.0086654248 -0.89623821 -200 45 -200 45 -200 45
46305367.56126 -0.0083378442 -0.90471214 -200 45 -200 45 -200 45
47305484.247375 -0.0098885577 -0.92828983 -200 45 -200 45 -200 45
48305600.933489 -0.010987207 -0.94749707 -200 45 -200 45 -200 45
49305717.619603 -0.010093528 -0.97316748 -200 45 -200 45 -200 45
50305834.305718 -0.0094721615 -0.98988843 -200 45 -200 45 -200 45
51305950.991832 -0.010760137 -1.0004761 -200 45 -200 45 -200 45
52306067.677946 -0.012063551 -1.0384847 -200 45 -200 45 -200 45
53306184.364061 -0.010849407 -1.0494945 -200 45 -200 45 -200 45
54306301.050175 -0.012971915 -1.0752428 -200 45 -200 45 -200 45
55306417.736289 -0.012605328 -1.1061391 -200 45 -200 45 -200 45
56306534.422404 -0.011829416 -1.1268883 -200 45 -200 45 -200 45
57306651.108518 -0.013953703 -1.1348852 -200 45 -200 45 -200 45
58306767.794632 -0.013584176 -1.1345499 -200 45 -200 45 -200 45
59306884.480747 -0.015073642 -1.1609585 -200 45 -200 45 -200 45
60307001.166861 -0.015769593 -1.1905221 -200 45 -200 45 -200 45
61307117.852975 -0.015898718 -1.2042615 -200 45 -200 45 -200 45
62307234.53909 -0.017114015 -1.2150546 -200 45 -200 45 -200 45
63307351.225204 -0.017431341 -1.2459122 -200 45 -200 45 -200 45
64307467.911319 -0.018846473 -1.2618865 -200 45 -200 45 -200 45
65307584.597433 -0.016398098 -1.2736342 -200 45 -200 45 -200 45
66307701.283547 -0.01833459 -1.3024247 -200 45 -200 45 -200 45
67307817.969662 -0.020585863 -1.3104101 -200 45 -200 45 -200 45
68307934.655776 -0.020498995 -1.3337629 -200 45 -200 45 -200 45
69308051.34189 -0.02116356 -1.3651329 -200 45 -200 45 -200 45
70308168.028005 -0.022408433 -1.3871008 -200 45 -200 45 -200 45
71308284.714119 -0.02194114 -1.4197205 -200 45 -200 45 -200 45
72308401.400233 -0.024706336 -1.4264352 -200 45 -200 45 -200 45
73308518.086348 -0.021414327 -1.4228125 -200 45 -200 45 -200 45
74308634.772462 -0.023706499 -1.4434806 -200 45 -200 45 -200 45
75308751.458576 -0.024925284 -1.4677237 -200 45 -200 45 -200 45
76308868.144691 -0.026305618 -1.4787352 -200 45 -200 45 -200 45
77308984.830805 -0.026846308 -1.5115399 -200 45 -200 45 -200 45
78309101.516919 -0.026550431 -1.5274743 -200 45 -200 45 -200 45
79309218.203034 -0.02950751 -1.5397592 -200 45 -200 45 -200 45
80309334.889148 -0.028999845 -1.5539527 -200 45 -200 45 -200 45
81309451.575263 -0.029324297 -1.5883448 -200 45 -200 45 -200 45
82309568.261377 -0.029150991 -1.5986196 -200 45 -200 45 -200 45
83309684.947491 -0.029246373 -1.5996047 -200 45 -200 45 -200 45
84309801.633606 -0.030549612 -1.6278017 -200 45 -200 45 -200 45
85309918.31972 -0.032879997 -1.6606629 -200 45 -200 45 -200 45
86310035.005834 -0.034229986 -1.6997308 -200 45 -200 45 -200 45
87310151.691949 -0.033382118 -1.7049005 -200 45 -200 45 -200 45
88310268.378063 -0.035469737 -1.7182778 -200 45 -200 45 -200 45
89310385.064177 -0.035309758 -1.7136483 -200 45 -200 45 -200 45
90310501.750292 -0.035199367 -1.7327302 -200 45 -200 45 -200 45
91310618.436406 -0.03758917 -1.7466036 -200 45 -200 45 -200 45
92310735.12252 -0.035720289 -1.7819372 -200 45 -200 45 -200 45
93310851.808635 -0.039183278 -1.7973636 -200 45 -200 45 -200 45
94310968.494749 -0.038975105 -1.8142427 -200 45 -200 45 -200 45
95311085.180863 -0.040168658 -1.8424512 -200 45 -200 45 -200 45
96311201.866978 -0.04063243 -1.8607956 -200 45 -200 45 -200 45
97311318.553092 -0.041698635 -1.867489 -200 45 -200 45 -200 45
98311435.239207 -0.041117415 -1.8799465 -200 45 -200 45 -200 45
99311551.925321 -0.043819282 -1.8969798 -200 45 -200 45 -200 45
100311668.61144 -0.045046866 -1.9023676 -200 45 -200 45 -200 45
101311785.29755 -0.045543592 -1.94349 -200 45 -200 45 -200 45
102311901.98366 -0.046489861 -1.9733 -200 45 -200 45 -200 45
103312018.66978 -0.046472855 -2.0007453 -200 45 -200 45 -200 45
104312135.35589 -0.048760753 -2.0080545 -200 45 -200 45 -200 45
105312252.04201 -0.047281411 -2.0030465 -200 45 -200 45 -200 45
106312368.72812 -0.048142206 -2.0164299 -200 45 -200 45 -200 45
107312485.41424 -0.048594262 -2.034514 -200 45 -200 45 -200 45
108312602.10035 -0.049501922 -2.0646529 -200 45 -200 45 -200 45
109312718.78646 -0.051023666 -2.0793276 -200 45 -200 45 -200 45
110312835.47258 -0.049086422 -2.0925176 -200 45 -200 45 -200 45
111312952.15869 -0.052505858 -2.1247728 -200 45 -200 45 -200 45
112313068.84481 -0.052373543 -2.1290822 -200 45 -200 45 -200 45
113313185.53092 -0.054998271 -2.1438973 -200 45 -200 45 -200 45
114313302.21704 -0.053263128 -2.170141 -200 45 -200 45 -200 45
115313418.90315 -0.053858291 -2.1666586 -200 45 -200 45 -200 45
116313535.58926 -0.053728037 -2.1827569 -200 45 -200 45 -200 45
117313652.27538 -0.055705369 -2.2332919 -200 45 -200 45 -200 45
118313768.96149 -0.057978988 -2.2661757 -200 45 -200 45 -200 45
119313885.64761 -0.058969166 -2.2800066 -200 45 -200 45 -200 45
120314002.33372 -0.060700819 -2.2978201 -200 45 -200 45 -200 45
121314119.01984 -0.059108242 -2.3055954 -200 45 -200 45 -200 45
122314235.70595 -0.059851177 -2.2938132 -200 45 -200 45 -200 45
123314352.39207 -0.060651205 -2.3023555 -200 45 -200 45 -200 45
124314469.07818 -0.063031949 -2.3430851 -200 45 -200 45 -200 45
125314585.76429 -0.063263081 -2.3730481 -200 45 -200 45 -200 45
126314702.45041 -0.064593121 -2.3908515 -200 45 -200 45 -200 45
127314819.13652 -0.064958081 -2.4055278 -200 45 -200 45 -200 45
128314935.82264 -0.065684676 -2.4215961 -200 45 -200 45 -200 45
129315052.50875 -0.066335693 -2.4479222 -200 45 -200 45 -200 45
130315169.19487 -0.067684025 -2.4596708 -200 45 -200 45 -200 45
131315285.88098 -0.070166223 -2.4710052 -200 45 -200 45 -200 45
132315402.56709 -0.069017 -2.4776742 -200 45 -200 45 -200 45
133315519.25321 -0.071461804 -2.508359 -200 45 -200 45 -200 45
134315635.93932 -0.07281173 -2.546875 -200 45 -200 45 -200 45
135315752.62544 -0.075024009 -2.580868 -200 45 -200 45 -200 45
136315869.31155 -0.076589763 -2.5955982 -200 45 -200 45 -200 45
137315985.99767 -0.07540486 -2.5992923 -200 45 -200 45 -200 45
138316102.68378 -0.074261352 -2.5955045 -200 45 -200 45 -200 45
139316219.36989 -0.076709114 -2.5999556 -200 45 -200 45 -200 45
140316336.05601 -0.07671386 -2.6265602 -200 45 -200 45 -200 45
141316452.74212 -0.079284534 -2.6559203 -200 45 -200 45 -200 45
142316569.42824 -0.079976611 -2.6875813 -200 45 -200 45 -200 45
143316686.11435 -0.079966068 -2.6841936 -200 45 -200 45 -200 45
144316802.80047 -0.080791697 -2.7076888 -200 45 -200 45 -200 45
145316919.48658 -0.083566129 -2.7333081 -200 45 -200 45 -200 45
146317036.1727 -0.083641604 -2.7439213 -200 45 -200 45 -200 45
147317152.85881 -0.084334642 -2.7537165 -200 45 -200 45 -200 45
148317269.54492 -0.08456374 -2.76349 -200 45 -200 45 -200 45
149317386.23104 -0.085681185 -2.7945704 -200 45 -200 45 -200 45
150317502.91715 -0.087729387 -2.8344805 -200 45 -200 45 -200 45
151317619.60327 -0.091918051 -2.8734834 -200 45 -200 45 -200 45
152317736.28938 -0.092189863 -2.8796437 -200 45 -200 45 -200 45
153317852.9755 -0.093198188 -2.8829765 -200 45 -200 45 -200 45
154317969.66161 -0.092969425 -2.878767 -200 45 -200 45 -200 45
155318086.34772 -0.094046175 -2.890908 -200 45 -200 45 -200 45
156318203.03384 -0.092225291 -2.9144828 -200 45 -200 45 -200 45
157318319.71995 -0.096803948 -2.9356132 -200 45 -200 45 -200 45
158318436.40607 -0.09832488 -2.970072 -200 45 -200 45 -200 45
159318553.09218 -0.097350575 -2.9767535 -200 45 -200 45 -200 45
160318669.7783 -0.098327264 -2.9884434 -200 45 -200 45 -200 45
161318786.46441 -0.10202792 -3.0146782 -200 45 -200 45 -200 45
162318903.15053 -0.10203958 -3.0291965 -200 45 -200 45 -200 45
163319019.83664 -0.10178889 -3.034915 -200 45 -200 45 -200 45
164319136.52275 -0.10457809 -3.0401652 -200 45 -200 45 -200 45
165319253.20887 -0.10537235 -3.081233 -200 45 -200 45 -200 45
166319369.89498 -0.10704168 -3.0995867 -200 45 -200 45 -200 45
167319486.5811 -0.11135127 -3.1401308 -200 45 -200 45 -200 45
168319603.26721 -0.1121465 -3.1571839 -200 45 -200 45 -200 45
169319719.95333 -0.11222433 -3.1594355 -200 45 -200 45 -200 45
170319836.63944 -0.11190399 -3.148509 -200 45 -200 45 -200 45
171319953.32555 -0.11295223 -3.1519368 -200 45 -200 45 -200 45
172320070.01167 -0.11414105 -3.1654122 -200 45 -200 45 -200 45
173320186.69778 -0.11385192 -3.2124689 -200 45 -200 45 -200 45
174320303.3839 -0.11667867 -3.236119 -200 45 -200 45 -200 45
175320420.07001 -0.11795788 -3.2367454 -200 45 -200 45 -200 45
176320536.75613 -0.11926939 -3.258568 -200 45 -200 45 -200 45
177320653.44224 -0.12056613 -3.2578254 -200 45 -200 45 -200 45
178320770.12835 -0.12180629 -3.2990191 -200 45 -200 45 -200 45
179320886.81447 -0.12147965 -3.3024833 -200 45 -200 45 -200 45
180321003.50058 -0.12134655 -3.317004 -200 45 -200 45 -200 45
181321120.1867 -0.12399971 -3.3142049 -200 45 -200 45 -200 45
182321236.87281 -0.1259744 -3.3719096 -200 45 -200 45 -200 45
183321353.55893 -0.1293 -3.394207 -200 45 -200 45 -200 45
184321470.24504 -0.13051011 -3.4279304 -200 45 -200 45 -200 45
185321586.93116 -0.1321595 -3.4343712 -200 45 -200 45 -200 45
186321703.61727 -0.12978671 -3.4135628 -200 45 -200 45 -200 45
187321820.30338 -0.13149881 -3.4288526 -200 45 -200 45 -200 45
188321936.9895 -0.13095321 -3.4269974 -200 45 -200 45 -200 45
189322053.67561 -0.13511917 -3.4723096 -200 45 -200 45 -200 45
190322170.36173 -0.13586374 -3.5037644 -200 45 -200 45 -200 45
191322287.04784 -0.1374425 -3.5180736 -200 45 -200 45 -200 45
192322403.73396 -0.13799587 -3.5205054 -200 45 -200 45 -200 45
193322520.42007 -0.13900366 -3.5337541 -200 45 -200 45 -200 45
194322637.10618 -0.14226142 -3.56183 -200 45 -200 45 -200 45
195322753.7923 -0.14129727 -3.5613048 -200 45 -200 45 -200 45
196322870.47841 -0.14220551 -3.5769961 -200 45 -200 45 -200 45
197322987.16453 -0.14454655 -3.5859966 -200 45 -200 45 -200 45
198323103.85064 -0.14593922 -3.6316559 -200 45 -200 45 -200 45
199323220.53676 -0.14969836 -3.6658297 -200 45 -200 45 -200 45
200323337.22287 -0.15327814 -3.6881588 -200 45 -200 45 -200 45
201323453.90898 -0.15280381 -3.7105916 -200 45 -200 45 -200 45
202323570.5951 -0.15085466 -3.678503 -200 45 -200 45 -200 45
203323687.28121 -0.15214184 -3.6841798 -200 45 -200 45 -200 45
204323803.96733 -0.15083377 -3.6946418 -200 45 -200 45 -200 45
205323920.65344 -0.15501805 -3.7205105 -200 45 -200 45 -200 45
206324037.33956 -0.15734963 -3.7520509 -200 45 -200 45 -200 45
207324154.02567 -0.15927376 -3.7602766 -200 45 -200 45 -200 45
208324270.71179 -0.16018605 -3.7846472 -200 45 -200 45 -200 45
209324387.3979 -0.16197816 -3.796366 -200 45 -200 45 -200 45
210324504.08401 -0.16346161 -3.8202469 -200 45 -200 45 -200 45
211324620.77013 -0.16373526 -3.8337395 -200 45 -200 45 -200 45
212324737.45624 -0.16403148 -3.8286669 -200 45 -200 45 -200 45
213324854.14236 -0.16482109 -3.8336756 -200 45 -200 45 -200 45
214324970.82847 -0.16828959 -3.8695502 -200 45 -200 45 -200 45
215325087.51459 -0.17074436 -3.9111755 -200 45 -200 45 -200 45
216325204.2007 -0.17376682 -3.951314 -200 45 -200 45 -200 45
217325320.88681 -0.17593031 -3.9614317 -200 45 -200 45 -200 45
218325437.57293 -0.17409606 -3.9490805 -200 45 -200 45 -200 45
219325554.25904 -0.17253867 -3.9507825 -200 45 -200 45 -200 45
220325670.94516 -0.17559581 -3.9371588 -200 45 -200 45 -200 45
221325787.63127 -0.17580254 -3.9748838 -200 45 -200 45 -200 45
222325904.31739 -0.17988631 -4.0054588 -200 45 -200 45 -200 45
223326021.0035 -0.18028726 -4.0299239 -200 45 -200 45 -200 45
224326137.68961 -0.1824038 -4.0370569 -200 45 -200 45 -200 45
225326254.37573 -0.18409707 -4.0592389 -200 45 -200 45 -200 45
226326371.06184 -0.18464129 -4.0851893 -200 45 -200 45 -200 45
227326487.74796 -0.18798591 -4.0930276 -200 45 -200 45 -200 45
228326604.43407 -0.18779939 -4.0889354 -200 45 -200 45 -200 45
229326721.12019 -0.18860902 -4.09196 -200 45 -200 45 -200 45
230326837.8063 -0.19112778 -4.1202087 -200 45 -200 45 -200 45
231326954.49242 -0.19508871 -4.1540165 -200 45 -200 45 -200 45
232327071.17853 -0.19821866 -4.199306 -200 45 -200 45 -200 45
233327187.86464 -0.19969857 -4.218596 -200 45 -200 45 -200 45
234327304.55076 -0.20036022 -4.2208366 -200 45 -200 45 -200 45
235327421.23687 -0.19844681 -4.1944351 -200 45 -200 45 -200 45
236327537.92299 -0.19822462 -4.1951442 -200 45 -200 45 -200 45
237327654.6091 -0.20023255 -4.1989522 -200 45 -200 45 -200 45
238327771.29522 -0.20239137 -4.2545676 -200 45 -200 45 -200 45
239327887.98133 -0.20622118 -4.2706676 -200 45 -200 45 -200 45
240328004.66744 -0.20740321 -4.2862387 -200 45 -200 45 -200 45
241328121.35356 -0.20734729 -4.3064036 -200 45 -200 45 -200 45
242328238.03967 -0.20960256 -4.3105712 -200 45 -200 45 -200 45
243328354.72579 -0.21200578 -4.3399968 -200 45 -200 45 -200 45
244328471.4119 -0.21261685 -4.3244052 -200 45 -200 45 -200 45
245328588.09802 -0.21185248 -4.3374929 -200 45 -200 45 -200 45
246328704.78413 -0.21462844 -4.3395977 -200 45 -200 45 -200 45
247328821.47025 -0.21798208 -4.3934789 -200 45 -200 45 -200 45
248328938.15636 -0.22245638 -4.4404736 -200 45 -200 45 -200 45
249329054.84247 -0.22485119 -4.4741535 -200 45 -200 45 -200 45
250329171.52859 -0.22683927 -4.4622054 -200 45 -200 45 -200 45
251329288.2147 -0.22359842 -4.4519548 -200 45 -200 45 -200 45
252329404.90082 -0.22308119 -4.4487047 -200 45 -200 45 -200 45
253329521.58693 -0.22401135 -4.4470081 -200 45 -200 45 -200 45
254329638.27305 -0.22858325 -4.4937034 -200 45 -200 45 -200 45
255329754.95916 -0.23255694 -4.5056233 -200 45 -200 45 -200 45
256329871.64527 -0.23325558 -4.5378437 -200 45 -200 45 -200 45
257329988.33139 -0.23472342 -4.5384088 -200 45 -200 45 -200 45
258330105.0175 -0.23593812 -4.5508127 -200 45 -200 45 -200 45
259330221.70362 -0.23974456 -4.5826192 -200 45 -200 45 -200 45
260330338.38973 -0.23972377 -4.5900564 -200 45 -200 45 -200 45
261330455.07585 -0.24001729 -4.5798659 -200 45 -200 45 -200 45
262330571.76196 -0.23895462 -4.5826693 -200 45 -200 45 -200 45
263330688.44807 -0.24415618 -4.6294827 -200 45 -200 45 -200 45
264330805.13419 -0.24923758 -4.6677074 -200 45 -200 45 -200 45
265330921.8203 -0.25395277 -4.7022214 -200 45 -200 45 -200 45
266331038.50642 -0.25459146 -4.7173762 -200 45 -200 45 -200 45
267331155.19253 -0.25249296 -4.7107625 -200 45 -200 45 -200 45
268331271.87865 -0.25328949 -4.6758962 -200 45 -200 45 -200 45
269331388.56476 -0.25252369 -4.6786509 -200 45 -200 45 -200 45
270331505.25088 -0.25461754 -4.7132053 -200 45 -200 45 -200 45
271331621.93699 -0.25875169 -4.7355509 -200 45 -200 45 -200 45
272331738.6231 -0.26254874 -4.7573967 -200 45 -200 45 -200 45
273331855.30922 -0.26295081 -4.7715483 -200 45 -200 45 -200 45
274331971.99533 -0.26322803 -4.7819386 -200 45 -200 45 -200 45
275332088.68145 -0.26743314 -4.7924323 -200 45 -200 45 -200 45
276332205.36756 -0.26769304 -4.8112783 -200 45 -200 45 -200 45
277332322.05368 -0.26897758 -4.8109183 -200 45 -200 45 -200 45
278332438.73979 -0.26859644 -4.810698 -200 45 -200 45 -200 45
279332555.4259 -0.27106011 -4.8505745 -200 45 -200 45 -200 45
280332672.11202 -0.27601561 -4.881496 -200 45 -200 45 -200 45
281332788.79813 -0.28049073 -4.9179955 -200 45 -200 45 -200 45
282332905.48425 -0.28246081 -4.9407592 -200 45 -200 45 -200 45
283333022.17036 -0.28241995 -4.9345808 -200 45 -200 45 -200 45
284333138.85648 -0.27985293 -4.9092813 -200 45 -200 45 -200 45
285333255.54259 -0.27943605 -4.8985152 -200 45 -200 45 -200 45
286333372.2287 -0.28196773 -4.9086504 -200 45 -200 45 -200 45
287333488.91482 -0.28601742 -4.9527674 -200 45 -200 45 -200 45
288333605.60093 -0.28886056 -4.97967 -200 45 -200 45 -200 45
289333722.28705 -0.29164967 -4.9872217 -200 45 -200 45 -200 45
290333838.97316 -0.29103041 -5.000896 -200 45 -200 45 -200 45
291333955.65928 -0.29203007 -4.9997659 -200 45 -200 45 -200 45
292334072.34539 -0.29343233 -5.0284171 -200 45 -200 45 -200 45
293334189.03151 -0.29548949 -5.0289068 -200 45 -200 45 -200 45
294334305.71762 -0.29577875 -5.0313435 -200 45 -200 45 -200 45
295334422.40373 -0.29751295 -5.0478239 -200 45 -200 45 -200 45
296334539.08985 -0.3015444 -5.0864701 -200 45 -200 45 -200 45
297334655.77596 -0.30808046 -5.1334882 -200 45 -200 45 -200 45
298334772.46208 -0.30910182 -5.1725874 -200 45 -200 45 -200 45
299334889.14819 -0.31090528 -5.1524291 -200 45 -200 45 -200 45
300335005.83431 -0.30760279 -5.1201434 -200 45 -200 45 -200 45
301335122.52042 -0.30762112 -5.1195006 -200 45 -200 45 -200 45
302335239.20653 -0.30672622 -5.1229038 -200 45 -200 45 -200 45
303335355.89265 -0.31242299 -5.1756992 -200 45 -200 45 -200 45
304335472.57876 -0.31490913 -5.1956782 -200 45 -200 45 -200 45
305335589.26488 -0.31843194 -5.2024269 -200 45 -200 45 -200 45
306335705.95099 -0.31804615 -5.229331 -200 45 -200 45 -200 45
307335822.63711 -0.32187232 -5.2126198 -200 45 -200 45 -200 45
308335939.32322 -0.32370284 -5.2563472 -200 45 -200 45 -200 45
309336056.00933 -0.32303551 -5.2483416 -200 45 -200 45 -200 45
310336172.69545 -0.32412344 -5.2427268 -200 45 -200 45 -200 45
311336289.38156 -0.32610282 -5.243681 -200 45 -200 45 -200 45
312336406.06768 -0.33007935 -5.2949729 -200 45 -200 45 -200 45
313336522.75379 -0.33534709 -5.3465357 -200 45 -200 45 -200 45
314336639.43991 -0.34077269 -5.3668957 -200 45 -200 45 -200 45
315336756.12602 -0.34019932 -5.3635297 -200 45 -200 45 -200 45
316336872.81214 -0.33454293 -5.3315606 -200 45 -200 45 -200 45
317336989.49825 -0.33555964 -5.3319945 -200 45 -200 45 -200 45
318337106.18436 -0.33645013 -5.3437595 -200 45 -200 45 -200 45
319337222.87048 -0.34413108 -5.3875961 -200 45 -200 45 -200 45
320337339.55659 -0.34339923 -5.3968186 -200 45 -200 45 -200 45
321337456.24271 -0.346816 -5.4182749 -200 45 -200 45 -200 45
322337572.92882 -0.34854293 -5.4183664 -200 45 -200 45 -200 45
323337689.61494 -0.34915891 -5.4242353 -200 45 -200 45 -200 45
324337806.30105 -0.35278967 -5.4454832 -200 45 -200 45 -200 45
325337922.98716 -0.35087836 -5.456326 -200 45 -200 45 -200 45
326338039.67328 -0.35307407 -5.4445758 -200 45 -200 45 -200 45
327338156.35939 -0.35323244 -5.4519496 -200 45 -200 45 -200 45
328338273.04551 -0.36151984 -5.4942198 -200 45 -200 45 -200 45
329338389.73162 -0.36490163 -5.5487046 -200 45 -200 45 -200 45
330338506.41774 -0.36926952 -5.5808678 -200 45 -200 45 -200 45
331338623.10385 -0.37063155 -5.5795918 -200 45 -200 45 -200 45
332338739.78997 -0.36666843 -5.5527358 -200 45 -200 45 -200 45
333338856.47608 -0.36700785 -5.5373354 -200 45 -200 45 -200 45
334338973.16219 -0.36564046 -5.5213361 -200 45 -200 45 -200 45
335339089.84831 -0.37097073 -5.573689 -200 45 -200 45 -200 45
336339206.53442 -0.37457797 -5.5899487 -200 45 -200 45 -200 45
337339323.22054 -0.37798011 -5.6202378 -200 45 -200 45 -200 45
338339439.90665 -0.37779826 -5.6240301 -200 45 -200 45 -200 45
339339556.59277 -0.38181058 -5.6266427 -200 45 -200 45 -200 45
340339673.27888 -0.38552019 -5.6401868 -200 45 -200 45 -200 45
341339789.96499 -0.3858164 -5.6630521 -200 45 -200 45 -200 45
342339906.65111 -0.38415971 -5.6494226 -200 45 -200 45 -200 45
343340023.33722 -0.38526335 -5.6475925 -200 45 -200 45 -200 45
344340140.02334 -0.38963705 -5.6847954 -200 45 -200 45 -200 45
345340256.70945 -0.39646879 -5.7175102 -200 45 -200 45 -200 45
346340373.39557 -0.40123424 -5.7683492 -200 45 -200 45 -200 45
347340490.08168 -0.40507531 -5.7791681 -200 45 -200 45 -200 45
348340606.76779 -0.39997527 -5.7545815 -200 45 -200 45 -200 45
349340723.45391 -0.39810663 -5.7310195 -200 45 -200 45 -200 45
350340840.14002 -0.39947149 -5.7398114 -200 45 -200 45 -200 45
351340956.82614 -0.4016431 -5.7575951 -200 45 -200 45 -200 45
352341073.51225 -0.40780103 -5.7909546 -200 45 -200 45 -200 45
353341190.19837 -0.41064799 -5.812716 -200 45 -200 45 -200 45
354341306.88448 -0.41172877 -5.8187456 -200 45 -200 45 -200 45
355341423.5706 -0.41373423 -5.8210535 -200 45 -200 45 -200 45
356341540.25671 -0.41673523 -5.843617 -200 45 -200 45 -200 45
357341656.94282 -0.41816723 -5.8435183 -200 45 -200 45 -200 45
358341773.62894 -0.41633177 -5.8412452 -200 45 -200 45 -200 45
359341890.31505 -0.41722363 -5.8392987 -200 45 -200 45 -200 45
360342007.00117 -0.42172292 -5.8611808 -200 45 -200 45 -200 45
361342123.68728 -0.4276889 -5.8997555 -200 45 -200 45 -200 45
362342240.3734 -0.4337998 -5.9619823 -200 45 -200 45 -200 45
363342357.05951 -0.43620819 -5.9653854 -200 45 -200 45 -200 45
364342473.74562 -0.43581724 -5.9458694 -200 45 -200 45 -200 45
365342590.43174 -0.43196175 -5.9179039 -200 45 -200 45 -200 45
366342707.11785 -0.4315103 -5.9198475 -200 45 -200 45 -200 45
367342823.80397 -0.43120924 -5.9251423 -200 45 -200 45 -200 45
368342940.49008 -0.44047052 -5.9781008 -200 45 -200 45 -200 45
369343057.1762 -0.44281578 -5.9918804 -200 45 -200 45 -200 45
370343173.86231 -0.44386104 -5.9904113 -200 45 -200 45 -200 45
371343290.54842 -0.44608364 -6.0166569 -200 45 -200 45 -200 45
372343407.23454 -0.44688779 -6.0178461 -200 45 -200 45 -200 45
373343523.92065 -0.45183098 -6.0284529 -200 45 -200 45 -200 45
374343640.60677 -0.45057276 -6.0178847 -200 45 -200 45 -200 45
375343757.29288 -0.45214063 -6.0225267 -200 45 -200 45 -200 45
376343873.979 -0.45292264 -6.0365124 -200 45 -200 45 -200 45
377343990.66511 -0.46099043 -6.0753417 -200 45 -200 45 -200 45
378344107.35123 -0.46844605 -6.1135349 -200 45 -200 45 -200 45
379344224.03734 -0.4705483 -6.1491117 -200 45 -200 45 -200 45
380344340.72345 -0.47156042 -6.1398492 -200 45 -200 45 -200 45
381344457.40957 -0.46669817 -6.1148901 -200 45 -200 45 -200 45
382344574.09568 -0.46527487 -6.1060395 -200 45 -200 45 -200 45
383344690.7818 -0.46629527 -6.0929737 -200 45 -200 45 -200 45
384344807.46791 -0.47165853 -6.13166 -200 45 -200 45 -200 45
385344924.15403 -0.47549021 -6.1602263 -200 45 -200 45 -200 45
386345040.84014 -0.47809348 -6.1693363 -200 45 -200 45 -200 45
387345157.52625 -0.48105946 -6.181581 -200 45 -200 45 -200 45
388345274.21237 -0.48049501 -6.1779432 -200 45 -200 45 -200 45
389345390.89848 -0.48577017 -6.2005997 -200 45 -200 45 -200 45
390345507.5846 -0.48476863 -6.1988826 -200 45 -200 45 -200 45
391345624.27071 -0.48390043 -6.1939611 -200 45 -200 45 -200 45
392345740.95683 -0.48462218 -6.1930437 -200 45 -200 45 -200 45
393345857.64294 -0.49074075 -6.2370505 -200 45 -200 45 -200 45
394345974.32905 -0.49764121 -6.2742591 -200 45 -200 45 -200 45
395346091.01517 -0.50657618 -6.3176141 -200 45 -200 45 -200 45
396346207.70128 -0.50565386 -6.3094096 -200 45 -200 45 -200 45
397346324.3874 -0.50111735 -6.284523 -200 45 -200 45 -200 45
398346441.07351 -0.49826974 -6.2739172 -200 45 -200 45 -200 45
399346557.75963 -0.49822965 -6.2672381 -200 45 -200 45 -200 45
400346674.44574 -0.504682 -6.2963209 -200 45 -200 45 -200 45
401346791.13186 -0.51031303 -6.3095136 -200 45 -200 45 -200 45
402346907.81797 -0.51325184 -6.3424191 -200 45 -200 45 -200 45
403347024.50408 -0.51150364 -6.3367367 -200 45 -200 45 -200 45
404347141.1902 -0.51437044 -6.3426867 -200 45 -200 45 -200 45
405347257.87631 -0.51788217 -6.3734026 -200 45 -200 45 -200 45
406347374.56243 -0.52022499 -6.3700047 -200 45 -200 45 -200 45
407347491.24854 -0.51656383 -6.3596087 -200 45 -200 45 -200 45
408347607.93466 -0.51935112 -6.3648796 -200 45 -200 45 -200 45
409347724.62077 -0.5247488 -6.3902617 -200 45 -200 45 -200 45
410347841.30688 -0.53051585 -6.4146829 -200 45 -200 45 -200 45
411347957.993 -0.53760993 -6.4629364 -200 45 -200 45 -200 45
412348074.67911 -0.54179353 -6.4755797 -200 45 -200 45 -200 45
413348191.36523 -0.53940034 -6.446898 -200 45 -200 45 -200 45
414348308.05134 -0.5350908 -6.4263353 -200 45 -200 45 -200 45
415348424.73746 -0.53353459 -6.4243464 -200 45 -200 45 -200 45
416348541.42357 -0.53609085 -6.43326 -200 45 -200 45 -200 45
417348658.10968 -0.54263318 -6.4708381 -200 45 -200 45 -200 45
418348774.7958 -0.54611093 -6.4893341 -200 45 -200 45 -200 45
419348891.48191 -0.54609948 -6.4869156 -200 45 -200 45 -200 45
420349008.16803 -0.55042732 -6.5051317 -200 45 -200 45 -200 45
421349124.85414 -0.55236703 -6.5011435 -200 45 -200 45 -200 45
422349241.54026 -0.55546218 -6.5238333 -200 45 -200 45 -200 45
423349358.22637 -0.55248171 -6.5115156 -200 45 -200 45 -200 45
424349474.91249 -0.55427152 -6.5196309 -200 45 -200 45 -200 45
425349591.5986 -0.55596495 -6.5186129 -200 45 -200 45 -200 45
426349708.28471 -0.56524992 -6.564261 -200 45 -200 45 -200 45
427349824.97083 -0.57307708 -6.5989161 -200 45 -200 45 -200 45
428349941.65694 -0.57781005 -6.6170197 -200 45 -200 45 -200 45
429350058.34306 -0.5755536 -6.6195602 -200 45 -200 45 -200 45
430350175.02917 -0.5679571 -6.5783963 -200 45 -200 45 -200 45
431350291.71529 -0.56839788 -6.5685124 -200 45 -200 45 -200 45
432350408.4014 -0.56821114 -6.56991 -200 45 -200 45 -200 45
433350525.08751 -0.57968515 -6.6128087 -200 45 -200 45 -200 45
434350641.77363 -0.58108288 -6.621913 -200 45 -200 45 -200 45
435350758.45974 -0.5827356 -6.6270814 -200 45 -200 45 -200 45
436350875.14586 -0.58587497 -6.6371784 -200 45 -200 45 -200 45
437350991.83197 -0.58487171 -6.6309948 -200 45 -200 45 -200 45
438351108.51809 -0.59074175 -6.6472249 -200 45 -200 45 -200 45
439351225.2042 -0.58960211 -6.6465936 -200 45 -200 45 -200 45
440351341.89032 -0.58898342 -6.6343017 -200 45 -200 45 -200 45
441351458.57643 -0.58910763 -6.6327524 -200 45 -200 45 -200 45
442351575.26254 -0.59780425 -6.6806774 -200 45 -200 45 -200 45
443351691.94866 -0.60373735 -6.7225423 -200 45 -200 45 -200 45
444351808.63477 -0.61110973 -6.7426386 -200 45 -200 45 -200 45
445351925.32089 -0.61159515 -6.7413216 -200 45 -200 45 -200 45
446352042.007 -0.60539663 -6.6995711 -200 45 -200 45 -200 45
447352158.69312 -0.60148519 -6.6893091 -200 45 -200 45 -200 45
448352275.37923 -0.60040611 -6.6768351 -200 45 -200 45 -200 45
449352392.06534 -0.60875881 -6.7182512 -200 45 -200 45 -200 45
450352508.75146 -0.61159992 -6.7427387 -200 45 -200 45 -200 45
451352625.43757 -0.61537284 -6.7584763 -200 45 -200 45 -200 45
452352742.12369 -0.61622566 -6.7617874 -200 45 -200 45 -200 45
453352858.8098 -0.61752951 -6.7670941 -200 45 -200 45 -200 45
454352975.49592 -0.62276745 -6.7878809 -200 45 -200 45 -200 45
455353092.18203 -0.62317407 -6.7828441 -200 45 -200 45 -200 45
456353208.86814 -0.62220043 -6.7696376 -200 45 -200 45 -200 45
457353325.55426 -0.62286246 -6.7752495 -200 45 -200 45 -200 45
458353442.24037 -0.62976646 -6.7996864 -200 45 -200 45 -200 45
459353558.92649 -0.6358273 -6.8399153 -200 45 -200 45 -200 45
460353675.6126 -0.64395815 -6.8865819 -200 45 -200 45 -200 45
461353792.29872 -0.64495593 -6.8892922 -200 45 -200 45 -200 45
462353908.98483 -0.64104533 -6.8505936 -200 45 -200 45 -200 45
463354025.67095 -0.63630712 -6.8270931 -200 45 -200 45 -200 45
464354142.35706 -0.63532031 -6.8216233 -200 45 -200 45 -200 45
465354259.04317 -0.64153051 -6.8511724 -200 45 -200 45 -200 45
466354375.72929 -0.64692187 -6.8746033 -200 45 -200 45 -200 45
467354492.4154 -0.65022641 -6.8883352 -200 45 -200 45 -200 45
468354609.10152 -0.65106779 -6.8817258 -200 45 -200 45 -200 45
469354725.78763 -0.65290201 -6.8874731 -200 45 -200 45 -200 45
470354842.47375 -0.65581316 -6.9163647 -200 45 -200 45 -200 45
471354959.15986 -0.65779752 -6.9163609 -200 45 -200 45 -200 45
472355075.84597 -0.65849066 -6.917027 -200 45 -200 45 -200 45
473355192.53209 -0.65669715 -6.9158235 -200 45 -200 45 -200 45
474355309.2182 -0.65985399 -6.9195242 -200 45 -200 45 -200 45
475355425.90432 -0.66907346 -6.9542799 -200 45 -200 45 -200 45
476355542.59043 -0.67770344 -6.9914479 -200 45 -200 45 -200 45
477355659.27655 -0.68050647 -7.0027304 -200 45 -200 45 -200 45
478355775.96266 -0.67711496 -6.9906716 -200 45 -200 45 -200 45
479355892.64877 -0.67177153 -6.9569769 -200 45 -200 45 -200 45
480356009.33489 -0.67016703 -6.9469452 -200 45 -200 45 -200 45
481356126.021 -0.67219669 -6.9557981 -200 45 -200 45 -200 45
482356242.70712 -0.68087107 -6.9969997 -200 45 -200 45 -200 45
483356359.39323 -0.68526351 -7.0101681 -200 45 -200 45 -200 45
484356476.07935 -0.68436885 -7.0107417 -200 45 -200 45 -200 45
485356592.76546 -0.68886405 -7.0203447 -200 45 -200 45 -200 45
486356709.45158 -0.68942684 -7.0219522 -200 45 -200 45 -200 45
487356826.13769 -0.69389296 -7.0425053 -200 45 -200 45 -200 45
488356942.8238 -0.69118774 -7.0229406 -200 45 -200 45 -200 45
489357059.50992 -0.69324946 -7.0289903 -200 45 -200 45 -200 45
490357176.19603 -0.69322938 -7.0251594 -200 45 -200 45 -200 45
491357292.88215 -0.70307094 -7.0612221 -200 45 -200 45 -200 45
492357409.56826 -0.71152389 -7.1081004 -200 45 -200 45 -200 45
493357526.25438 -0.71601158 -7.1220179 -200 45 -200 45 -200 45
494357642.94049 -0.71388662 -7.1214442 -200 45 -200 45 -200 45
495357759.6266 -0.70791978 -7.0865841 -200 45 -200 45 -200 45
496357876.31272 -0.70540988 -7.0725965 -200 45 -200 45 -200 45
497357992.99883 -0.70486724 -7.0743022 -200 45 -200 45 -200 45
498358109.68495 -0.71497142 -7.1035414 -200 45 -200 45 -200 45
499358226.37106 -0.71885049 -7.1240611 -200 45 -200 45 -200 45
500358343.05718 -0.71966982 -7.1228676 -200 45 -200 45 -200 45
501358459.74329 -0.72335345 -7.1409454 -200 45 -200 45 -200 45
502358576.4294 -0.72384793 -7.1457815 -200 45 -200 45 -200 45
503358693.11552 -0.73052698 -7.1558728 -200 45 -200 45 -200 45
504358809.80163 -0.72716415 -7.1443839 -200 45 -200 45 -200 45
505358926.48775 -0.7248202 -7.1383905 -200 45 -200 45 -200 45
506359043.17386 -0.7264263 -7.131021 -200 45 -200 45 -200 45
507359159.85998 -0.73518032 -7.1764712 -200 45 -200 45 -200 45
508359276.54609 -0.74263328 -7.2074924 -200 45 -200 45 -200 45
509359393.23221 -0.75011998 -7.2416081 -200 45 -200 45 -200 45
510359509.91832 -0.75084889 -7.2259817 -200 45 -200 45 -200 45
511359626.60443 -0.74468082 -7.2066464 -200 45 -200 45 -200 45
512359743.29055 -0.74076325 -7.1870179 -200 45 -200 45 -200 45
513359859.97666 -0.7391392 -7.178669 -200 45 -200 45 -200 45
514359976.66278 -0.74639332 -7.2067437 -200 45 -200 45 -200 45
515360093.34889 -0.75177675 -7.237318 -200 45 -200 45 -200 45
516360210.03501 -0.75455201 -7.2318335 -200 45 -200 45 -200 45
517360326.72112 -0.75599545 -7.2375684 -200 45 -200 45 -200 45
518360443.40723 -0.75766492 -7.2526875 -200 45 -200 45 -200 45
519360560.09335 -0.76109189 -7.2705965 -200 45 -200 45 -200 45
520360676.77946 -0.76254648 -7.2675638 -200 45 -200 45 -200 45
521360793.46558 -0.76031935 -7.2473612 -200 45 -200 45 -200 45
522360910.15169 -0.75996685 -7.2573938 -200 45 -200 45 -200 45
523361026.83781 -0.76701248 -7.2845607 -200 45 -200 45 -200 45
524361143.52392 -0.77418369 -7.3134198 -200 45 -200 45 -200 45
525361260.21004 -0.78455484 -7.353323 -200 45 -200 45 -200 45
526361376.89615 -0.78637123 -7.3519082 -200 45 -200 45 -200 45
527361493.58226 -0.78101754 -7.3336887 -200 45 -200 45 -200 45
528361610.26838 -0.77637738 -7.3079305 -200 45 -200 45 -200 45
529361726.95449 -0.77421033 -7.3019719 -200 45 -200 45 -200 45
530361843.64061 -0.77936846 -7.3071165 -200 45 -200 45 -200 45
531361960.32672 -0.78634393 -7.3500223 -200 45 -200 45 -200 45
532362077.01284 -0.7905286 -7.350163 -200 45 -200 45 -200 45
533362193.69895 -0.78991437 -7.3643861 -200 45 -200 45 -200 45
534362310.38506 -0.7939229 -7.3618922 -200 45 -200 45 -200 45
535362427.07118 -0.79378396 -7.3600011 -200 45 -200 45 -200 45
536362543.75729 -0.79843032 -7.3839254 -200 45 -200 45 -200 45
537362660.44341 -0.79651064 -7.3651681 -200 45 -200 45 -200 45
538362777.12952 -0.79616326 -7.3609786 -200 45 -200 45 -200 45
539362893.81564 -0.79811054 -7.3730741 -200 45 -200 45 -200 45
540363010.50175 -0.80650884 -7.4177041 -200 45 -200 45 -200 45
541363127.18786 -0.81640738 -7.4384365 -200 45 -200 45 -200 45
542363243.87398 -0.82114559 -7.4594154 -200 45 -200 45 -200 45
543363360.56009 -0.82029909 -7.4412289 -200 45 -200 45 -200 45
544363477.24621 -0.81354487 -7.4151273 -200 45 -200 45 -200 45
545363593.93232 -0.81152737 -7.4093132 -200 45 -200 45 -200 45
546363710.61844 -0.81122655 -7.3928576 -200 45 -200 45 -200 45
547363827.30455 -0.82166785 -7.4409108 -200 45 -200 45 -200 45
548363943.99067 -0.82418078 -7.4488354 -200 45 -200 45 -200 45
549364060.67678 -0.82711196 -7.4458957 -200 45 -200 45 -200 45
550364177.36289 -0.82844406 -7.4594188 -200 45 -200 45 -200 45
551364294.04901 -0.83061463 -7.4549117 -200 45 -200 45 -200 45
552364410.73512 -0.83571506 -7.4682288 -200 45 -200 45 -200 45
553364527.42124 -0.8344394 -7.4656348 -200 45 -200 45 -200 45
554364644.10735 -0.83209074 -7.4698977 -200 45 -200 45 -200 45
555364760.79347 -0.83252251 -7.4468784 -200 45 -200 45 -200 45
556364877.47958 -0.84209025 -7.4852138 -200 45 -200 45 -200 45
557364994.16569 -0.85234118 -7.5132928 -200 45 -200 45 -200 45
558365110.85181 -0.85735905 -7.5473223 -200 45 -200 45 -200 45
559365227.53792 -0.85841376 -7.5351014 -200 45 -200 45 -200 45
560365344.22404 -0.85102159 -7.5039949 -200 45 -200 45 -200 45
561365460.91015 -0.84629345 -7.493082 -200 45 -200 45 -200 45
562365577.59627 -0.84304851 -7.4829545 -200 45 -200 45 -200 45
563365694.28238 -0.85283607 -7.5142012 -200 45 -200 45 -200 45
564365810.96849 -0.85972047 -7.5252438 -200 45 -200 45 -200 45
565365927.65461 -0.86178261 -7.5427523 -200 45 -200 45 -200 45
566366044.34072 -0.86351097 -7.5434813 -200 45 -200 45 -200 45
567366161.02684 -0.86426359 -7.5411625 -200 45 -200 45 -200 45
568366277.71295 -0.86985689 -7.5650935 -200 45 -200 45 -200 45
569366394.39907 -0.86970919 -7.5613627 -200 45 -200 45 -200 45
570366511.08518 -0.86657625 -7.5462995 -200 45 -200 45 -200 45
571366627.7713 -0.86601406 -7.549572 -200 45 -200 45 -200 45
572366744.45741 -0.87312037 -7.5703349 -200 45 -200 45 -200 45
573366861.14352 -0.88296461 -7.5886598 -200 45 -200 45 -200 45
574366977.82964 -0.89222145 -7.6373725 -200 45 -200 45 -200 45
575367094.51575 -0.8927266 -7.6371131 -200 45 -200 45 -200 45
576367211.20187 -0.88941562 -7.6045852 -200 45 -200 45 -200 45
577367327.88798 -0.88319272 -7.5854859 -200 45 -200 45 -200 45
578367444.5741 -0.881675 -7.5705585 -200 45 -200 45 -200 45
579367561.26021 -0.88711935 -7.5944872 -200 45 -200 45 -200 45
580367677.94632 -0.89348048 -7.6218057 -200 45 -200 45 -200 45
581367794.63244 -0.89827973 -7.6177974 -200 45 -200 45 -200 45
582367911.31855 -0.89798397 -7.6247749 -200 45 -200 45 -200 45
583368028.00467 -0.90125978 -7.6253042 -200 45 -200 45 -200 45
584368144.69078 -0.90342396 -7.6340652 -200 45 -200 45 -200 45
585368261.3769 -0.90660596 -7.6418204 -200 45 -200 45 -200 45
586368378.06301 -0.90424824 -7.6330791 -200 45 -200 45 -200 45
587368494.74912 -0.90232706 -7.6293998 -200 45 -200 45 -200 45
588368611.43524 -0.90801847 -7.6470695 -200 45 -200 45 -200 45
589368728.12135 -0.91619176 -7.661787 -200 45 -200 45 -200 45
590368844.80747 -0.92665392 -7.7038312 -200 45 -200 45 -200 45
591368961.49358 -0.92954034 -7.7014475 -200 45 -200 45 -200 45
592369078.1797 -0.92758614 -7.7007217 -200 45 -200 45 -200 45
593369194.86581 -0.91982907 -7.6656451 -200 45 -200 45 -200 45
594369311.55193 -0.91758502 -7.6589012 -200 45 -200 45 -200 45
595369428.23804 -0.91867042 -7.6537938 -200 45 -200 45 -200 45
596369544.92415 -0.92905682 -7.7016063 -200 45 -200 45 -200 45
597369661.61027 -0.9319737 -7.7009974 -200 45 -200 45 -200 45
598369778.29638 -0.93302548 -7.705647 -200 45 -200 45 -200 45
599369894.9825 -0.93775392 -7.6984439 -200 45 -200 45 -200 45
600370011.66861 -0.93721616 -7.7181034 -200 45 -200 45 -200 45
601370128.35473 -0.94195497 -7.7218952 -200 45 -200 45 -200 45
602370245.04084 -0.9383229 -7.7155132 -200 45 -200 45 -200 45
603370361.72695 -0.93812656 -7.7173634 -200 45 -200 45 -200 45
604370478.41307 -0.93939418 -7.7133088 -200 45 -200 45 -200 45
605370595.09918 -0.94997078 -7.7354283 -200 45 -200 45 -200 45
606370711.7853 -0.96048796 -7.7831721 -200 45 -200 45 -200 45
607370828.47141 -0.96463251 -7.7994461 -200 45 -200 45 -200 45
608370945.15753 -0.96453297 -7.7863235 -200 45 -200 45 -200 45
609371061.84364 -0.95627731 -7.7611842 -200 45 -200 45 -200 45
610371178.52976 -0.95284468 -7.7465062 -200 45 -200 45 -200 45
611371295.21587 -0.95202821 -7.7370205 -200 45 -200 45 -200 45
612371411.90198 -0.96347708 -7.7811999 -200 45 -200 45 -200 45
613371528.5881 -0.96672016 -7.7768927 -200 45 -200 45 -200 45
614371645.27421 -0.969567 -7.7804289 -200 45 -200 45 -200 45
615371761.96033 -0.97077262 -7.7865343 -200 45 -200 45 -200 45
616371878.64644 -0.97304982 -7.7940135 -200 45 -200 45 -200 45
617371995.33256 -0.97727543 -7.8071051 -200 45 -200 45 -200 45
618372112.01867 -0.97776562 -7.8002434 -200 45 -200 45 -200 45
619372228.70478 -0.9738158 -7.805769 -200 45 -200 45 -200 45
620372345.3909 -0.97442579 -7.7837758 -200 45 -200 45 -200 45
621372462.07701 -0.98426753 -7.8116465 -200 45 -200 45 -200 45
622372578.76313 -0.99352604 -7.840704 -200 45 -200 45 -200 45
623372695.44924 -1.0022532 -7.8704605 -200 45 -200 45 -200 45
624372812.13536 -1.0031506 -7.8715644 -200 45 -200 45 -200 45
625372928.82147 -0.99444079 -7.8372869 -200 45 -200 45 -200 45
626373045.50758 -0.98972964 -7.8231692 -200 45 -200 45 -200 45
627373162.1937 -0.98661613 -7.8139262 -200 45 -200 45 -200 45
628373278.87981 -0.99866647 -7.8506246 -200 45 -200 45 -200 45
629373395.56593 -1.002728 -7.8518696 -200 45 -200 45 -200 45
630373512.25204 -1.0063328 -7.8629651 -200 45 -200 45 -200 45
631373628.93816 -1.0062789 -7.8591256 -200 45 -200 45 -200 45
632373745.62427 -1.0092185 -7.8588328 -200 45 -200 45 -200 45
633373862.31039 -1.014354 -7.8802352 -200 45 -200 45 -200 45
634373978.9965 -1.0109669 -7.8726077 -200 45 -200 45 -200 45
635374095.68261 -1.0102044 -7.8610244 -200 45 -200 45 -200 45
636374212.36873 -1.0100856 -7.8589506 -200 45 -200 45 -200 45
637374329.05484 -1.0202076 -7.8904257 -200 45 -200 45 -200 45
638374445.74096 -1.0297344 -7.8972254 -200 45 -200 45 -200 45
639374562.42707 -1.0389802 -7.9307394 -200 45 -200 45 -200 45
640374679.11319 -1.0385909 -7.9238572 -200 45 -200 45 -200 45
641374795.7993 -1.032964 -7.9010835 -200 45 -200 45 -200 45
642374912.48541 -1.0263284 -7.8873949 -200 45 -200 45 -200 45
643375029.17153 -1.0247196 -7.8721995 -200 45 -200 45 -200 45
644375145.85764 -1.033962 -7.9018998 -200 45 -200 45 -200 45
645375262.54376 -1.038083 -7.9225841 -200 45 -200 45 -200 45
646375379.22987 -1.0439286 -7.9273925 -200 45 -200 45 -200 45
647375495.91599 -1.0410323 -7.9132338 -200 45 -200 45 -200 45
648375612.6021 -1.045809 -7.9185166 -200 45 -200 45 -200 45
649375729.28821 -1.0500702 -7.9339848 -200 45 -200 45 -200 45
650375845.97433 -1.0502425 -7.9291387 -200 45 -200 45 -200 45
651375962.66044 -1.046783 -7.9161167 -200 45 -200 45 -200 45
652376079.34656 -1.0469089 -7.9136119 -200 45 -200 45 -200 45
653376196.03267 -1.054649 -7.9343944 -200 45 -200 45 -200 45
654376312.71879 -1.0629587 -7.947906 -200 45 -200 45 -200 45
655376429.4049 -1.0728307 -7.9790297 -200 45 -200 45 -200 45
656376546.09102 -1.0757284 -7.9838405 -200 45 -200 45 -200 45
657376662.77713 -1.0692462 -7.9654059 -200 45 -200 45 -200 45
658376779.46324 -1.0619177 -7.9393725 -200 45 -200 45 -200 45
659376896.14936 -1.0596194 -7.9333816 -200 45 -200 45 -200 45
660377012.83547 -1.0654938 -7.9336028 -200 45 -200 45 -200 45
661377129.52159 -1.0740527 -7.9656944 -200 45 -200 45 -200 45
662377246.2077 -1.0767916 -7.9678206 -200 45 -200 45 -200 45
663377362.89382 -1.0778911 -7.9632058 -200 45 -200 45 -200 45
664377479.57993 -1.0807245 -7.9752235 -200 45 -200 45 -200 45
665377596.26604 -1.0828139 -7.9699607 -200 45 -200 45 -200 45
666377712.95216 -1.0858971 -7.9742613 -200 45 -200 45 -200 45
667377829.63827 -1.0830699 -7.9664278 -200 45 -200 45 -200 45
668377946.32439 -1.0808439 -7.9641218 -200 45 -200 45 -200 45
669378063.0105 -1.0873163 -7.9698415 -200 45 -200 45 -200 45
670378179.69662 -1.0957688 -7.9957314 -200 45 -200 45 -200 45
671378296.38273 -1.1080244 -8.0197039 -200 45 -200 45 -200 45
672378413.06884 -1.1105866 -8.0340309 -200 45 -200 45 -200 45
673378529.75496 -1.1068735 -8.0127344 -200 45 -200 45 -200 45
674378646.44107 -1.0979104 -7.9828391 -200 45 -200 45 -200 45
675378763.12719 -1.095969 -7.9716353 -200 45 -200 45 -200 45
676378879.8133 -1.0984808 -7.9852195 -200 45 -200 45 -200 45
677378996.49942 -1.1087133 -8.0199394 -200 45 -200 45 -200 45
678379113.18553 -1.1118259 -8.0217094 -200 45 -200 45 -200 45
679379229.87165 -1.1124721 -8.0038948 -200 45 -200 45 -200 45
680379346.55776 -1.1163194 -8.0153456 -200 45 -200 45 -200 45
681379463.24387 -1.1176147 -8.0200005 -200 45 -200 45 -200 45
682379579.92999 -1.1206192 -8.0364952 -200 45 -200 45 -200 45
683379696.6161 -1.1184679 -8.0176392 -200 45 -200 45 -200 45
684379813.30222 -1.1159339 -8.0132113 -200 45 -200 45 -200 45
685379929.98833 -1.1191163 -8.0110607 -200 45 -200 45 -200 45
686380046.67445 -1.1290129 -8.0409603 -200 45 -200 45 -200 45
687380163.36056 -1.1419735 -8.0700769 -200 45 -200 45 -200 45
688380280.04667 -1.1466436 -8.0771904 -200 45 -200 45 -200 45
689380396.73279 -1.1429195 -8.0595264 -200 45 -200 45 -200 45
690380513.4189 -1.1360339 -8.0460939 -200 45 -200 45 -200 45
691380630.10502 -1.133621 -8.0338898 -200 45 -200 45 -200 45
692380746.79113 -1.1298858 -8.0236397 -200 45 -200 45 -200 45
693380863.47725 -1.1428926 -8.0452433 -200 45 -200 45 -200 45
694380980.16336 -1.1448767 -8.0660219 -200 45 -200 45 -200 45
695381096.84947 -1.1488918 -8.0546532 -200 45 -200 45 -200 45
696381213.53559 -1.151042 -8.0542183 -200 45 -200 45 -200 45
697381330.2217 -1.1516449 -8.0597296 -200 45 -200 45 -200 45
698381446.90782 -1.1587359 -8.0744867 -200 45 -200 45 -200 45
699381563.59393 -1.1562805 -8.0732574 -200 45 -200 45 -200 45
700381680.28005 -1.1537118 -8.0655088 -200 45 -200 45 -200 45
701381796.96616 -1.1514169 -8.0592623 -200 45 -200 45 -200 45
702381913.65228 -1.1633878 -8.0870676 -200 45 -200 45 -200 45
703382030.33839 -1.1754956 -8.1029978 -200 45 -200 45 -200 45
704382147.0245 -1.1809889 -8.1146059 -200 45 -200 45 -200 45
705382263.71062 -1.1809003 -8.1104126 -200 45 -200 45 -200 45
706382380.39673 -1.1723735 -8.0760984 -200 45 -200 45 -200 45
707382497.08285 -1.1679136 -8.0748472 -200 45 -200 45 -200 45
708382613.76896 -1.1659771 -8.0654879 -200 45 -200 45 -200 45
709382730.45508 -1.1774403 -8.0892744 -200 45 -200 45 -200 45
710382847.14119 -1.1809812 -8.0982761 -200 45 -200 45 -200 45
711382963.8273 -1.1847214 -8.10256 -200 45 -200 45 -200 45
712383080.51342 -1.1837871 -8.0917454 -200 45 -200 45 -200 45
713383197.19953 -1.187919 -8.1022825 -200 45 -200 45 -200 45
714383313.88565 -1.1912198 -8.1104574 -200 45 -200 45 -200 45
715383430.57176 -1.1916734 -8.1158743 -200 45 -200 45 -200 45
716383547.25788 -1.1886878 -8.1062355 -200 45 -200 45 -200 45
717383663.94399 -1.1875311 -8.0898685 -200 45 -200 45 -200 45
718383780.63011 -1.1959468 -8.1106758 -200 45 -200 45 -200 45
719383897.31622 -1.2071627 -8.1330261 -200 45 -200 45 -200 45
720384014.00233 -1.2156451 -8.1539278 -200 45 -200 45 -200 45
721384130.68845 -1.2172358 -8.1463156 -200 45 -200 45 -200 45
722384247.37456 -1.210102 -8.1340971 -200 45 -200 45 -200 45
723384364.06068 -1.2027209 -8.1211634 -200 45 -200 45 -200 45
724384480.74679 -1.2011563 -8.1090975 -200 45 -200 45 -200 45
725384597.43291 -1.2069184 -8.132369 -200 45 -200 45 -200 45
726384714.11902 -1.2151989 -8.136693 -200 45 -200 45 -200 45
727384830.80513 -1.2181023 -8.1415701 -200 45 -200 45 -200 45
728384947.49125 -1.218907 -8.1455784 -200 45 -200 45 -200 45
729385064.17736 -1.2204013 -8.1390133 -200 45 -200 45 -200 45
730385180.86348 -1.2257273 -8.1434355 -200 45 -200 45 -200 45
731385297.54959 -1.2277771 -8.1524239 -200 45 -200 45 -200 45
732385414.23571 -1.2221336 -8.1472759 -200 45 -200 45 -200 45
733385530.92182 -1.2214559 -8.1471024 -200 45 -200 45 -200 45
734385647.60793 -1.2306128 -8.1577721 -200 45 -200 45 -200 45
735385764.29405 -1.2398949 -8.1601934 -200 45 -200 45 -200 45
736385880.98016 -1.2509284 -8.1823826 -200 45 -200 45 -200 45
737385997.66628 -1.2528696 -8.1963549 -200 45 -200 45 -200 45
738386114.35239 -1.2472252 -8.1708212 -200 45 -200 45 -200 45
739386231.03851 -1.2389565 -8.1583347 -200 45 -200 45 -200 45
740386347.72462 -1.2376242 -8.1474905 -200 45 -200 45 -200 45
741386464.41074 -1.2393494 -8.1605473 -200 45 -200 45 -200 45
742386581.09685 -1.2500104 -8.1767836 -200 45 -200 45 -200 45
743386697.78296 -1.2552986 -8.1802921 -200 45 -200 45 -200 45
744386814.46908 -1.2547913 -8.1755362 -200 45 -200 45 -200 45
745386931.15519 -1.2573472 -8.1752357 -200 45 -200 45 -200 45
746387047.84131 -1.2584825 -8.1854076 -200 45 -200 45 -200 45
747387164.52742 -1.2631723 -8.1893559 -200 45 -200 45 -200 45
748387281.21354 -1.2599354 -8.1840153 -200 45 -200 45 -200 45
749387397.89965 -1.2587444 -8.1770859 -200 45 -200 45 -200 45
750387514.58576 -1.2599239 -8.1859074 -200 45 -200 45 -200 45
751387631.27188 -1.2724192 -8.1969156 -200 45 -200 45 -200 45
752387747.95799 -1.2843655 -8.2186155 -200 45 -200 45 -200 45
753387864.64411 -1.2880733 -8.2237139 -200 45 -200 45 -200 45
754387981.33022 -1.2850291 -8.2061901 -200 45 -200 45 -200 45
755388098.01634 -1.2745339 -8.1875458 -200 45 -200 45 -200 45
756388214.70245 -1.2733148 -8.1815147 -200 45 -200 45 -200 45
757388331.38856 -1.2716219 -8.1869411 -200 45 -200 45 -200 45
758388448.07468 -1.2843283 -8.2117796 -200 45 -200 45 -200 45
759388564.76079 -1.2881162 -8.2107677 -200 45 -200 45 -200 45
760388681.44691 -1.2873544 -8.2025537 -200 45 -200 45 -200 45
761388798.13302 -1.2904793 -8.1991701 -200 45 -200 45 -200 45
762388914.81914 -1.293254 -8.198246 -200 45 -200 45 -200 45
763389031.50525 -1.2967474 -8.2160807 -200 45 -200 45 -200 45
764389148.19137 -1.2946265 -8.2060442 -200 45 -200 45 -200 45
765389264.87748 -1.2919718 -8.2194786 -200 45 -200 45 -200 45
766389381.56359 -1.293254 -8.2068348 -200 45 -200 45 -200 45
767389498.24971 -1.3038415 -8.2225819 -200 45 -200 45 -200 45
768389614.93582 -1.3167716 -8.2398863 -200 45 -200 45 -200 45
769389731.62194 -1.3212718 -8.253231 -200 45 -200 45 -200 45
770389848.30805 -1.3190458 -8.2349319 -200 45 -200 45 -200 45
771389964.99417 -1.3123699 -8.2163401 -200 45 -200 45 -200 45
772390081.68028 -1.3078468 -8.2124224 -200 45 -200 45 -200 45
773390198.36639 -1.3059236 -8.2120657 -200 45 -200 45 -200 45
774390315.05251 -1.318861 -8.2229557 -200 45 -200 45 -200 45
775390431.73862 -1.3213222 -8.22437 -200 45 -200 45 -200 45
776390548.42474 -1.3251885 -8.2316132 -200 45 -200 45 -200 45
777390665.11085 -1.3260776 -8.2226295 -200 45 -200 45 -200 45
778390781.79697 -1.3266689 -8.235549 -200 45 -200 45 -200 45
779390898.48308 -1.3343056 -8.2312622 -200 45 -200 45 -200 45
780391015.16919 -1.3306831 -8.2227497 -200 45 -200 45 -200 45
781391131.85531 -1.3281441 -8.212184 -200 45 -200 45 -200 45
782391248.54142 -1.3269194 -8.2165365 -200 45 -200 45 -200 45
783391365.22754 -1.3377101 -8.2318478 -200 45 -200 45 -200 45
784391481.91365 -1.3488424 -8.2423782 -200 45 -200 45 -200 45
785391598.59977 -1.3563811 -8.2534647 -200 45 -200 45 -200 45
786391715.28588 -1.356483 -8.2525978 -200 45 -200 45 -200 45
787391831.972 -1.3491377 -8.2435217 -200 45 -200 45 -200 45
788391948.65811 -1.3427695 -8.2220812 -200 45 -200 45 -200 45
789392065.34422 -1.3403915 -8.2281008 -200 45 -200 45 -200 45
790392182.03034 -1.3509805 -8.2299843 -200 45 -200 45 -200 45
791392298.71645 -1.355593 -8.2325935 -200 45 -200 45 -200 45
792392415.40257 -1.3580636 -8.2384939 -200 45 -200 45 -200 45
793392532.08868 -1.3599948 -8.2346029 -200 45 -200 45 -200 45
794392648.7748 -1.361995 -8.2298841 -200 45 -200 45 -200 45
795392765.46091 -1.3664341 -8.2451811 -200 45 -200 45 -200 45
796392882.14702 -1.3652319 -8.2368326 -200 45 -200 45 -200 45
797392998.83314 -1.3626287 -8.2354908 -200 45 -200 45 -200 45
798393115.51925 -1.3614562 -8.2255001 -200 45 -200 45 -200 45
799393232.20537 -1.3695955 -8.2404251 -200 45 -200 45 -200 45
800393348.89148 -1.3796564 -8.2522135 -200 45 -200 45 -200 45
801393465.5776 -1.3902023 -8.2774811 -200 45 -200 45 -200 45
802393582.26371 -1.3909557 -8.2715416 -200 45 -200 45 -200 45
803393698.94983 -1.3846406 -8.2477388 -200 45 -200 45 -200 45
804393815.63594 -1.3771061 -8.2429743 -200 45 -200 45 -200 45
805393932.32205 -1.3742883 -8.2324734 -200 45 -200 45 -200 45
806394049.00817 -1.3803002 -8.2382813 -200 45 -200 45 -200 45
807394165.69428 -1.3881702 -8.2543106 -200 45 -200 45 -200 45
808394282.3804 -1.3922417 -8.2604189 -200 45 -200 45 -200 45
809394399.06651 -1.3932345 -8.2391148 -200 45 -200 45 -200 45
810394515.75263 -1.3943036 -8.2619781 -200 45 -200 45 -200 45
811394632.43874 -1.3987347 -8.2530165 -200 45 -200 45 -200 45
812394749.12485 -1.4014958 -8.2561741 -200 45 -200 45 -200 45
813394865.81097 -1.3976264 -8.2490034 -200 45 -200 45 -200 45
814394982.49708 -1.394958 -8.2566633 -200 45 -200 45 -200 45
815395099.1832 -1.4006714 -8.2488413 -200 45 -200 45 -200 45
816395215.86931 -1.4112455 -8.2619419 -200 45 -200 45 -200 45
817395332.55543 -1.4230297 -8.2848911 -200 45 -200 45 -200 45
818395449.24154 -1.4252273 -8.2762594 -200 45 -200 45 -200 45
819395565.92765 -1.4223422 -8.2759275 -200 45 -200 45 -200 45
820395682.61377 -1.4105781 -8.2532282 -200 45 -200 45 -200 45
821395799.29988 -1.4098969 -8.2601442 -200 45 -200 45 -200 45
822395915.986 -1.4122695 -8.2546396 -200 45 -200 45 -200 45
823396032.67211 -1.4208261 -8.2732611 -200 45 -200 45 -200 45
824396149.35823 -1.4257571 -8.266964 -200 45 -200 45 -200 45
825396266.04434 -1.426357 -8.2595272 -200 45 -200 45 -200 45
826396382.73046 -1.4305433 -8.2649708 -200 45 -200 45 -200 45
827396499.41657 -1.4318645 -8.2753258 -200 45 -200 45 -200 45
828396616.10268 -1.4355552 -8.2657804 -200 45 -200 45 -200 45
829396732.7888 -1.4307305 -8.2742996 -200 45 -200 45 -200 45
830396849.47491 -1.4291966 -8.2679462 -200 45 -200 45 -200 45
831396966.16103 -1.4307034 -8.2605362 -200 45 -200 45 -200 45
832397082.84714 -1.4431187 -8.2817898 -200 45 -200 45 -200 45
833397199.53326 -1.4553746 -8.2836599 -200 45 -200 45 -200 45
834397316.21937 -1.4581567 -8.2880087 -200 45 -200 45 -200 45
835397432.90548 -1.4548867 -8.296133 -200 45 -200 45 -200 45
836397549.5916 -1.446476 -8.2682047 -200 45 -200 45 -200 45
837397666.27771 -1.4426651 -8.2748699 -200 45 -200 45 -200 45
838397782.96383 -1.4397976 -8.2603502 -200 45 -200 45 -200 45
839397899.64994 -1.4546356 -8.2838564 -200 45 -200 45 -200 45
840398016.33606 -1.4574977 -8.2909756 -200 45 -200 45 -200 45
841398133.02217 -1.4606515 -8.2848663 -200 45 -200 45 -200 45
842398249.70828 -1.4637736 -8.2884684 -200 45 -200 45 -200 45
843398366.3944 -1.4630868 -8.2836332 -200 45 -200 45 -200 45
844398483.08051 -1.4695466 -8.3019085 -200 45 -200 45 -200 45
845398599.76663 -1.466141 -8.2882023 -200 45 -200 45 -200 45
846398716.45274 -1.4638718 -8.289752 -200 45 -200 45 -200 45
847398833.13886 -1.4636793 -8.2902021 -200 45 -200 45 -200 45
848398949.82497 -1.4758559 -8.2965631 -200 45 -200 45 -200 45
849399066.51109 -1.4873817 -8.3017254 -200 45 -200 45 -200 45
850399183.1972 -1.4931332 -8.3096428 -200 45 -200 45 -200 45
851399299.88331 -1.4911112 -8.3169289 -200 45 -200 45 -200 45
852399416.56943 -1.4821985 -8.3109846 -200 45 -200 45 -200 45
853399533.25554 -1.4783285 -8.2865105 -200 45 -200 45 -200 45
854399649.94166 -1.4743948 -8.2846699 -200 45 -200 45 -200 45
855399766.62777 -1.4867513 -8.3115559 -200 45 -200 45 -200 45
856399883.31389 -1.4925841 -8.304615 -200 45 -200 45 -200 45
857400000 -1.4951072 -8.3010645 -200 45 -200 45 -200 45
858400116.68611 -1.4942807 -8.3112183 -200 45 -200 45 -200 45
859400233.37223 -1.4963057 -8.3036671 -200 45 -200 45 -200 45
860400350.05834 -1.5022103 -8.3129911 -200 45 -200 45 -200 45
861400466.74446 -1.5011225 -8.3149586 -200 45 -200 45 -200 45
862400583.43057 -1.4980202 -8.3083582 -200 45 -200 45 -200 45
863400700.11669 -1.4958955 -8.3072424 -200 45 -200 45 -200 45
864400816.8028 -1.5074906 -8.3194075 -200 45 -200 45 -200 45
865400933.48891 -1.5172855 -8.3162956 -200 45 -200 45 -200 45
866401050.17503 -1.5285224 -8.3380508 -200 45 -200 45 -200 45
867401166.86114 -1.5271177 -8.3355551 -200 45 -200 45 -200 45
868401283.54726 -1.518163 -8.3245087 -200 45 -200 45 -200 45
869401400.23337 -1.5119202 -8.3162775 -200 45 -200 45 -200 45
870401516.91949 -1.5099378 -8.305954 -200 45 -200 45 -200 45
871401633.6056 -1.5173709 -8.3203497 -200 45 -200 45 -200 45
872401750.29172 -1.5281757 -8.3267899 -200 45 -200 45 -200 45
873401866.97783 -1.5304761 -8.3093052 -200 45 -200 45 -200 45
874401983.66394 -1.5285 -8.3279972 -200 45 -200 45 -200 45
875402100.35006 -1.5320203 -8.3217154 -200 45 -200 45 -200 45
876402217.03617 -1.5364259 -8.3161554 -200 45 -200 45 -200 45
877402333.72229 -1.5375345 -8.3099775 -200 45 -200 45 -200 45
878402450.4084 -1.5320451 -8.318531 -200 45 -200 45 -200 45
879402567.09452 -1.5314947 -8.3249655 -200 45 -200 45 -200 45
880402683.78063 -1.5396483 -8.3281879 -200 45 -200 45 -200 45
881402800.46674 -1.5486211 -8.3270016 -200 45 -200 45 -200 45
882402917.15286 -1.5603273 -8.3360977 -200 45 -200 45 -200 45
883403033.83897 -1.5628196 -8.3398132 -200 45 -200 45 -200 45
884403150.52509 -1.5586592 -8.3287144 -200 45 -200 45 -200 45
885403267.2112 -1.5474465 -8.3212109 -200 45 -200 45 -200 45
886403383.89732 -1.5453783 -8.3129787 -200 45 -200 45 -200 45
887403500.58343 -1.5507274 -8.3182287 -200 45 -200 45 -200 45
888403617.26954 -1.560338 -8.3256598 -200 45 -200 45 -200 45
889403733.95566 -1.5644515 -8.3325663 -200 45 -200 45 -200 45
890403850.64177 -1.5640934 -8.3160124 -200 45 -200 45 -200 45
891403967.32789 -1.5662918 -8.3227854 -200 45 -200 45 -200 45
892404084.014 -1.5700437 -8.3329983 -200 45 -200 45 -200 45
893404200.70012 -1.5736002 -8.3232365 -200 45 -200 45 -200 45
894404317.38623 -1.5698245 -8.31882 -200 45 -200 45 -200 45
895404434.07235 -1.5683677 -8.3195753 -200 45 -200 45 -200 45
896404550.75846 -1.5713519 -8.3238401 -200 45 -200 45 -200 45
897404667.44457 -1.5827183 -8.3286505 -200 45 -200 45 -200 45
898404784.13069 -1.5961193 -8.3350964 -200 45 -200 45 -200 45
899404900.8168 -1.5989887 -8.3385839 -200 45 -200 45 -200 45
900405017.50292 -1.5958261 -8.3370209 -200 45 -200 45 -200 45
901405134.18903 -1.5858014 -8.301877 -200 45 -200 45 -200 45
902405250.87515 -1.5826474 -8.2953739 -200 45 -200 45 -200 45
903405367.56126 -1.5835345 -8.3042908 -200 45 -200 45 -200 45
904405484.24737 -1.5956072 -8.3129387 -200 45 -200 45 -200 45
905405600.93349 -1.5994476 -8.3087053 -200 45 -200 45 -200 45
906405717.6196 -1.5994163 -8.3043795 -200 45 -200 45 -200 45
907405834.30572 -1.6022226 -8.3056355 -200 45 -200 45 -200 45
908405950.99183 -1.6052762 -8.304718 -200 45 -200 45 -200 45
909406067.67795 -1.6086007 -8.3032732 -200 45 -200 45 -200 45
910406184.36406 -1.6053212 -8.3102303 -200 45 -200 45 -200 45
911406301.05018 -1.6040015 -8.3016071 -200 45 -200 45 -200 45
912406417.73629 -1.6049129 -8.2971563 -200 45 -200 45 -200 45
913406534.4224 -1.617382 -8.3148823 -200 45 -200 45 -200 45
914406651.10852 -1.6272515 -8.3184366 -200 45 -200 45 -200 45
915406767.79463 -1.6348975 -8.3154545 -200 45 -200 45 -200 45
916406884.48075 -1.6320424 -8.3107319 -200 45 -200 45 -200 45
917407001.16686 -1.6213742 -8.2980251 -200 45 -200 45 -200 45
918407117.85298 -1.6175023 -8.2855425 -200 45 -200 45 -200 45
919407234.53909 -1.6169801 -8.279438 -200 45 -200 45 -200 45
920407351.2252 -1.6272775 -8.2902126 -200 45 -200 45 -200 45
921407467.91132 -1.6325855 -8.3026199 -200 45 -200 45 -200 45
922407584.59743 -1.6358738 -8.303175 -200 45 -200 45 -200 45
923407701.28355 -1.6378764 -8.3016758 -200 45 -200 45 -200 45
924407817.96966 -1.6379489 -8.2992029 -200 45 -200 45 -200 45
925407934.65578 -1.6431664 -8.2959957 -200 45 -200 45 -200 45
926408051.34189 -1.6425112 -8.2924051 -200 45 -200 45 -200 45
927408168.028 -1.6373971 -8.2796144 -200 45 -200 45 -200 45
928408284.71412 -1.6364141 -8.2911844 -200 45 -200 45 -200 45
929408401.40023 -1.6488924 -8.2835922 -200 45 -200 45 -200 45
930408518.08635 -1.6592875 -8.2903223 -200 45 -200 45 -200 45
931408634.77246 -1.6674753 -8.298686 -200 45 -200 45 -200 45
932408751.45858 -1.6679302 -8.3021202 -200 45 -200 45 -200 45
933408868.14469 -1.6583279 -8.2725706 -200 45 -200 45 -200 45
934408984.83081 -1.6536144 -8.2758522 -200 45 -200 45 -200 45
935409101.51692 -1.6485556 -8.2722883 -200 45 -200 45 -200 45
936409218.20303 -1.658917 -8.2803583 -200 45 -200 45 -200 45
937409334.88915 -1.6655468 -8.2780762 -200 45 -200 45 -200 45
938409451.57526 -1.6682317 -8.2763357 -200 45 -200 45 -200 45
939409568.26138 -1.66998 -8.2861538 -200 45 -200 45 -200 45
940409684.94749 -1.6716048 -8.2766094 -200 45 -200 45 -200 45
941409801.63361 -1.6744262 -8.2895241 -200 45 -200 45 -200 45
942409918.31972 -1.6769263 -8.2786999 -200 45 -200 45 -200 45
943410035.00583 -1.6717513 -8.2843094 -200 45 -200 45 -200 45
944410151.69195 -1.6683108 -8.2729979 -200 45 -200 45 -200 45
945410268.37806 -1.6788076 -8.2840586 -200 45 -200 45 -200 45
946410385.06418 -1.6892399 -8.2776651 -200 45 -200 45 -200 45
947410501.75029 -1.7020191 -8.2967739 -200 45 -200 45 -200 45
948410618.43641 -1.700631 -8.2894526 -200 45 -200 45 -200 45
949410735.12252 -1.6921741 -8.2714281 -200 45 -200 45 -200 45
950410851.80863 -1.6856122 -8.2661877 -200 45 -200 45 -200 45
951410968.49475 -1.6818603 -8.2596502 -200 45 -200 45 -200 45
952411085.18086 -1.6896107 -8.2763128 -200 45 -200 45 -200 45
953411201.86698 -1.6975174 -8.279356 -200 45 -200 45 -200 45
954411318.55309 -1.7027515 -8.2781477 -200 45 -200 45 -200 45
955411435.23921 -1.7011518 -8.2768555 -200 45 -200 45 -200 45
956411551.92532 -1.7038792 -8.2695599 -200 45 -200 45 -200 45
957411668.61144 -1.7069031 -8.2731104 -200 45 -200 45 -200 45
958411785.29755 -1.7097193 -8.2753725 -200 45 -200 45 -200 45
959411901.98366 -1.7046776 -8.2748966 -200 45 -200 45 -200 45
960412018.66978 -1.7026354 -8.27106 -200 45 -200 45 -200 45
961412135.35589 -1.7071807 -8.2723408 -200 45 -200 45 -200 45
962412252.04201 -1.7190511 -8.2688398 -200 45 -200 45 -200 45
963412368.72812 -1.7317908 -8.269558 -200 45 -200 45 -200 45
964412485.41424 -1.7339967 -8.2873535 -200 45 -200 45 -200 45
965412602.10035 -1.7282851 -8.2846518 -200 45 -200 45 -200 45
966412718.78646 -1.7191776 -8.2711926 -200 45 -200 45 -200 45
967412835.47258 -1.7158657 -8.2646332 -200 45 -200 45 -200 45
968412952.15869 -1.7185534 -8.276906 -200 45 -200 45 -200 45
969413068.84481 -1.730574 -8.2765312 -200 45 -200 45 -200 45
970413185.53092 -1.7326872 -8.2706795 -200 45 -200 45 -200 45
971413302.21704 -1.7335067 -8.2690411 -200 45 -200 45 -200 45
972413418.90315 -1.736093 -8.2596741 -200 45 -200 45 -200 45
973413535.58926 -1.7374533 -8.2657623 -200 45 -200 45 -200 45
974413652.27538 -1.7424842 -8.2723141 -200 45 -200 45 -200 45
975413768.96149 -1.739017 -8.278677 -200 45 -200 45 -200 45
976413885.64761 -1.7372564 -8.2838078 -200 45 -200 45 -200 45
977414002.33372 -1.7374421 -8.2747049 -200 45 -200 45 -200 45
978414119.01984 -1.7488314 -8.274991 -200 45 -200 45 -200 45
979414235.70595 -1.7625315 -8.28512 -200 45 -200 45 -200 45
980414352.39207 -1.7675763 -8.2788839 -200 45 -200 45 -200 45
981414469.07818 -1.7649957 -8.2785616 -200 45 -200 45 -200 45
982414585.76429 -1.7523645 -8.2800684 -200 45 -200 45 -200 45
983414702.45041 -1.7505962 -8.2672052 -200 45 -200 45 -200 45
984414819.13652 -1.7493557 -8.2668457 -200 45 -200 45 -200 45
985414935.82264 -1.7623889 -8.2790127 -200 45 -200 45 -200 45
986415052.50875 -1.7668134 -8.2690134 -200 45 -200 45 -200 45
987415169.19487 -1.7670541 -8.272748 -200 45 -200 45 -200 45
988415285.88098 -1.7680267 -8.2724857 -200 45 -200 45 -200 45
989415402.56709 -1.7709625 -8.2707739 -200 45 -200 45 -200 45
990415519.25321 -1.7767181 -8.2772331 -200 45 -200 45 -200 45
991415635.93932 -1.773468 -8.2734146 -200 45 -200 45 -200 45
992415752.62544 -1.7708076 -8.2658024 -200 45 -200 45 -200 45
993415869.31155 -1.7705811 -8.2783899 -200 45 -200 45 -200 45
994415985.99767 -1.7825419 -8.2864704 -200 45 -200 45 -200 45
995416102.68378 -1.7948469 -8.2752943 -200 45 -200 45 -200 45
996416219.36989 -1.8001355 -8.282774 -200 45 -200 45 -200 45
997416336.05601 -1.8008714 -8.2813053 -200 45 -200 45 -200 45
998416452.74212 -1.7911425 -8.2676029 -200 45 -200 45 -200 45
999416569.42824 -1.7863952 -8.2647533 -200 45 -200 45 -200 45
1000416686.1144 -1.7833709 -8.2666454 -200 45 -200 45 -200 45
1001416802.8005 -1.7961991 -8.2814341 -200 45 -200 45 -200 45
1002416919.4866 -1.8016293 -8.2707138 -200 45 -200 45 -200 45
1003417036.1727 -1.803188 -8.2704239 -200 45 -200 45 -200 45
1004417152.8588 -1.8031919 -8.271451 -200 45 -200 45 -200 45
1005417269.5449 -1.8053285 -8.2731676 -200 45 -200 45 -200 45
1006417386.231 -1.8119655 -8.2735319 -200 45 -200 45 -200 45
1007417502.9172 -1.8107226 -8.2740726 -200 45 -200 45 -200 45
1008417619.6033 -1.807111 -8.2750597 -200 45 -200 45 -200 45
1009417736.2894 -1.8057494 -8.2798929 -200 45 -200 45 -200 45
1010417852.9755 -1.8160093 -8.2701197 -200 45 -200 45 -200 45
1011417969.6616 -1.8257362 -8.2748137 -200 45 -200 45 -200 45
1012418086.3477 -1.8369541 -8.2705736 -200 45 -200 45 -200 45
1013418203.0338 -1.8370541 -8.2757015 -200 45 -200 45 -200 45
1014418319.72 -1.8288848 -8.2670107 -200 45 -200 45 -200 45
1015418436.4061 -1.8227135 -8.2550364 -200 45 -200 45 -200 45
1016418553.0922 -1.8200494 -8.2646408 -200 45 -200 45 -200 45
1017418669.7783 -1.8297344 -8.2597256 -200 45 -200 45 -200 45
1018418786.4644 -1.8379278 -8.2576065 -200 45 -200 45 -200 45
1019418903.1505 -1.8397894 -8.2647619 -200 45 -200 45 -200 45
1020419019.8366 -1.8403186 -8.2534628 -200 45 -200 45 -200 45
1021419136.5228 -1.8433172 -8.259017 -200 45 -200 45 -200 45
1022419253.2089 -1.8485352 -8.2543144 -200 45 -200 45 -200 45
1023419369.895 -1.8493371 -8.256216 -200 45 -200 45 -200 45
1024419486.5811 -1.8451861 -8.2535934 -200 45 -200 45 -200 45
1025419603.2672 -1.8434327 -8.2545185 -200 45 -200 45 -200 45
1026419719.9533 -1.851491 -8.2513151 -200 45 -200 45 -200 45
1027419836.6394 -1.8620501 -8.2454433 -200 45 -200 45 -200 45
1028419953.3256 -1.8735241 -8.2443514 -200 45 -200 45 -200 45
1029420070.0117 -1.8750027 -8.255435 -200 45 -200 45 -200 45
1030420186.6978 -1.8698623 -8.2483988 -200 45 -200 45 -200 45
1031420303.3839 -1.8612894 -8.2368422 -200 45 -200 45 -200 45
1032420420.07 -1.8592219 -8.2383461 -200 45 -200 45 -200 45
1033420536.7561 -1.8625973 -8.2379951 -200 45 -200 45 -200 45
1034420653.4422 -1.8739042 -8.2348194 -200 45 -200 45 -200 45
1035420770.1284 -1.8779328 -8.2344828 -200 45 -200 45 -200 45
1036420886.8145 -1.8758882 -8.234786 -200 45 -200 45 -200 45
1037421003.5006 -1.8798866 -8.2323084 -200 45 -200 45 -200 45
1038421120.1867 -1.8813919 -8.2297888 -200 45 -200 45 -200 45
1039421236.8728 -1.8872838 -8.2265682 -200 45 -200 45 -200 45
1040421353.5589 -1.8822762 -8.2415915 -200 45 -200 45 -200 45
1041421470.245 -1.8829159 -8.2251883 -200 45 -200 45 -200 45
1042421586.9312 -1.8860444 -8.2266788 -200 45 -200 45 -200 45
1043421703.6173 -1.8965596 -8.2273731 -200 45 -200 45 -200 45
1044421820.3034 -1.9085504 -8.2282 -200 45 -200 45 -200 45
1045421936.9895 -1.9117491 -8.2174416 -200 45 -200 45 -200 45
1046422053.6756 -1.9074365 -8.2261562 -200 45 -200 45 -200 45
1047422170.3617 -1.899334 -8.2088318 -200 45 -200 45 -200 45
1048422287.0478 -1.8969818 -8.2112923 -200 45 -200 45 -200 45
1049422403.734 -1.8959515 -8.1997271 -200 45 -200 45 -200 45
1050422520.4201 -1.9093406 -8.2084694 -200 45 -200 45 -200 45
1051422637.1062 -1.9132578 -8.2151031 -200 45 -200 45 -200 45
1052422753.7923 -1.9135059 -8.2073565 -200 45 -200 45 -200 45
1053422870.4784 -1.9167817 -8.2077808 -200 45 -200 45 -200 45
1054422987.1645 -1.9185554 -8.2058773 -200 45 -200 45 -200 45
1055423103.8506 -1.924644 -8.2052126 -200 45 -200 45 -200 45
1056423220.5368 -1.9208196 -8.2132149 -200 45 -200 45 -200 45
1057423337.2229 -1.9179369 -8.2152634 -200 45 -200 45 -200 45
1058423453.909 -1.9216189 -8.1959658 -200 45 -200 45 -200 45
1059423570.5951 -1.9298403 -8.1855392 -200 45 -200 45 -200 45
1060423687.2812 -1.9434762 -8.1940355 -200 45 -200 45 -200 45
1061423803.9673 -1.9507343 -8.1940041 -200 45 -200 45 -200 45
1062423920.6534 -1.9479314 -8.20051 -200 45 -200 45 -200 45
1063424037.3396 -1.9384313 -8.2007761 -200 45 -200 45 -200 45
1064424154.0257 -1.9352394 -8.1999722 -200 45 -200 45 -200 45
1065424270.7118 -1.9325653 -8.1918526 -200 45 -200 45 -200 45
1066424387.3979 -1.9446751 -8.1894398 -200 45 -200 45 -200 45
1067424504.084 -1.9488019 -8.1963854 -200 45 -200 45 -200 45
1068424620.7701 -1.9510268 -8.1880798 -200 45 -200 45 -200 45
1069424737.4562 -1.9529951 -8.1880407 -200 45 -200 45 -200 45
1070424854.1424 -1.9561205 -8.1850262 -200 45 -200 45 -200 45
1071424970.8285 -1.9614482 -8.1826754 -200 45 -200 45 -200 45
1072425087.5146 -1.9594765 -8.2055359 -200 45 -200 45 -200 45
1073425204.2007 -1.9580009 -8.1946173 -200 45 -200 45 -200 45
1074425320.8868 -1.9565835 -8.1961718 -200 45 -200 45 -200 45
1075425437.5729 -1.9666811 -8.1742907 -200 45 -200 45 -200 45
1076425554.259 -1.9770962 -8.1727591 -200 45 -200 45 -200 45
1077425670.9452 -1.9852902 -8.1729393 -200 45 -200 45 -200 45
1078425787.6313 -1.9865353 -8.1923046 -200 45 -200 45 -200 45
1079425904.3174 -1.9760267 -8.1851149 -200 45 -200 45 -200 45
1080426021.0035 -1.9715596 -8.1836948 -200 45 -200 45 -200 45
1081426137.6896 -1.9681951 -8.1908779 -200 45 -200 45 -200 45
1082426254.3757 -1.9797657 -8.1932888 -200 45 -200 45 -200 45
1083426371.0618 -1.9854729 -8.200923 -200 45 -200 45 -200 45
1084426487.748 -1.9893399 -8.1854706 -200 45 -200 45 -200 45
1085426604.4341 -1.9885329 -8.1855793 -200 45 -200 45 -200 45
1086426721.1202 -1.9914383 -8.1962729 -200 45 -200 45 -200 45
1087426837.8063 -1.9978293 -8.1912107 -200 45 -200 45 -200 45
1088426954.4924 -1.9999166 -8.1939411 -200 45 -200 45 -200 45
1089427071.1785 -1.9953725 -8.202529 -200 45 -200 45 -200 45
1090427187.8646 -1.9924284 -8.2026148 -200 45 -200 45 -200 45
1091427304.5508 -2.0033469 -8.2000685 -200 45 -200 45 -200 45
1092427421.2369 -2.0136659 -8.1945229 -200 45 -200 45 -200 45
1093427537.923 -2.0247147 -8.2019205 -200 45 -200 45 -200 45
1094427654.6091 -2.0276694 -8.2139788 -200 45 -200 45 -200 45
1095427771.2952 -2.0210581 -8.190218 -200 45 -200 45 -200 45
1096427887.9813 -2.0120158 -8.2126474 -200 45 -200 45 -200 45
1097428004.6674 -2.0107758 -8.2109594 -200 45 -200 45 -200 45
1098428121.3536 -2.0174682 -8.228816 -200 45 -200 45 -200 45
1099428238.0397 -2.0276134 -8.2186575 -200 45 -200 45 -200 45
1100428354.7258 -2.0322464 -8.2297602 -200 45 -200 45 -200 45
1101428471.4119 -2.0325327 -8.2322321 -200 45 -200 45 -200 45
1102428588.098 -2.0366869 -8.2290039 -200 45 -200 45 -200 45
1103428704.7841 -2.0403202 -8.2387524 -200 45 -200 45 -200 45
1104428821.4702 -2.045172 -8.2508459 -200 45 -200 45 -200 45
1105428938.1564 -2.0416152 -8.2715511 -200 45 -200 45 -200 45
1106429054.8425 -2.0426853 -8.2792187 -200 45 -200 45 -200 45
1107429171.5286 -2.0500436 -8.2786846 -200 45 -200 45 -200 45
1108429288.2147 -2.0621183 -8.2739286 -200 45 -200 45 -200 45
1109429404.9008 -2.0795043 -8.2896013 -200 45 -200 45 -200 45
1110429521.5869 -2.0843246 -8.2920771 -200 45 -200 45 -200 45
1111429638.273 -2.0837488 -8.2859125 -200 45 -200 45 -200 45
1112429754.9592 -2.0745323 -8.2927952 -200 45 -200 45 -200 45
1113429871.6453 -2.0765979 -8.2960672 -200 45 -200 45 -200 45
1114429988.3314 -2.0827312 -8.2908049 -200 45 -200 45 -200 45
1115430105.0175 -2.1008904 -8.2516851 -200 45 -200 45 -200 45
1116430221.7036 -2.1033835 -8.2260942 -200 45 -200 45 -200 45
1117430338.3897 -2.1008275 -8.1908484 -200 45 -200 45 -200 45
1118430455.0758 -2.1000502 -8.1905346 -200 45 -200 45 -200 45
1119430571.762 -2.0970643 -8.2271452 -200 45 -200 45 -200 45
1120430688.4481 -2.1018765 -8.2648582 -200 45 -200 45 -200 45
1121430805.1342 -2.0998297 -8.3190308 -200 45 -200 45 -200 45
1122430921.8203 -2.101871 -8.3443098 -200 45 -200 45 -200 45
1123431038.5064 -2.1066351 -8.3746033 -200 45 -200 45 -200 45
1124431155.1925 -2.1248739 -8.3989887 -200 45 -200 45 -200 45
1125431271.8786 -2.1412575 -8.4178343 -200 45 -200 45 -200 45
1126431388.5648 -2.1525354 -8.458992 -200 45 -200 45 -200 45
1127431505.2509 -2.1598189 -8.5037594 -200 45 -200 45 -200 45
1128431621.937 -2.1573372 -8.5229445 -200 45 -200 45 -200 45
1129431738.6231 -2.1643696 -8.5673962 -200 45 -200 45 -200 45
1130431855.3092 -2.1751802 -8.5996447 -200 45 -200 45 -200 45
1131431971.9953 -2.1971042 -8.6172466 -200 45 -200 45 -200 45
1132432088.6814 -2.2140281 -8.6669178 -200 45 -200 45 -200 45
1133432205.3676 -2.2335155 -8.7227621 -200 45 -200 45 -200 45
1134432322.0537 -2.2572625 -8.7875357 -200 45 -200 45 -200 45
1135432438.7398 -2.2861485 -8.8519421 -200 45 -200 45 -200 45
1136432555.4259 -2.326081 -8.9063511 -200 45 -200 45 -200 45
1137432672.112 -2.3690066 -8.9606438 -200 45 -200 45 -200 45
1138432788.7981 -2.4304333 -8.9404507 -200 45 -200 45 -200 45
1139432905.4842 -2.5149822 -8.8165302 -200 45 -200 45 -200 45
1140433022.1704 -2.6323159 -8.3296633 -200 45 -200 45 -200 45
1141433138.8565 -2.7027509 -7.3799834 -200 45 -200 45 -200 45
1142433255.5426 -2.685456 -6.3960118 -200 45 -200 45 -200 45
1143433372.2287 -2.6138284 -5.7445345 -200 45 -200 45 -200 45
1144433488.9148 -2.5323739 -5.3816853 -200 45 -200 45 -200 45
1145433605.6009 -2.4817941 -5.1680031 -200 45 -200 45 -200 45
1146433722.287 -2.4480689 -4.7103872 -200 45 -200 45 -200 45
1147433838.9732 -2.3493698 -4.1369238 -200 45 -200 45 -200 45
1148433955.6593 -2.2129292 -4.185729 -200 45 -200 45 -200 45
1149434072.3454 -2.1340718 -4.5954742 -200 45 -200 45 -200 45
1150434189.0315 -2.0995491 -4.8496127 -200 45 -200 45 -200 45
1151434305.7176 -2.0590696 -4.9898624 -200 45 -200 45 -200 45
1152434422.4037 -2.0152037 -5.2653222 -200 45 -200 45 -200 45
1153434539.0898 -1.9933234 -5.6435294 -200 45 -200 45 -200 45
1154434655.776 -1.9898417 -5.9082403 -200 45 -200 45 -200 45
1155434772.4621 -1.983742 -6.0818453 -200 45 -200 45 -200 45
1156434889.1482 -1.9921987 -6.2550054 -200 45 -200 45 -200 45
1157435005.8343 -2.0053852 -6.3946214 -200 45 -200 45 -200 45
1158435122.5204 -2.0205843 -6.4947586 -200 45 -200 45 -200 45
1159435239.2065 -2.0238812 -6.6009192 -200 45 -200 45 -200 45
1160435355.8926 -2.0193548 -6.6959248 -200 45 -200 45 -200 45
1161435472.5788 -2.0156505 -6.7748418 -200 45 -200 45 -200 45
1162435589.2649 -2.0196681 -6.8471003 -200 45 -200 45 -200 45
1163435705.951 -2.035054 -6.8845458 -200 45 -200 45 -200 45
1164435822.6371 -2.0451984 -6.8838558 -200 45 -200 45 -200 45
1165435939.3232 -2.0495975 -6.8988991 -200 45 -200 45 -200 45
1166436056.0093 -2.0449021 -6.9070978 -200 45 -200 45 -200 45
1167436172.6954 -2.0466969 -6.9586058 -200 45 -200 45 -200 45
1168436289.3816 -2.0516624 -6.9984059 -200 45 -200 45 -200 45
1169436406.0677 -2.0548658 -7.0422463 -200 45 -200 45 -200 45
1170436522.7538 -2.0521126 -7.0731387 -200 45 -200 45 -200 45
1171436639.4399 -2.051748 -7.0997891 -200 45 -200 45 -200 45
1172436756.126 -2.0598786 -7.1242356 -200 45 -200 45 -200 45
1173436872.8121 -2.0738161 -7.1381016 -200 45 -200 45 -200 45
1174436989.4982 -2.0844369 -7.1481352 -200 45 -200 45 -200 45
1175437106.1844 -2.0904224 -7.1712933 -200 45 -200 45 -200 45
1176437222.8705 -2.0849652 -7.1951041 -200 45 -200 45 -200 45
1177437339.5566 -2.0766363 -7.1940618 -200 45 -200 45 -200 45
1178437456.2427 -2.0767896 -7.2210555 -200 45 -200 45 -200 45
1179437572.9288 -2.0809498 -7.2387133 -200 45 -200 45 -200 45
1180437689.6149 -2.092258 -7.2389803 -200 45 -200 45 -200 45
1181437806.3011 -2.0969853 -7.2423944 -200 45 -200 45 -200 45
1182437922.9872 -2.0959029 -7.2635646 -200 45 -200 45 -200 45
1183438039.6733 -2.0998671 -7.2725253 -200 45 -200 45 -200 45
1184438156.3594 -2.1048284 -7.2650886 -200 45 -200 45 -200 45
1185438273.0455 -2.1076415 -7.2571735 -200 45 -200 45 -200 45
1186438389.7316 -2.1044784 -7.2900248 -200 45 -200 45 -200 45
1187438506.4177 -2.1050389 -7.3050017 -200 45 -200 45 -200 45
1188438623.1039 -2.1069441 -7.3032317 -200 45 -200 45 -200 45
1189438739.79 -2.1173694 -7.2885275 -200 45 -200 45 -200 45
1190438856.4761 -2.131741 -7.3016882 -200 45 -200 45 -200 45
1191438973.1622 -2.1361821 -7.3076606 -200 45 -200 45 -200 45
1192439089.8483 -2.1334655 -7.3218808 -200 45 -200 45 -200 45
1193439206.5344 -2.1244214 -7.3353338 -200 45 -200 45 -200 45
1194439323.2205 -2.1216881 -7.3281741 -200 45 -200 45 -200 45
1195439439.9067 -2.1226244 -7.3258271 -200 45 -200 45 -200 45
1196439556.5928 -2.1351163 -7.3405366 -200 45 -200 45 -200 45
1197439673.2789 -2.138617 -7.3409004 -200 45 -200 45 -200 45
1198439789.965 -2.1393986 -7.3364158 -200 45 -200 45 -200 45
1199439906.6511 -2.1430595 -7.3287368 -200 45 -200 45 -200 45
1200440023.3372 -2.1434984 -7.3370252 -200 45 -200 45 -200 45
1201440140.0233 -2.1504941 -7.3406172 -200 45 -200 45 -200 45
1202440256.7095 -2.1458619 -7.3378882 -200 45 -200 45 -200 45
1203440373.3956 -2.1448703 -7.3507028 -200 45 -200 45 -200 45
1204440490.0817 -2.1449773 -7.3670421 -200 45 -200 45 -200 45
1205440606.7678 -2.1573198 -7.3506327 -200 45 -200 45 -200 45
1206440723.4539 -2.1686995 -7.3377485 -200 45 -200 45 -200 45
1207440840.14 -2.1761756 -7.3371363 -200 45 -200 45 -200 45
1208440956.8261 -2.1733365 -7.3554835 -200 45 -200 45 -200 45
1209441073.5123 -2.1638536 -7.350327 -200 45 -200 45 -200 45
1210441190.1984 -2.1586745 -7.3562164 -200 45 -200 45 -200 45
1211441306.8845 -2.1580358 -7.3617997 -200 45 -200 45 -200 45
1212441423.5706 -2.170069 -7.3565826 -200 45 -200 45 -200 45
1213441540.2567 -2.1741982 -7.3521037 -200 45 -200 45 -200 45
1214441656.9428 -2.178915 -7.3478708 -200 45 -200 45 -200 45
1215441773.6289 -2.1791482 -7.3483882 -200 45 -200 45 -200 45
1216441890.3151 -2.1795983 -7.3473353 -200 45 -200 45 -200 45
1217442007.0012 -2.1875033 -7.3447251 -200 45 -200 45 -200 45
1218442123.6873 -2.1858075 -7.3470321 -200 45 -200 45 -200 45
1219442240.3734 -2.181401 -7.3500981 -200 45 -200 45 -200 45
1220442357.0595 -2.1802931 -7.3592277 -200 45 -200 45 -200 45
1221442473.7456 -2.1905522 -7.3371449 -200 45 -200 45 -200 45
1222442590.4317 -2.2001617 -7.3320718 -200 45 -200 45 -200 45
1223442707.1179 -2.2109766 -7.3278003 -200 45 -200 45 -200 45
1224442823.804 -2.2097251 -7.3349657 -200 45 -200 45 -200 45
1225442940.4901 -2.2016578 -7.3373113 -200 45 -200 45 -200 45
1226443057.1762 -2.194957 -7.3369246 -200 45 -200 45 -200 45
1227443173.8623 -2.1924076 -7.340425 -200 45 -200 45 -200 45
1228443290.5484 -2.2019579 -7.3408766 -200 45 -200 45 -200 45
1229443407.2345 -2.2086334 -7.3354754 -200 45 -200 45 -200 45
1230443523.9207 -2.2123678 -7.3221755 -200 45 -200 45 -200 45
1231443640.6068 -2.2126565 -7.3303885 -200 45 -200 45 -200 45
1232443757.2929 -2.2142591 -7.3242621 -200 45 -200 45 -200 45
1233443873.979 -2.2170641 -7.317245 -200 45 -200 45 -200 45
1234443990.6651 -2.2197244 -7.3222995 -200 45 -200 45 -200 45
1235444107.3512 -2.2149627 -7.3331518 -200 45 -200 45 -200 45
1236444224.0373 -2.2133231 -7.3325038 -200 45 -200 45 -200 45
1237444340.7235 -2.2188289 -7.3232179 -200 45 -200 45 -200 45
1238444457.4096 -2.2295725 -7.3045588 -200 45 -200 45 -200 45
1239444574.0957 -2.2417035 -7.3090358 -200 45 -200 45 -200 45
1240444690.7818 -2.2456944 -7.3034401 -200 45 -200 45 -200 45
1241444807.4679 -2.2377486 -7.3020377 -200 45 -200 45 -200 45
1242444924.154 -2.2295496 -7.3079424 -200 45 -200 45 -200 45
1243445040.8401 -2.2277043 -7.3040276 -200 45 -200 45 -200 45
1244445157.5263 -2.23067 -7.3037415 -200 45 -200 45 -200 45
1245445274.2124 -2.2414501 -7.304328 -200 45 -200 45 -200 45
1246445390.8985 -2.2438414 -7.3001933 -200 45 -200 45 -200 45
1247445507.5846 -2.2430911 -7.3019571 -200 45 -200 45 -200 45
1248445624.2707 -2.2475204 -7.2805514 -200 45 -200 45 -200 45
1249445740.9568 -2.2486041 -7.2812848 -200 45 -200 45 -200 45
1250445857.6429 -2.2509112 -7.2847733 -200 45 -200 45 -200 45
1251445974.3291 -2.2461603 -7.2839546 -200 45 -200 45 -200 45
1252446091.0152 -2.2467394 -7.2918911 -200 45 -200 45 -200 45
1253446207.7013 -2.2535226 -7.2791519 -200 45 -200 45 -200 45
1254446324.3874 -2.2638259 -7.2708869 -200 45 -200 45 -200 45
1255446441.0735 -2.2735159 -7.2549167 -200 45 -200 45 -200 45
1256446557.7596 -2.2753568 -7.262146 -200 45 -200 45 -200 45
1257446674.4457 -2.2675571 -7.2736015 -200 45 -200 45 -200 45
1258446791.1319 -2.2608485 -7.2637434 -200 45 -200 45 -200 45
1259446907.818 -2.2570148 -7.2572966 -200 45 -200 45 -200 45
1260447024.5041 -2.2638531 -7.2617965 -200 45 -200 45 -200 45
1261447141.1902 -2.2721853 -7.267797 -200 45 -200 45 -200 45
1262447257.8763 -2.2743196 -7.2561455 -200 45 -200 45 -200 45
1263447374.5624 -2.2745647 -7.2284079 -200 45 -200 45 -200 45
1264447491.2485 -2.2791741 -7.2390008 -200 45 -200 45 -200 45
1265447607.9347 -2.2817514 -7.2396054 -200 45 -200 45 -200 45
1266447724.6208 -2.2842429 -7.2268753 -200 45 -200 45 -200 45
1267447841.3069 -2.2796347 -7.2300177 -200 45 -200 45 -200 45
1268447957.993 -2.2764103 -7.2289238 -200 45 -200 45 -200 45
1269448074.6791 -2.2846892 -7.2322936 -200 45 -200 45 -200 45
1270448191.3652 -2.2933266 -7.2104735 -200 45 -200 45 -200 45
1271448308.0513 -2.3055408 -7.2147484 -200 45 -200 45 -200 45
1272448424.7375 -2.3072324 -7.214047 -200 45 -200 45 -200 45
1273448541.4236 -2.299772 -7.2087688 -200 45 -200 45 -200 45
1274448658.1097 -2.2915287 -7.21732 -200 45 -200 45 -200 45
1275448774.7958 -2.2891662 -7.2162862 -200 45 -200 45 -200 45
1276448891.4819 -2.294843 -7.2097931 -200 45 -200 45 -200 45
1277449008.168 -2.3023095 -7.2056274 -200 45 -200 45 -200 45
1278449124.8541 -2.306704 -7.205894 -200 45 -200 45 -200 45
1279449241.5403 -2.3043523 -7.1945457 -200 45 -200 45 -200 45
1280449358.2264 -2.3098352 -7.1832075 -200 45 -200 45 -200 45
1281449474.9125 -2.3116641 -7.1876473 -200 45 -200 45 -200 45
1282449591.5986 -2.3136938 -7.1826806 -200 45 -200 45 -200 45
1283449708.2847 -2.3083911 -7.1829462 -200 45 -200 45 -200 45
1284449824.9708 -2.308233 -7.1869164 -200 45 -200 45 -200 45
1285449941.6569 -2.3133416 -7.1824384 -200 45 -200 45 -200 45
1286450058.3431 -2.3240943 -7.1782746 -200 45 -200 45 -200 45
1287450175.0292 -2.3350241 -7.1606665 -200 45 -200 45 -200 45
1288450291.7153 -2.3385434 -7.1624403 -200 45 -200 45 -200 45
1289450408.4014 -2.332284 -7.1509633 -200 45 -200 45 -200 45
1290450525.0875 -2.3228426 -7.16956 -200 45 -200 45 -200 45
1291450641.7736 -2.3205647 -7.1690974 -200 45 -200 45 -200 45
1292450758.4597 -2.3236992 -7.1673265 -200 45 -200 45 -200 45
1293450875.1459 -2.3340404 -7.1487355 -200 45 -200 45 -200 45
1294450991.832 -2.3376946 -7.1485348 -200 45 -200 45 -200 45
1295451108.5181 -2.3375545 -7.1516099 -200 45 -200 45 -200 45
1296451225.2042 -2.3395846 -7.1375089 -200 45 -200 45 -200 45
1297451341.8903 -2.3416834 -7.131412 -200 45 -200 45 -200 45
1298451458.5764 -2.3434303 -7.1302624 -200 45 -200 45 -200 45
1299451575.2625 -2.3412027 -7.1465788 -200 45 -200 45 -200 45
1300451691.9487 -2.3389874 -7.1349206 -200 45 -200 45 -200 45
1301451808.6348 -2.3417149 -7.1374841 -200 45 -200 45 -200 45
1302451925.3209 -2.3517561 -7.1191468 -200 45 -200 45 -200 45
1303452042.007 -2.3640697 -7.1008883 -200 45 -200 45 -200 45
1304452158.6931 -2.3681221 -7.1073732 -200 45 -200 45 -200 45
1305452275.3792 -2.3624732 -7.1110787 -200 45 -200 45 -200 45
1306452392.0653 -2.3541992 -7.1223111 -200 45 -200 45 -200 45
1307452508.7515 -2.3517714 -7.1092448 -200 45 -200 45 -200 45
1308452625.4376 -2.351589 -7.1157923 -200 45 -200 45 -200 45
1309452742.1237 -2.3646791 -7.1039128 -200 45 -200 45 -200 45
1310452858.8098 -2.3662629 -7.1072464 -200 45 -200 45 -200 45
1311452975.4959 -2.3663852 -7.1077285 -200 45 -200 45 -200 45
1312453092.182 -2.3698814 -7.0991416 -200 45 -200 45 -200 45
1313453208.8681 -2.3715198 -7.0886545 -200 45 -200 45 -200 45
1314453325.5543 -2.3759799 -7.08845 -200 45 -200 45 -200 45
1315453442.2404 -2.3723257 -7.0864091 -200 45 -200 45 -200 45
1316453558.9265 -2.3685238 -7.0954967 -200 45 -200 45 -200 45
1317453675.6126 -2.3699055 -7.0920248 -200 45 -200 45 -200 45
1318453792.2987 -2.381624 -7.0703812 -200 45 -200 45 -200 45
1319453908.9848 -2.3946981 -7.061974 -200 45 -200 45 -200 45
1320454025.6709 -2.3998623 -7.0593204 -200 45 -200 45 -200 45
1321454142.3571 -2.3956397 -7.0656662 -200 45 -200 45 -200 45
1322454259.0432 -2.3861551 -7.0681443 -200 45 -200 45 -200 45
1323454375.7293 -2.3825912 -7.0681934 -200 45 -200 45 -200 45
1324454492.4154 -2.3824017 -7.072876 -200 45 -200 45 -200 45
1325454609.1015 -2.393754 -7.0563636 -200 45 -200 45 -200 45
1326454725.7876 -2.3982472 -7.054378 -200 45 -200 45 -200 45
1327454842.4737 -2.3991647 -7.0590277 -200 45 -200 45 -200 45
1328454959.1599 -2.4026721 -7.0502877 -200 45 -200 45 -200 45
1329455075.846 -2.4031451 -7.0421677 -200 45 -200 45 -200 45
1330455192.5321 -2.4075603 -7.0394058 -200 45 -200 45 -200 45
1331455309.2182 -2.4043272 -7.0443501 -200 45 -200 45 -200 45
1332455425.9043 -2.4030132 -7.0535684 -200 45 -200 45 -200 45
1333455542.5904 -2.4037547 -7.0661554 -200 45 -200 45 -200 45
1334455659.2765 -2.4153345 -7.0369749 -200 45 -200 45 -200 45
1335455775.9627 -2.4271815 -7.0272813 -200 45 -200 45 -200 45
1336455892.6488 -2.4322252 -7.033493 -200 45 -200 45 -200 45
1337456009.3349 -2.4322248 -7.0238509 -200 45 -200 45 -200 45
1338456126.021 -2.4222722 -7.0418487 -200 45 -200 45 -200 45
1339456242.7071 -2.4225667 -7.0559692 -200 45 -200 45 -200 45
1340456359.3932 -2.4229434 -7.048286 -200 45 -200 45 -200 45
1341456476.0793 -2.441642 -7.0395684 -200 45 -200 45 -200 45
1342456592.7655 -2.4495592 -7.0251632 -200 45 -200 45 -200 45
1343456709.4516 -2.456084 -6.9590912 -200 45 -200 45 -200 45
1344456826.1377 -2.4559715 -6.8981733 -200 45 -200 45 -200 45
1345456942.8238 -2.451463 -6.8630195 -200 45 -200 45 -200 45
1346457059.5099 -2.4555304 -6.8564811 -200 45 -200 45 -200 45
1347457176.196 -2.4533718 -6.8445077 -200 45 -200 45 -200 45
1348457292.8821 -2.4482901 -6.833878 -200 45 -200 45 -200 45
1349457409.5683 -2.4460299 -6.7889109 -200 45 -200 45 -200 45
1350457526.2544 -2.4503365 -6.7486825 -200 45 -200 45 -200 45
1351457642.9405 -2.4550457 -6.7357578 -200 45 -200 45 -200 45
1352457759.6266 -2.4559855 -6.7540359 -200 45 -200 45 -200 45
1353457876.3127 -2.4509873 -6.769875 -200 45 -200 45 -200 45
1354457992.9988 -2.4416606 -6.7885852 -200 45 -200 45 -200 45
1355458109.6849 -2.4374425 -6.7813559 -200 45 -200 45 -200 45
1356458226.3711 -2.4327326 -6.7815738 -200 45 -200 45 -200 45
1357458343.0572 -2.441479 -6.7862992 -200 45 -200 45 -200 45
1358458459.7433 -2.4422789 -6.8043904 -200 45 -200 45 -200 45
1359458576.4294 -2.4451525 -6.8241982 -200 45 -200 45 -200 45
1360458693.1155 -2.4487207 -6.818244 -200 45 -200 45 -200 45
1361458809.8016 -2.4484291 -6.8278265 -200 45 -200 45 -200 45
1362458926.4877 -2.4542215 -6.8254762 -200 45 -200 45 -200 45
1363459043.1739 -2.4532752 -6.8328528 -200 45 -200 45 -200 45
1364459159.86 -2.4512472 -6.8426313 -200 45 -200 45 -200 45
1365459276.5461 -2.4492726 -6.8427744 -200 45 -200 45 -200 45
1366459393.2322 -2.4606297 -6.8347392 -200 45 -200 45 -200 45
1367459509.9183 -2.4700251 -6.8175173 -200 45 -200 45 -200 45
1368459626.6044 -2.4768412 -6.7973142 -200 45 -200 45 -200 45
1369459743.2905 -2.4772556 -6.8033581 -200 45 -200 45 -200 45
1370459859.9767 -2.4684677 -6.8179326 -200 45 -200 45 -200 45
1371459976.6628 -2.4634533 -6.8145728 -200 45 -200 45 -200 45
1372460093.3489 -2.4599121 -6.8176947 -200 45 -200 45 -200 45
1373460210.035 -2.4712756 -6.8152084 -200 45 -200 45 -200 45
1374460326.7211 -2.4769304 -6.8051286 -200 45 -200 45 -200 45
1375460443.4072 -2.4791586 -6.7964759 -200 45 -200 45 -200 45
1376460560.0933 -2.4797406 -6.7963824 -200 45 -200 45 -200 45
1377460676.7795 -2.4817107 -6.7925577 -200 45 -200 45 -200 45
1378460793.4656 -2.4880824 -6.7861185 -200 45 -200 45 -200 45
1379460910.1517 -2.4856431 -6.8015943 -200 45 -200 45 -200 45
1380461026.8378 -2.4803188 -6.7919474 -200 45 -200 45 -200 45
1381461143.5239 -2.4819367 -6.7948594 -200 45 -200 45 -200 45
1382461260.21 -2.4903746 -6.7776771 -200 45 -200 45 -200 45
1383461376.8961 -2.498008 -6.7655807 -200 45 -200 45 -200 45
1384461493.5823 -2.5093515 -6.7485318 -200 45 -200 45 -200 45
1385461610.2684 -2.5090353 -6.7559905 -200 45 -200 45 -200 45
1386461726.9545 -2.5014775 -6.7587714 -200 45 -200 45 -200 45
1387461843.6406 -2.4946096 -6.7698383 -200 45 -200 45 -200 45
1388461960.3267 -2.4921708 -6.7625513 -200 45 -200 45 -200 45
1389462077.0128 -2.5012541 -6.7504244 -200 45 -200 45 -200 45
1390462193.6989 -2.5069108 -6.7353926 -200 45 -200 45 -200 45
1391462310.3851 -2.5100627 -6.7322302 -200 45 -200 45 -200 45
1392462427.0712 -2.509362 -6.724824 -200 45 -200 45 -200 45
1393462543.7573 -2.511426 -6.7271061 -200 45 -200 45 -200 45
1394462660.4434 -2.5153854 -6.7196569 -200 45 -200 45 -200 45
1395462777.1295 -2.5164416 -6.7173152 -200 45 -200 45 -200 45
1396462893.8156 -2.5112405 -6.7280788 -200 45 -200 45 -200 45
1397463010.5018 -2.5104892 -6.730094 -200 45 -200 45 -200 45
1398463127.1879 -2.5189455 -6.708539 -200 45 -200 45 -200 45
1399463243.874 -2.5267682 -6.7024102 -200 45 -200 45 -200 45
1400463360.5601 -2.5393248 -6.6725254 -200 45 -200 45 -200 45
1401463477.2462 -2.5370462 -6.6874971 -200 45 -200 45 -200 45
1402463593.9323 -2.5307662 -6.6945086 -200 45 -200 45 -200 45
1403463710.6184 -2.5250044 -6.6958323 -200 45 -200 45 -200 45
1404463827.3046 -2.5230696 -6.7134399 -200 45 -200 45 -200 45
1405463943.9907 -2.5305517 -6.6933041 -200 45 -200 45 -200 45
1406464060.6768 -2.5388446 -6.6675735 -200 45 -200 45 -200 45
1407464177.3629 -2.5411415 -6.6643815 -200 45 -200 45 -200 45
1408464294.049 -2.5387158 -6.6612391 -200 45 -200 45 -200 45
1409464410.7351 -2.5423522 -6.6538053 -200 45 -200 45 -200 45
1410464527.4212 -2.5435753 -6.6394916 -200 45 -200 45 -200 45
1411464644.1074 -2.5457292 -6.6448073 -200 45 -200 45 -200 45
1412464760.7935 -2.5401053 -6.6571569 -200 45 -200 45 -200 45
1413464877.4796 -2.5404618 -6.6528068 -200 45 -200 45 -200 45
1414464994.1657 -2.5450542 -6.6319699 -200 45 -200 45 -200 45
1415465110.8518 -2.5548565 -6.6254525 -200 45 -200 45 -200 45
1416465227.5379 -2.5645635 -6.6162682 -200 45 -200 45 -200 45
1417465344.224 -2.5653143 -6.6059151 -200 45 -200 45 -200 45
1418465460.9102 -2.5598438 -6.6077328 -200 45 -200 45 -200 45
1419465577.5963 -2.5507963 -6.6170888 -200 45 -200 45 -200 45
1420465694.2824 -2.550549 -6.6322727 -200 45 -200 45 -200 45
1421465810.9685 -2.5549805 -6.6122494 -200 45 -200 45 -200 45
1422465927.6546 -2.5645611 -6.5977073 -200 45 -200 45 -200 45
1423466044.3407 -2.5665379 -6.58919 -200 45 -200 45 -200 45
1424466161.0268 -2.566694 -6.5945468 -200 45 -200 45 -200 45
1425466277.713 -2.5675445 -6.5776119 -200 45 -200 45 -200 45
1426466394.3991 -2.5713494 -6.5727425 -200 45 -200 45 -200 45
1427466511.0852 -2.5757561 -6.5693598 -200 45 -200 45 -200 45
1428466627.7713 -2.5694108 -6.589128 -200 45 -200 45 -200 45
1429466744.4574 -2.5674384 -6.5894637 -200 45 -200 45 -200 45
1430466861.1435 -2.5727119 -6.5763798 -200 45 -200 45 -200 45
1431466977.8296 -2.5824625 -6.5507617 -200 45 -200 45 -200 45
1432467094.5158 -2.5920241 -6.5242958 -200 45 -200 45 -200 45
1433467211.2019 -2.5940015 -6.5348592 -200 45 -200 45 -200 45
1434467327.888 -2.5886433 -6.5389719 -200 45 -200 45 -200 45
1435467444.5741 -2.580847 -6.5476861 -200 45 -200 45 -200 45
1436467561.2602 -2.5773649 -6.5471687 -200 45 -200 45 -200 45
1437467677.9463 -2.5802019 -6.5471745 -200 45 -200 45 -200 45
1438467794.6324 -2.5901489 -6.5350122 -200 45 -200 45 -200 45
1439467911.3186 -2.593972 -6.515728 -200 45 -200 45 -200 45
1440468028.0047 -2.5931747 -6.5140824 -200 45 -200 45 -200 45
1441468144.6908 -2.5963225 -6.5132051 -200 45 -200 45 -200 45
1442468261.3769 -2.5987473 -6.5076737 -200 45 -200 45 -200 45
1443468378.063 -2.6004865 -6.4980116 -200 45 -200 45 -200 45
1444468494.7491 -2.5977395 -6.5117297 -200 45 -200 45 -200 45
1445468611.4352 -2.596261 -6.5204339 -200 45 -200 45 -200 45
1446468728.1214 -2.5982509 -6.5065641 -200 45 -200 45 -200 45
1447468844.8075 -2.6075933 -6.4860253 -200 45 -200 45 -200 45
1448468961.4936 -2.6194303 -6.4725475 -200 45 -200 45 -200 45
1449469078.1797 -2.6222796 -6.4809566 -200 45 -200 45 -200 45
1450469194.8658 -2.6163445 -6.4705582 -200 45 -200 45 -200 45
1451469311.5519 -2.6077409 -6.4752855 -200 45 -200 45 -200 45
1452469428.238 -2.6074488 -6.4757671 -200 45 -200 45 -200 45
1453469544.9242 -2.6079209 -6.4711537 -200 45 -200 45 -200 45
1454469661.6103 -2.6197259 -6.4585838 -200 45 -200 45 -200 45
1455469778.2964 -2.6201837 -6.4587708 -200 45 -200 45 -200 45
1456469894.9825 -2.6207094 -6.4549751 -200 45 -200 45 -200 45
1457470011.6686 -2.6238561 -6.4490566 -200 45 -200 45 -200 45
1458470128.3547 -2.6242602 -6.4336133 -200 45 -200 45 -200 45
1459470245.0408 -2.6295128 -6.4271789 -200 45 -200 45 -200 45
1460470361.727 -2.6259012 -6.4496536 -200 45 -200 45 -200 45
1461470478.4131 -2.6228194 -6.4502082 -200 45 -200 45 -200 45
1462470595.0992 -2.6264606 -6.4246531 -200 45 -200 45 -200 45
1463470711.7853 -2.6363199 -6.4060407 -200 45 -200 45 -200 45
1464470828.4714 -2.6484237 -6.3969245 -200 45 -200 45 -200 45
1465470945.1575 -2.6507158 -6.3968825 -200 45 -200 45 -200 45
1466471061.8436 -2.6466253 -6.3931246 -200 45 -200 45 -200 45
1467471178.5298 -2.6370976 -6.3991423 -200 45 -200 45 -200 45
1468471295.2159 -2.6351638 -6.4029627 -200 45 -200 45 -200 45
1469471411.902 -2.6341848 -6.403769 -200 45 -200 45 -200 45
1470471528.5881 -2.6459165 -6.3790579 -200 45 -200 45 -200 45
1471471645.2742 -2.6478031 -6.380785 -200 45 -200 45 -200 45
1472471761.9603 -2.6498089 -6.3638916 -200 45 -200 45 -200 45
1473471878.6464 -2.6509542 -6.3607779 -200 45 -200 45 -200 45
1474471995.3326 -2.651058 -6.3512921 -200 45 -200 45 -200 45
1475472112.0187 -2.6567783 -6.3491879 -200 45 -200 45 -200 45
1476472228.7048 -2.6537113 -6.3615689 -200 45 -200 45 -200 45
1477472345.3909 -2.6509519 -6.363781 -200 45 -200 45 -200 45
1478472462.077 -2.6543741 -6.3437619 -200 45 -200 45 -200 45
1479472578.7631 -2.6617999 -6.3374586 -200 45 -200 45 -200 45
1480472695.4492 -2.6714571 -6.3154297 -200 45 -200 45 -200 45
1481472812.1354 -2.6766729 -6.3069849 -200 45 -200 45 -200 45
1482472928.8215 -2.6749938 -6.312851 -200 45 -200 45 -200 45
1483473045.5076 -2.6656899 -6.3142047 -200 45 -200 45 -200 45
1484473162.1937 -2.6632321 -6.317626 -200 45 -200 45 -200 45
1485473278.8798 -2.6619022 -6.3249393 -200 45 -200 45 -200 45
1486473395.5659 -2.6729321 -6.3058777 -200 45 -200 45 -200 45
1487473512.252 -2.6760588 -6.2902837 -200 45 -200 45 -200 45
1488473628.9382 -2.6769128 -6.2868023 -200 45 -200 45 -200 45
1489473745.6243 -2.6789279 -6.2839794 -200 45 -200 45 -200 45
1490473862.3104 -2.6798384 -6.2777457 -200 45 -200 45 -200 45
1491473978.9965 -2.6836054 -6.2715392 -200 45 -200 45 -200 45
1492474095.6826 -2.6822164 -6.2761002 -200 45 -200 45 -200 45
1493474212.3687 -2.6803076 -6.2852144 -200 45 -200 45 -200 45
1494474329.0548 -2.68068 -6.2802296 -200 45 -200 45 -200 45
1495474445.741 -2.688 -6.2587147 -200 45 -200 45 -200 45
1496474562.4271 -2.7000079 -6.2191448 -200 45 -200 45 -200 45
1497474679.1132 -2.7053814 -6.2203279 -200 45 -200 45 -200 45
1498474795.7993 -2.7034853 -6.2279925 -200 45 -200 45 -200 45
1499474912.4854 -2.6937408 -6.2357869 -200 45 -200 45 -200 45
1500475029.1715 -2.6894419 -6.2348008 -200 45 -200 45 -200 45
1501475145.8576 -2.6888044 -6.2468567 -200 45 -200 45 -200 45
1502475262.5438 -2.7003169 -6.2207193 -200 45 -200 45 -200 45
1503475379.2299 -2.703335 -6.2199001 -200 45 -200 45 -200 45
1504475495.916 -2.7040637 -6.2133565 -200 45 -200 45 -200 45
1505475612.6021 -2.7053254 -6.2024169 -200 45 -200 45 -200 45
1506475729.2882 -2.7061079 -6.1861281 -200 45 -200 45 -200 45
1507475845.9743 -2.7129164 -6.1864362 -200 45 -200 45 -200 45
1508475962.6604 -2.7111168 -6.1965928 -200 45 -200 45 -200 45
1509476079.3466 -2.7068493 -6.2047691 -200 45 -200 45 -200 45
1510476196.0327 -2.7066813 -6.2006354 -200 45 -200 45 -200 45
1511476312.7188 -2.7169535 -6.1778889 -200 45 -200 45 -200 45
1512476429.4049 -2.7266901 -6.1516762 -200 45 -200 45 -200 45
1513476546.091 -2.7314811 -6.1421843 -200 45 -200 45 -200 45
1514476662.7771 -2.7320354 -6.1495433 -200 45 -200 45 -200 45
1515476779.4632 -2.7217324 -6.1490211 -200 45 -200 45 -200 45
1516476896.1494 -2.716795 -6.1562705 -200 45 -200 45 -200 45
1517477012.8355 -2.7155848 -6.1633368 -200 45 -200 45 -200 45
1518477129.5216 -2.7262394 -6.143671 -200 45 -200 45 -200 45
1519477246.2077 -2.7304716 -6.1410961 -200 45 -200 45 -200 45
1520477362.8938 -2.7330287 -6.1239581 -200 45 -200 45 -200 45
1521477479.5799 -2.7324204 -6.1208248 -200 45 -200 45 -200 45
1522477596.266 -2.7351613 -6.1100345 -200 45 -200 45 -200 45
1523477712.9522 -2.7404151 -6.1104465 -200 45 -200 45 -200 45
1524477829.6383 -2.7397015 -6.1161413 -200 45 -200 45 -200 45
1525477946.3244 -2.734585 -6.1177893 -200 45 -200 45 -200 45
1526478063.0105 -2.7372792 -6.1098003 -200 45 -200 45 -200 45
1527478179.6966 -2.7409708 -6.0907578 -200 45 -200 45 -200 45
1528478296.3827 -2.7525303 -6.0696392 -200 45 -200 45 -200 45
1529478413.0688 -2.7595074 -6.0565572 -200 45 -200 45 -200 45
1530478529.755 -2.7591448 -6.0579944 -200 45 -200 45 -200 45
1531478646.4411 -2.7510056 -6.0702109 -200 45 -200 45 -200 45
1532478763.1272 -2.7444527 -6.0832067 -200 45 -200 45 -200 45
1533478879.8133 -2.7440109 -6.0648723 -200 45 -200 45 -200 45
1534478996.4994 -2.7515519 -6.0657082 -200 45 -200 45 -200 45
1535479113.1855 -2.7560334 -6.0475302 -200 45 -200 45 -200 45
1536479229.8716 -2.7610323 -6.0456991 -200 45 -200 45 -200 45
1537479346.5578 -2.7590897 -6.0460658 -200 45 -200 45 -200 45
1538479463.2439 -2.7612758 -6.0337229 -200 45 -200 45 -200 45
1539479579.93 -2.7655385 -6.0296178 -200 45 -200 45 -200 45
1540479696.6161 -2.7675908 -6.0269251 -200 45 -200 45 -200 45
1541479813.3022 -2.7624991 -6.0348597 -200 45 -200 45 -200 45
1542479929.9883 -2.7603183 -6.0322185 -200 45 -200 45 -200 45
1543480046.6744 -2.7688367 -6.0106936 -200 45 -200 45 -200 45
1544480163.3606 -2.7755394 -5.9915338 -200 45 -200 45 -200 45
1545480280.0467 -2.7859597 -5.9795961 -200 45 -200 45 -200 45
1546480396.7328 -2.7874615 -5.9763937 -200 45 -200 45 -200 45
1547480513.4189 -2.7803266 -5.9877243 -200 45 -200 45 -200 45
1548480630.105 -2.7719059 -5.9904909 -200 45 -200 45 -200 45
1549480746.7911 -2.7701049 -5.9836154 -200 45 -200 45 -200 45
1550480863.4772 -2.7759838 -5.9725556 -200 45 -200 45 -200 45
1551480980.1634 -2.7828457 -5.9708056 -200 45 -200 45 -200 45
1552481096.8495 -2.7876077 -5.956111 -200 45 -200 45 -200 45
1553481213.5356 -2.7842281 -5.967402 -200 45 -200 45 -200 45
1554481330.2217 -2.7904549 -5.9460616 -200 45 -200 45 -200 45
1555481446.9078 -2.792361 -5.9412694 -200 45 -200 45 -200 45
1556481563.5939 -2.7929101 -5.923985 -200 45 -200 45 -200 45
1557481680.28 -2.7903748 -5.9426217 -200 45 -200 45 -200 45
1558481796.9662 -2.7872398 -5.945765 -200 45 -200 45 -200 45
1559481913.6523 -2.7947156 -5.9371629 -200 45 -200 45 -200 45
1560482030.3384 -2.8028178 -5.9079828 -200 45 -200 45 -200 45
1561482147.0245 -2.8123784 -5.89328 -200 45 -200 45 -200 45
1562482263.7106 -2.813827 -5.8890738 -200 45 -200 45 -200 45
1563482380.3967 -2.8090022 -5.8957357 -200 45 -200 45 -200 45
1564482497.0828 -2.8004515 -5.9077163 -200 45 -200 45 -200 45
1565482613.769 -2.7984467 -5.9041295 -200 45 -200 45 -200 45
1566482730.4551 -2.8014824 -5.8988056 -200 45 -200 45 -200 45
1567482847.1412 -2.8089192 -5.8908262 -200 45 -200 45 -200 45
1568482963.8273 -2.8136578 -5.8780355 -200 45 -200 45 -200 45
1569483080.5134 -2.8128989 -5.8672304 -200 45 -200 45 -200 45
1570483197.1995 -2.8167188 -5.8652425 -200 45 -200 45 -200 45
1571483313.8856 -2.8189113 -5.8463707 -200 45 -200 45 -200 45
1572483430.5718 -2.8191426 -5.859293 -200 45 -200 45 -200 45
1573483547.2579 -2.8162019 -5.8657641 -200 45 -200 45 -200 45
1574483663.944 -2.8147922 -5.8655977 -200 45 -200 45 -200 45
1575483780.6301 -2.8175943 -5.8522878 -200 45 -200 45 -200 45
1576483897.3162 -2.8275876 -5.8244824 -200 45 -200 45 -200 45
1577484014.0023 -2.8385098 -5.7956662 -200 45 -200 45 -200 45
1578484130.6884 -2.8418434 -5.7959199 -200 45 -200 45 -200 45
1579484247.3746 -2.8355529 -5.810113 -200 45 -200 45 -200 45
1580484364.0607 -2.8276143 -5.8176332 -200 45 -200 45 -200 45
1581484480.7468 -2.8253098 -5.8214693 -200 45 -200 45 -200 45
1582484597.4329 -2.8271735 -5.8089495 -200 45 -200 45 -200 45
1583484714.119 -2.8367298 -5.7987881 -200 45 -200 45 -200 45
1584484830.8051 -2.8403869 -5.7878876 -200 45 -200 45 -200 45
1585484947.4912 -2.8403769 -5.7884259 -200 45 -200 45 -200 45
1586485064.1774 -2.8421283 -5.7788248 -200 45 -200 45 -200 45
1587485180.8635 -2.8439925 -5.7656093 -200 45 -200 45 -200 45
1588485297.5496 -2.8476901 -5.7711186 -200 45 -200 45 -200 45
1589485414.2357 -2.8445897 -5.762723 -200 45 -200 45 -200 45
1590485530.9218 -2.8426528 -5.7680335 -200 45 -200 45 -200 45
1591485647.6079 -2.844697 -5.7664633 -200 45 -200 45 -200 45
1592485764.294 -2.8519814 -5.7385874 -200 45 -200 45 -200 45
1593485880.9802 -2.8629925 -5.7228546 -200 45 -200 45 -200 45
1594485997.6663 -2.867624 -5.7029824 -200 45 -200 45 -200 45
1595486114.3524 -2.8616021 -5.7124872 -200 45 -200 45 -200 45
1596486231.0385 -2.8539636 -5.7306705 -200 45 -200 45 -200 45
1597486347.7246 -2.852963 -5.727386 -200 45 -200 45 -200 45
1598486464.4107 -2.8529265 -5.7291131 -200 45 -200 45 -200 45
1599486581.0968 -2.8642354 -5.7022204 -200 45 -200 45 -200 45
1600486697.783 -2.8651476 -5.693974 -200 45 -200 45 -200 45
1601486814.4691 -2.8654695 -5.6858835 -200 45 -200 45 -200 45
1602486931.1552 -2.8683221 -5.6971569 -200 45 -200 45 -200 45
1603487047.8413 -2.8692758 -5.6746683 -200 45 -200 45 -200 45
1604487164.5274 -2.8747165 -5.6607208 -200 45 -200 45 -200 45
1605487281.2135 -2.8712258 -5.6735821 -200 45 -200 45 -200 45
1606487397.8997 -2.8703089 -5.6876531 -200 45 -200 45 -200 45
1607487514.5858 -2.8706212 -5.6669483 -200 45 -200 45 -200 45
1608487631.2719 -2.8774962 -5.6516623 -200 45 -200 45 -200 45
1609487747.958 -2.8902378 -5.6181111 -200 45 -200 45 -200 45
1610487864.6441 -2.8935676 -5.6166286 -200 45 -200 45 -200 45
1611487981.3302 -2.891098 -5.6226611 -200 45 -200 45 -200 45
1612488098.0163 -2.8804388 -5.6374493 -200 45 -200 45 -200 45
1613488214.7025 -2.8801839 -5.6305094 -200 45 -200 45 -200 45
1614488331.3886 -2.8803558 -5.6371608 -200 45 -200 45 -200 45
1615488448.0747 -2.8881826 -5.6115522 -200 45 -200 45 -200 45
1616488564.7608 -2.8933053 -5.6001077 -200 45 -200 45 -200 45
1617488681.4469 -2.8921676 -5.5840445 -200 45 -200 45 -200 45
1618488798.133 -2.8949406 -5.5902472 -200 45 -200 45 -200 45
1619488914.8191 -2.8959248 -5.5880518 -200 45 -200 45 -200 45
1620489031.5053 -2.9009693 -5.5717549 -200 45 -200 45 -200 45
1621489148.1914 -2.8971579 -5.580152 -200 45 -200 45 -200 45
1622489264.8775 -2.8959596 -5.5880632 -200 45 -200 45 -200 45
1623489381.5636 -2.8967302 -5.5882626 -200 45 -200 45 -200 45
1624489498.2497 -2.9050677 -5.5619669 -200 45 -200 45 -200 45
1625489614.9358 -2.9146202 -5.5325642 -200 45 -200 45 -200 45
1626489731.6219 -2.9197321 -5.5332766 -200 45 -200 45 -200 45
1627489848.3081 -2.9186487 -5.5397992 -200 45 -200 45 -200 45
1628489964.9942 -2.9097712 -5.5328984 -200 45 -200 45 -200 45
1629490081.6803 -2.9046483 -5.5340514 -200 45 -200 45 -200 45
1630490198.3664 -2.9043007 -5.5303912 -200 45 -200 45 -200 45
1631490315.0525 -2.914727 -5.5130987 -200 45 -200 45 -200 45
1632490431.7386 -2.9179249 -5.5112882 -200 45 -200 45 -200 45
1633490548.4247 -2.9187801 -5.5040197 -200 45 -200 45 -200 45
1634490665.1109 -2.9201033 -5.496758 -200 45 -200 45 -200 45
1635490781.797 -2.9223065 -5.489984 -200 45 -200 45 -200 45
1636490898.4831 -2.9279249 -5.4750009 -200 45 -200 45 -200 45
1637491015.1692 -2.9236252 -5.480298 -200 45 -200 45 -200 45
1638491131.8553 -2.9234381 -5.4840198 -200 45 -200 45 -200 45
1639491248.5414 -2.9221225 -5.4909601 -200 45 -200 45 -200 45
1640491365.2275 -2.9304996 -5.4697423 -200 45 -200 45 -200 45
1641491481.9137 -2.9407415 -5.4491372 -200 45 -200 45 -200 45
1642491598.5998 -2.9461589 -5.4263468 -200 45 -200 45 -200 45
1643491715.2859 -2.945178 -5.4325023 -200 45 -200 45 -200 45
1644491831.972 -2.9374974 -5.4486165 -200 45 -200 45 -200 45
1645491948.6581 -2.9325297 -5.4519939 -200 45 -200 45 -200 45
1646492065.3442 -2.9317575 -5.4431419 -200 45 -200 45 -200 45
1647492182.0303 -2.9418836 -5.42799 -200 45 -200 45 -200 45
1648492298.7165 -2.9442768 -5.4157743 -200 45 -200 45 -200 45
1649492415.4026 -2.9456141 -5.4138722 -200 45 -200 45 -200 45
1650492532.0887 -2.9467068 -5.3991137 -200 45 -200 45 -200 45
1651492648.7748 -2.9472492 -5.4074135 -200 45 -200 45 -200 45
1652492765.4609 -2.9536111 -5.3856854 -200 45 -200 45 -200 45
1653492882.147 -2.9507999 -5.3969393 -200 45 -200 45 -200 45
1654492998.8331 -2.9478855 -5.4065394 -200 45 -200 45 -200 45
1655493115.5193 -2.9475064 -5.4128428 -200 45 -200 45 -200 45
1656493232.2054 -2.9564149 -5.3859453 -200 45 -200 45 -200 45
1657493348.8915 -2.9645486 -5.3611712 -200 45 -200 45 -200 45
1658493465.5776 -2.9721141 -5.3504519 -200 45 -200 45 -200 45
1659493582.2637 -2.9723713 -5.3380184 -200 45 -200 45 -200 45
1660493698.9498 -2.9629669 -5.3666282 -200 45 -200 45 -200 45
1661493815.6359 -2.9583144 -5.3517504 -200 45 -200 45 -200 45
1662493932.3221 -2.9560559 -5.360599 -200 45 -200 45 -200 45
1663494049.0082 -2.9669392 -5.3449721 -200 45 -200 45 -200 45
1664494165.6943 -2.9711673 -5.3379874 -200 45 -200 45 -200 45
1665494282.3804 -2.9721224 -5.3265705 -200 45 -200 45 -200 45
1666494399.0665 -2.9723446 -5.3176036 -200 45 -200 45 -200 45
1667494515.7526 -2.9714923 -5.3053918 -200 45 -200 45 -200 45
1668494632.4387 -2.9797926 -5.2895789 -200 45 -200 45 -200 45
1669494749.1249 -2.979429 -5.3006306 -200 45 -200 45 -200 45
1670494865.811 -2.973866 -5.3093309 -200 45 -200 45 -200 45
1671494982.4971 -2.9718437 -5.3133917 -200 45 -200 45 -200 45
1672495099.1832 -2.9815347 -5.2972951 -200 45 -200 45 -200 45
1673495215.8693 -2.9908123 -5.2596092 -200 45 -200 45 -200 45
1674495332.5554 -2.996794 -5.2554274 -200 45 -200 45 -200 45
1675495449.2415 -2.9970624 -5.2526841 -200 45 -200 45 -200 45
1676495565.9277 -2.990098 -5.2576041 -200 45 -200 45 -200 45
1677495682.6138 -2.9850497 -5.2659268 -200 45 -200 45 -200 45
1678495799.2999 -2.9826715 -5.2625403 -200 45 -200 45 -200 45
1679495915.986 -2.9919498 -5.2610321 -200 45 -200 45 -200 45
1680496032.6721 -2.9964657 -5.2364221 -200 45 -200 45 -200 45
1681496149.3582 -2.9982436 -5.2285905 -200 45 -200 45 -200 45
1682496266.0443 -2.9968369 -5.2302532 -200 45 -200 45 -200 45
1683496382.7305 -2.9986653 -5.2196007 -200 45 -200 45 -200 45
1684496499.4166 -3.0041037 -5.2122808 -200 45 -200 45 -200 45
1685496616.1027 -3.005852 -5.2185335 -200 45 -200 45 -200 45
1686496732.7888 -3.0006893 -5.2209382 -200 45 -200 45 -200 45
1687496849.4749 -3.0006521 -5.2259316 -200 45 -200 45 -200 45
1688496966.161 -3.0055695 -5.1979694 -200 45 -200 45 -200 45
1689497082.8471 -3.0143578 -5.1806288 -200 45 -200 45 -200 45
1690497199.5333 -3.0234904 -5.1607089 -200 45 -200 45 -200 45
1691497316.2194 -3.0241783 -5.1524167 -200 45 -200 45 -200 45
1692497432.9055 -3.0169249 -5.1689191 -200 45 -200 45 -200 45
1693497549.5916 -3.0120988 -5.1785741 -200 45 -200 45 -200 45
1694497666.2777 -3.0092967 -5.1698294 -200 45 -200 45 -200 45
1695497782.9638 -3.0158439 -5.1676412 -200 45 -200 45 -200 45
1696497899.6499 -3.0219822 -5.1485906 -200 45 -200 45 -200 45
1697498016.3361 -3.0254037 -5.1449709 -200 45 -200 45 -200 45
1698498133.0222 -3.022017 -5.1292953 -200 45 -200 45 -200 45
1699498249.7083 -3.0254078 -5.1226549 -200 45 -200 45 -200 45
1700498366.3944 -3.0299597 -5.1157269 -200 45 -200 45 -200 45
1701498483.0805 -3.0307682 -5.1188488 -200 45 -200 45 -200 45
1702498599.7666 -3.0264492 -5.1151676 -200 45 -200 45 -200 45
1703498716.4527 -3.0252566 -5.1329021 -200 45 -200 45 -200 45
1704498833.1389 -3.0288613 -5.1195283 -200 45 -200 45 -200 45
1705498949.825 -3.0400012 -5.0913615 -200 45 -200 45 -200 45
1706499066.5111 -3.0491419 -5.0654726 -200 45 -200 45 -200 45
1707499183.1972 -3.0500824 -5.0627351 -200 45 -200 45 -200 45
1708499299.8833 -3.0438893 -5.0806699 -200 45 -200 45 -200 45
1709499416.5694 -3.0387511 -5.0799837 -200 45 -200 45 -200 45
1710499533.2555 -3.0376527 -5.0709305 -200 45 -200 45 -200 45
1711499649.9417 -3.0410707 -5.0663552 -200 45 -200 45 -200 45
1712499766.6278 -3.0480771 -5.0578294 -200 45 -200 45 -200 45
1713499883.3139 -3.0492914 -5.0399499 -200 45 -200 45 -200 45
1714500000 -3.0490551 -5.050808 -200 45 -200 45 -200 45
1715500116.6861 -3.0523882 -5.0208025 -200 45 -200 45 -200 45
1716500233.3722 -3.0559754 -5.0182014 -200 45 -200 45 -200 45
1717500350.0583 -3.0554478 -5.0150509 -200 45 -200 45 -200 45
1718500466.7445 -3.0557554 -5.0183582 -200 45 -200 45 -200 45
1719500583.4306 -3.0529814 -5.026185 -200 45 -200 45 -200 45
1720500700.1167 -3.055886 -5.017199 -200 45 -200 45 -200 45
1721500816.8028 -3.064249 -4.9845061 -200 45 -200 45 -200 45
1722500933.4889 -3.0748506 -4.9662809 -200 45 -200 45 -200 45
1723501050.175 -3.0757103 -4.9631176 -200 45 -200 45 -200 45
1724501166.8611 -3.073102 -4.9758654 -200 45 -200 45 -200 45
1725501283.5473 -3.0639195 -4.988492 -200 45 -200 45 -200 45
1726501400.2334 -3.0631139 -4.9744344 -200 45 -200 45 -200 45
1727501516.9195 -3.065691 -4.9793172 -200 45 -200 45 -200 45
1728501633.6056 -3.0725584 -4.9500117 -200 45 -200 45 -200 45
1729501750.2917 -3.0762939 -4.9532552 -200 45 -200 45 -200 45
1730501866.9778 -3.0758021 -4.9577312 -200 45 -200 45 -200 45
1731501983.6639 -3.0775757 -4.9370794 -200 45 -200 45 -200 45
1732502100.3501 -3.0809922 -4.9297748 -200 45 -200 45 -200 45
1733502217.0362 -3.0838375 -4.9137425 -200 45 -200 45 -200 45
1734502333.7223 -3.0817022 -4.933465 -200 45 -200 45 -200 45
1735502450.4084 -3.0790923 -4.928299 -200 45 -200 45 -200 45
1736502567.0945 -3.0806406 -4.9191051 -200 45 -200 45 -200 45
1737502683.7806 -3.089318 -4.8911295 -200 45 -200 45 -200 45
1738502800.4667 -3.1002603 -4.8754368 -200 45 -200 45 -200 45
1739502917.1529 -3.102097 -4.8653131 -200 45 -200 45 -200 45
1740503033.839 -3.0994852 -4.8812485 -200 45 -200 45 -200 45
1741503150.5251 -3.0907805 -4.881753 -200 45 -200 45 -200 45
1742503267.2112 -3.0908155 -4.8749695 -200 45 -200 45 -200 45
1743503383.8973 -3.0906234 -4.8728032 -200 45 -200 45 -200 45
1744503500.5834 -3.1007919 -4.8508325 -200 45 -200 45 -200 45
1745503617.2695 -3.1023021 -4.8508229 -200 45 -200 45 -200 45
1746503733.9557 -3.1027708 -4.8303475 -200 45 -200 45 -200 45
1747503850.6418 -3.1057315 -4.8440766 -200 45 -200 45 -200 45
1748503967.3279 -3.1069028 -4.838191 -200 45 -200 45 -200 45
1749504084.014 -3.1099114 -4.8185906 -200 45 -200 45 -200 45
1750504200.7001 -3.1067669 -4.8433909 -200 45 -200 45 -200 45
1751504317.3862 -3.1055207 -4.8345599 -200 45 -200 45 -200 45
1752504434.0723 -3.1059856 -4.8196397 -200 45 -200 45 -200 45
1753504550.7585 -3.1156571 -4.7992859 -200 45 -200 45 -200 45
1754504667.4446 -3.1251516 -4.7856731 -200 45 -200 45 -200 45
1755504784.1307 -3.130233 -4.760776 -200 45 -200 45 -200 45
1756504900.8168 -3.1269178 -4.7890902 -200 45 -200 45 -200 45
1757505017.5029 -3.1187549 -4.7701631 -200 45 -200 45 -200 45
1758505134.189 -3.1164703 -4.7870488 -200 45 -200 45 -200 45
1759505250.8751 -3.1168466 -4.781414 -200 45 -200 45 -200 45
1760505367.5613 -3.1266098 -4.7671261 -200 45 -200 45 -200 45
1761505484.2474 -3.129833 -4.7549882 -200 45 -200 45 -200 45
1762505600.9335 -3.1294909 -4.7450204 -200 45 -200 45 -200 45
1763505717.6196 -3.1313026 -4.7575946 -200 45 -200 45 -200 45
1764505834.3057 -3.1314147 -4.7335277 -200 45 -200 45 -200 45
1765505950.9918 -3.1366203 -4.7224407 -200 45 -200 45 -200 45
1766506067.6779 -3.1343067 -4.7220364 -200 45 -200 45 -200 45
1767506184.3641 -3.1330607 -4.7403436 -200 45 -200 45 -200 45
1768506301.0502 -3.1337256 -4.7331829 -200 45 -200 45 -200 45
1769506417.7363 -3.1410468 -4.713829 -200 45 -200 45 -200 45
1770506534.4224 -3.1527314 -4.6863441 -200 45 -200 45 -200 45
1771506651.1085 -3.1544776 -4.6703215 -200 45 -200 45 -200 45
1772506767.7946 -3.152344 -4.6771789 -200 45 -200 45 -200 45
1773506884.4807 -3.1450901 -4.6882558 -200 45 -200 45 -200 45
1774507001.1669 -3.1424284 -4.6935754 -200 45 -200 45 -200 45
1775507117.853 -3.1409419 -4.7005033 -200 45 -200 45 -200 45
1776507234.5391 -3.1516047 -4.6713352 -200 45 -200 45 -200 45
1777507351.2252 -3.1546948 -4.6597719 -200 45 -200 45 -200 45
1778507467.9113 -3.1563876 -4.6484318 -200 45 -200 45 -200 45
1779507584.5974 -3.1570175 -4.6550798 -200 45 -200 45 -200 45
1780507701.2835 -3.158807 -4.6477504 -200 45 -200 45 -200 45
1781507817.9697 -3.1633866 -4.6365705 -200 45 -200 45 -200 45
1782507934.6558 -3.1618567 -4.6450639 -200 45 -200 45 -200 45
1783508051.3419 -3.1585517 -4.6481385 -200 45 -200 45 -200 45
1784508168.028 -3.158746 -4.650404 -200 45 -200 45 -200 45
1785508284.7141 -3.1670303 -4.6153717 -200 45 -200 45 -200 45
1786508401.4002 -3.175149 -4.6049662 -200 45 -200 45 -200 45
1787508518.0863 -3.1822555 -4.5704675 -200 45 -200 45 -200 45
1788508634.7725 -3.1816084 -4.5860786 -200 45 -200 45 -200 45
1789508751.4586 -3.1730566 -4.5986805 -200 45 -200 45 -200 45
1790508868.1447 -3.1710875 -4.5942054 -200 45 -200 45 -200 45
1791508984.8308 -3.1685958 -4.5904365 -200 45 -200 45 -200 45
1792509101.5169 -3.1773686 -4.5855255 -200 45 -200 45 -200 45
1793509218.203 -3.1805637 -4.5669823 -200 45 -200 45 -200 45
1794509334.8891 -3.1831486 -4.5732698 -200 45 -200 45 -200 45
1795509451.5753 -3.1834981 -4.5515599 -200 45 -200 45 -200 45
1796509568.2614 -3.184618 -4.5573454 -200 45 -200 45 -200 45
1797509684.9475 -3.1904347 -4.5411534 -200 45 -200 45 -200 45
1798509801.6336 -3.190485 -4.5481853 -200 45 -200 45 -200 45
1799509918.3197 -3.1860123 -4.5495019 -200 45 -200 45 -200 45
1800510035.0058 -3.1860187 -4.5463066 -200 45 -200 45 -200 45
1801510151.6919 -3.191782 -4.5167699 -200 45 -200 45 -200 45
1802510268.3781 -3.2025151 -4.4974337 -200 45 -200 45 -200 45
1803510385.0642 -3.2088454 -4.4956613 -200 45 -200 45 -200 45
1804510501.7503 -3.2088339 -4.4892626 -200 45 -200 45 -200 45
1805510618.4364 -3.2012331 -4.5019078 -200 45 -200 45 -200 45
1806510735.1225 -3.1980679 -4.5001874 -200 45 -200 45 -200 45
1807510851.8086 -3.1969292 -4.5218287 -200 45 -200 45 -200 45
1808510968.4947 -3.2075996 -4.4871016 -200 45 -200 45 -200 45
1809511085.1809 -3.2089016 -4.4828763 -200 45 -200 45 -200 45
1810511201.867 -3.2100902 -4.4779568 -200 45 -200 45 -200 45
1811511318.5531 -3.2099009 -4.4786391 -200 45 -200 45 -200 45
1812511435.2392 -3.2128508 -4.4638271 -200 45 -200 45 -200 45
1813511551.9253 -3.2185135 -4.4458971 -200 45 -200 45 -200 45
1814511668.6114 -3.2171817 -4.4529033 -200 45 -200 45 -200 45
1815511785.2975 -3.2139053 -4.4598846 -200 45 -200 45 -200 45
1816511901.9837 -3.2157452 -4.4635248 -200 45 -200 45 -200 45
1817512018.6698 -3.2222271 -4.4396825 -200 45 -200 45 -200 45
1818512135.3559 -3.2293398 -4.4152336 -200 45 -200 45 -200 45
1819512252.042 -3.2372572 -4.4069595 -200 45 -200 45 -200 45
1820512368.7281 -3.2398534 -4.4017124 -200 45 -200 45 -200 45
1821512485.4142 -3.2313859 -4.422904 -200 45 -200 45 -200 45
1822512602.1004 -3.2264798 -4.4294443 -200 45 -200 45 -200 45
1823512718.7865 -3.2274334 -4.4377427 -200 45 -200 45 -200 45
1824512835.4726 -3.2326882 -4.4054298 -200 45 -200 45 -200 45
1825512952.1587 -3.2382586 -4.4029994 -200 45 -200 45 -200 45
1826513068.8448 -3.2422056 -4.3882923 -200 45 -200 45 -200 45
1827513185.5309 -3.2440748 -4.3961115 -200 45 -200 45 -200 45
1828513302.217 -3.2445354 -4.3868084 -200 45 -200 45 -200 45
1829513418.9032 -3.2494435 -4.368197 -200 45 -200 45 -200 45
1830513535.5893 -3.2511604 -4.3699107 -200 45 -200 45 -200 45
1831513652.2754 -3.2483513 -4.3863983 -200 45 -200 45 -200 45
1832513768.9615 -3.2488539 -4.3857641 -200 45 -200 45 -200 45
1833513885.6476 -3.2548513 -4.3787265 -200 45 -200 45 -200 45
1834514002.3337 -3.2646885 -4.3501434 -200 45 -200 45 -200 45
1835514119.0198 -3.2750738 -4.3447685 -200 45 -200 45 -200 45
1836514235.706 -3.2781863 -4.3517289 -200 45 -200 45 -200 45
1837514352.3921 -3.2737162 -4.3598304 -200 45 -200 45 -200 45
1838514469.0782 -3.269619 -4.3705735 -200 45 -200 45 -200 45
1839514585.7643 -3.2724402 -4.3862538 -200 45 -200 45 -200 45
1840514702.4504 -3.2790186 -4.3750257 -200 45 -200 45 -200 45
1841514819.1365 -3.2901387 -4.3686204 -200 45 -200 45 -200 45
1842514935.8226 -3.2970419 -4.3613248 -200 45 -200 45 -200 45
1843515052.5088 -3.304749 -4.3791814 -200 45 -200 45 -200 45
1844515169.1949 -3.3158021 -4.3787503 -200 45 -200 45 -200 45
1845515285.881 -3.3325846 -4.350811 -200 45 -200 45 -200 45
1846515402.5671 -3.3521988 -4.2903681 -200 45 -200 45 -200 45
1847515519.2532 -3.3710434 -4.1816869 -200 45 -200 45 -200 45
1848515635.9393 -3.3765264 -3.957468 -200 45 -200 45 -200 45
1849515752.6254 -3.3730974 -3.7029607 -200 45 -200 45 -200 45
1850515869.3116 -3.355695 -3.4803159 -200 45 -200 45 -200 45
1851515985.9977 -3.3295596 -3.3858395 -200 45 -200 45 -200 45
1852516102.6838 -3.3011827 -3.4178255 -200 45 -200 45 -200 45
1853516219.3699 -3.2732685 -3.5142334 -200 45 -200 45 -200 45
1854516336.056 -3.2571137 -3.6330085 -200 45 -200 45 -200 45
1855516452.7421 -3.2529204 -3.7004249 -200 45 -200 45 -200 45
1856516569.4282 -3.2544975 -3.7583966 -200 45 -200 45 -200 45
1857516686.1144 -3.2603474 -3.7640281 -200 45 -200 45 -200 45
1858516802.8005 -3.2586479 -3.7748168 -200 45 -200 45 -200 45
1859516919.4866 -3.2553887 -3.8232279 -200 45 -200 45 -200 45
1860517036.1727 -3.2581713 -3.8514571 -200 45 -200 45 -200 45
1861517152.8588 -3.2622674 -3.8468933 -200 45 -200 45 -200 45
1862517269.5449 -3.2626491 -3.8709505 -200 45 -200 45 -200 45
1863517386.231 -3.2590029 -3.8988557 -200 45 -200 45 -200 45
1864517502.9172 -3.2578373 -3.9513862 -200 45 -200 45 -200 45
1865517619.6033 -3.2640634 -3.939739 -200 45 -200 45 -200 45
1866517736.2894 -3.2742751 -3.9454837 -200 45 -200 45 -200 45
1867517852.9755 -3.2824013 -3.9348788 -200 45 -200 45 -200 45
1868517969.6616 -3.2878294 -3.9392567 -200 45 -200 45 -200 45
1869518086.3477 -3.2850077 -3.9529054 -200 45 -200 45 -200 45
1870518203.0338 -3.2777743 -3.9745729 -200 45 -200 45 -200 45
1871518319.72 -3.2778194 -3.98383 -200 45 -200 45 -200 45
1872518436.4061 -3.2819238 -3.9801266 -200 45 -200 45 -200 45
1873518553.0922 -3.2890787 -3.9728956 -200 45 -200 45 -200 45
1874518669.7783 -3.2921455 -3.9541101 -200 45 -200 45 -200 45
1875518786.4644 -3.2931905 -3.9583325 -200 45 -200 45 -200 45
1876518903.1505 -3.2975643 -3.954237 -200 45 -200 45 -200 45
1877519019.8366 -3.2987485 -3.9673953 -200 45 -200 45 -200 45
1878519136.5228 -3.3013055 -3.9403169 -200 45 -200 45 -200 45
1879519253.2089 -3.3000691 -3.957454 -200 45 -200 45 -200 45
1880519369.895 -3.2978156 -3.9650748 -200 45 -200 45 -200 45
1881519486.5811 -3.3010061 -3.9636254 -200 45 -200 45 -200 45
1882519603.2672 -3.3098965 -3.9343729 -200 45 -200 45 -200 45
1883519719.9533 -3.3211296 -3.914953 -200 45 -200 45 -200 45
1884519836.6394 -3.3237684 -3.9033883 -200 45 -200 45 -200 45
1885519953.3256 -3.3219266 -3.9167345 -200 45 -200 45 -200 45
1886520070.0117 -3.3127961 -3.9251523 -200 45 -200 45 -200 45
1887520186.6978 -3.3110929 -3.9344096 -200 45 -200 45 -200 45
1888520303.3839 -3.3119984 -3.9233077 -200 45 -200 45 -200 45
1889520420.07 -3.3238299 -3.9033208 -200 45 -200 45 -200 45
1890520536.7561 -3.3241026 -3.902771 -200 45 -200 45 -200 45
1891520653.4422 -3.3261266 -3.8963847 -200 45 -200 45 -200 45
1892520770.1284 -3.3277507 -3.8857522 -200 45 -200 45 -200 45
1893520886.8145 -3.3307385 -3.8774173 -200 45 -200 45 -200 45
1894521003.5006 -3.3329105 -3.8688633 -200 45 -200 45 -200 45
1895521120.1867 -3.3307614 -3.8766565 -200 45 -200 45 -200 45
1896521236.8728 -3.3290591 -3.8769329 -200 45 -200 45 -200 45
1897521353.5589 -3.3304055 -3.8897946 -200 45 -200 45 -200 45
1898521470.245 -3.3390403 -3.8584747 -200 45 -200 45 -200 45
1899521586.9312 -3.3501482 -3.8335872 -200 45 -200 45 -200 45
1900521703.6173 -3.3527977 -3.8172865 -200 45 -200 45 -200 45
1901521820.3034 -3.3513818 -3.8257427 -200 45 -200 45 -200 45
1902521936.9895 -3.3429143 -3.8481505 -200 45 -200 45 -200 45
1903522053.6756 -3.3414576 -3.8363252 -200 45 -200 45 -200 45
1904522170.3617 -3.3424056 -3.8456562 -200 45 -200 45 -200 45
1905522287.0478 -3.3512318 -3.8084836 -200 45 -200 45 -200 45
1906522403.734 -3.3532357 -3.8097374 -200 45 -200 45 -200 45
1907522520.4201 -3.3539135 -3.8019276 -200 45 -200 45 -200 45
1908522637.1062 -3.3561656 -3.7926316 -200 45 -200 45 -200 45
1909522753.7923 -3.3577096 -3.7913492 -200 45 -200 45 -200 45
1910522870.4784 -3.3640044 -3.783556 -200 45 -200 45 -200 45
1911522987.1645 -3.3622205 -3.7871654 -200 45 -200 45 -200 45
1912523103.8506 -3.3581657 -3.8056695 -200 45 -200 45 -200 45
1913523220.5368 -3.357933 -3.7986026 -200 45 -200 45 -200 45
1914523337.2229 -3.3669128 -3.7707369 -200 45 -200 45 -200 45
1915523453.909 -3.3759892 -3.7371991 -200 45 -200 45 -200 45
1916523570.5951 -3.3832543 -3.7197275 -200 45 -200 45 -200 45
1917523687.2812 -3.3812401 -3.7339628 -200 45 -200 45 -200 45
1918523803.9673 -3.3725119 -3.7558136 -200 45 -200 45 -200 45
1919523920.6534 -3.370626 -3.7498763 -200 45 -200 45 -200 45
1920524037.3396 -3.3700626 -3.7568166 -200 45 -200 45 -200 45
1921524154.0257 -3.3798633 -3.7347715 -200 45 -200 45 -200 45
1922524270.7118 -3.3854308 -3.7264359 -200 45 -200 45 -200 45
1923524387.3979 -3.3840623 -3.7258606 -200 45 -200 45 -200 45
1924524504.084 -3.387857 -3.7118487 -200 45 -200 45 -200 45
1925524620.7701 -3.3893347 -3.6917403 -200 45 -200 45 -200 45
1926524737.4562 -3.398329 -3.6838014 -200 45 -200 45 -200 45
1927524854.1424 -3.3969996 -3.6696613 -200 45 -200 45 -200 45
1928524970.8285 -3.3930593 -3.670311 -200 45 -200 45 -200 45
1929525087.5146 -3.3928227 -3.6564445 -200 45 -200 45 -200 45
1930525204.2007 -3.3984263 -3.6332939 -200 45 -200 45 -200 45
1931525320.8868 -3.408525 -3.5873649 -200 45 -200 45 -200 45
1932525437.5729 -3.411257 -3.5716662 -200 45 -200 45 -200 45
1933525554.259 -3.4096565 -3.5699205 -200 45 -200 45 -200 45
1934525670.9452 -3.4020643 -3.5806899 -200 45 -200 45 -200 45
1935525787.6313 -3.3968654 -3.5823424 -200 45 -200 45 -200 45
1936525904.3174 -3.3970602 -3.5951397 -200 45 -200 45 -200 45
1937526021.0035 -3.4045069 -3.5895381 -200 45 -200 45 -200 45
1938526137.6896 -3.4065804 -3.5602124 -200 45 -200 45 -200 45
1939526254.3757 -3.4075119 -3.5613518 -200 45 -200 45 -200 45
1940526371.0618 -3.4074392 -3.5592797 -200 45 -200 45 -200 45
1941526487.748 -3.4081223 -3.5644374 -200 45 -200 45 -200 45
1942526604.4341 -3.4130492 -3.5414069 -200 45 -200 45 -200 45
1943526721.1202 -3.4143662 -3.5501404 -200 45 -200 45 -200 45
1944526837.8063 -3.410296 -3.5734787 -200 45 -200 45 -200 45
1945526954.4924 -3.4101779 -3.5838375 -200 45 -200 45 -200 45
1946527071.1785 -3.4155498 -3.561106 -200 45 -200 45 -200 45
1947527187.8646 -3.4263401 -3.5344214 -200 45 -200 45 -200 45
1948527304.5508 -3.432996 -3.4992013 -200 45 -200 45 -200 45
1949527421.2369 -3.4326072 -3.5043352 -200 45 -200 45 -200 45
1950527537.923 -3.4265316 -3.5347507 -200 45 -200 45 -200 45
1951527654.6091 -3.4247286 -3.5304508 -200 45 -200 45 -200 45
1952527771.2952 -3.4213822 -3.5342057 -200 45 -200 45 -200 45
1953527887.9813 -3.4291036 -3.5287459 -200 45 -200 45 -200 45
1954528004.6674 -3.433744 -3.4996123 -200 45 -200 45 -200 45
1955528121.3536 -3.4364622 -3.5010343 -200 45 -200 45 -200 45
1956528238.0397 -3.4377043 -3.4971874 -200 45 -200 45 -200 45
1957528354.7258 -3.4393406 -3.4886148 -200 45 -200 45 -200 45
1958528471.4119 -3.4421904 -3.4742665 -200 45 -200 45 -200 45
1959528588.098 -3.4421773 -3.4797075 -200 45 -200 45 -200 45
1960528704.7841 -3.4414277 -3.4962618 -200 45 -200 45 -200 45
1961528821.4702 -3.4405942 -3.4893987 -200 45 -200 45 -200 45
1962528938.1564 -3.4449368 -3.4727809 -200 45 -200 45 -200 45
1963529054.8425 -3.4542773 -3.444809 -200 45 -200 45 -200 45
1964529171.5286 -3.4614325 -3.4302797 -200 45 -200 45 -200 45
1965529288.2147 -3.4627762 -3.4182825 -200 45 -200 45 -200 45
1966529404.9008 -3.4573922 -3.4390156 -200 45 -200 45 -200 45
1967529521.5869 -3.4534359 -3.4281759 -200 45 -200 45 -200 45
1968529638.273 -3.4506083 -3.4445605 -200 45 -200 45 -200 45
1969529754.9592 -3.4592524 -3.434562 -200 45 -200 45 -200 45
1970529871.6453 -3.4625063 -3.4185445 -200 45 -200 45 -200 45
1971529988.3314 -3.4657848 -3.4123797 -200 45 -200 45 -200 45
1972530105.0175 -3.4645491 -3.4148524 -200 45 -200 45 -200 45
1973530221.7036 -3.4677219 -3.4084339 -200 45 -200 45 -200 45
1974530338.3897 -3.4728868 -3.3941524 -200 45 -200 45 -200 45
1975530455.0758 -3.47188 -3.3902316 -200 45 -200 45 -200 45
1976530571.762 -3.4690526 -3.4041417 -200 45 -200 45 -200 45
1977530688.4481 -3.4691396 -3.397841 -200 45 -200 45 -200 45
1978530805.1342 -3.4742301 -3.3868082 -200 45 -200 45 -200 45
1979530921.8203 -3.4828396 -3.3580611 -200 45 -200 45 -200 45
1980531038.5064 -3.4912238 -3.3355901 -200 45 -200 45 -200 45
1981531155.1925 -3.4931588 -3.3319201 -200 45 -200 45 -200 45
1982531271.8786 -3.4887996 -3.3457484 -200 45 -200 45 -200 45
1983531388.5648 -3.4823699 -3.3534224 -200 45 -200 45 -200 45
1984531505.2509 -3.4796755 -3.3598547 -200 45 -200 45 -200 45
1985531621.937 -3.4879732 -3.3482182 -200 45 -200 45 -200 45
1986531738.6231 -3.4923356 -3.3333864 -200 45 -200 45 -200 45
1987531855.3092 -3.4948575 -3.331202 -200 45 -200 45 -200 45
1988531971.9953 -3.4937513 -3.3123488 -200 45 -200 45 -200 45
1989532088.6814 -3.4967988 -3.3008392 -200 45 -200 45 -200 45
1990532205.3676 -3.501138 -3.2912173 -200 45 -200 45 -200 45
1991532322.0537 -3.5047984 -3.2967618 -200 45 -200 45 -200 45
1992532438.7398 -3.5005655 -3.3043871 -200 45 -200 45 -200 45
1993532555.4259 -3.4995301 -3.3191686 -200 45 -200 45 -200 45
1994532672.112 -3.5055609 -3.2901855 -200 45 -200 45 -200 45
1995532788.7981 -3.5118427 -3.2653122 -200 45 -200 45 -200 45
1996532905.4842 -3.5205004 -3.2342653 -200 45 -200 45 -200 45
1997533022.1704 -3.5242894 -3.2250061 -200 45 -200 45 -200 45
1998533138.8565 -3.520694 -3.2302465 -200 45 -200 45 -200 45
1999533255.5426 -3.5131745 -3.2484779 -200 45 -200 45 -200 45
2000533372.2287 -3.5115805 -3.2467871 -200 45 -200 45 -200 45
2001533488.9148 -3.5163217 -3.2443547 -200 45 -200 45 -200 45
2002533605.6009 -3.5215247 -3.2216969 -200 45 -200 45 -200 45
2003533722.287 -3.5237782 -3.2176156 -200 45 -200 45 -200 45
2004533838.9732 -3.524209 -3.2139547 -200 45 -200 45 -200 45
2005533955.6593 -3.5271177 -3.212862 -200 45 -200 45 -200 45
2006534072.3454 -3.5291805 -3.1961668 -200 45 -200 45 -200 45
2007534189.0315 -3.5315793 -3.1876538 -200 45 -200 45 -200 45
2008534305.7176 -3.5282197 -3.2090111 -200 45 -200 45 -200 45
2009534422.4037 -3.528435 -3.2138479 -200 45 -200 45 -200 45
2010534539.0898 -3.5318518 -3.1968942 -200 45 -200 45 -200 45
2011534655.776 -3.5409458 -3.1682847 -200 45 -200 45 -200 45
2012534772.4621 -3.5482726 -3.1496484 -200 45 -200 45 -200 45
2013534889.1482 -3.5502825 -3.1419704 -200 45 -200 45 -200 45
2014535005.8343 -3.5481794 -3.1488841 -200 45 -200 45 -200 45
2015535122.5204 -3.5422955 -3.1655376 -200 45 -200 45 -200 45
2016535239.2065 -3.5402122 -3.1635542 -200 45 -200 45 -200 45
2017535355.8926 -3.5441709 -3.1613908 -200 45 -200 45 -200 45
2018535472.5788 -3.5522158 -3.152904 -200 45 -200 45 -200 45
2019535589.2649 -3.5525746 -3.1445909 -200 45 -200 45 -200 45
2020535705.951 -3.5547011 -3.1256905 -200 45 -200 45 -200 45
2021535822.6371 -3.5584726 -3.1267114 -200 45 -200 45 -200 45
2022535939.3232 -3.5605779 -3.1226208 -200 45 -200 45 -200 45
2023536056.0093 -3.5636661 -3.1015739 -200 45 -200 45 -200 45
2024536172.6954 -3.5617149 -3.1278868 -200 45 -200 45 -200 45
2025536289.3816 -3.5614216 -3.1258447 -200 45 -200 45 -200 45
2026536406.0677 -3.5627077 -3.1190608 -200 45 -200 45 -200 45
2027536522.7538 -3.5700145 -3.0981586 -200 45 -200 45 -200 45
2028536639.4399 -3.5808845 -3.0676804 -200 45 -200 45 -200 45
2029536756.126 -3.582835 -3.0686584 -200 45 -200 45 -200 45
2030536872.8121 -3.5825498 -3.0773335 -200 45 -200 45 -200 45
2031536989.4982 -3.5753405 -3.0927706 -200 45 -200 45 -200 45
2032537106.1844 -3.5749524 -3.0926993 -200 45 -200 45 -200 45
2033537222.8705 -3.5752497 -3.0956802 -200 45 -200 45 -200 45
2034537339.5566 -3.5839229 -3.063241 -200 45 -200 45 -200 45
2035537456.2427 -3.5862038 -3.0616531 -200 45 -200 45 -200 45
2036537572.9288 -3.5862973 -3.0557506 -200 45 -200 45 -200 45
2037537689.6149 -3.5896873 -3.0443914 -200 45 -200 45 -200 45
2038537806.3011 -3.5927491 -3.0407076 -200 45 -200 45 -200 45
2039537922.9872 -3.5981314 -3.0240884 -200 45 -200 45 -200 45
2040538039.6733 -3.5978568 -3.0424955 -200 45 -200 45 -200 45
2041538156.3594 -3.5946314 -3.0476449 -200 45 -200 45 -200 45
2042538273.0455 -3.5960441 -3.0490801 -200 45 -200 45 -200 45
2043538389.7316 -3.6066284 -3.0245824 -200 45 -200 45 -200 45
2044538506.4177 -3.6147833 -2.9940093 -200 45 -200 45 -200 45
2045538623.1039 -3.6187775 -2.9790299 -200 45 -200 45 -200 45
2046538739.79 -3.6182914 -2.9855385 -200 45 -200 45 -200 45
2047538856.4761 -3.610992 -3.0148091 -200 45 -200 45 -200 45
2048538973.1622 -3.6082857 -3.0049772 -200 45 -200 45 -200 45
2049539089.8483 -3.6108088 -3.0062294 -200 45 -200 45 -200 45
2050539206.5344 -3.6200869 -2.987426 -200 45 -200 45 -200 45
2051539323.2205 -3.6221406 -2.9922943 -200 45 -200 45 -200 45
2052539439.9067 -3.6240363 -2.9840255 -200 45 -200 45 -200 45
2053539556.5928 -3.625901 -2.9671719 -200 45 -200 45 -200 45
2054539673.2789 -3.6291411 -2.9708142 -200 45 -200 45 -200 45
2055539789.965 -3.63344 -2.9603102 -200 45 -200 45 -200 45
2056539906.6511 -3.6335676 -2.9642043 -200 45 -200 45 -200 45
2057540023.3372 -3.632571 -2.9843926 -200 45 -200 45 -200 45
2058540140.0233 -3.6338983 -2.9720361 -200 45 -200 45 -200 45
2059540256.7095 -3.6420889 -2.9514172 -200 45 -200 45 -200 45
2060540373.3956 -3.6499546 -2.9256186 -200 45 -200 45 -200 45
2061540490.0817 -3.6566405 -2.9135706 -200 45 -200 45 -200 45
2062540606.7678 -3.6580222 -2.9180348 -200 45 -200 45 -200 45
2063540723.4539 -3.6527584 -2.940836 -200 45 -200 45 -200 45
2064540840.14 -3.6500158 -2.9345291 -200 45 -200 45 -200 45
2065540956.8261 -3.6501069 -2.9565489 -200 45 -200 45 -200 45
2066541073.5123 -3.6596122 -2.9342608 -200 45 -200 45 -200 45
2067541190.1984 -3.6616518 -2.9370539 -200 45 -200 45 -200 45
2068541306.8845 -3.6650229 -2.9347272 -200 45 -200 45 -200 45
2069541423.5706 -3.668788 -2.9151256 -200 45 -200 45 -200 45
2070541540.2567 -3.6721699 -2.9172275 -200 45 -200 45 -200 45
2071541656.9428 -3.6788461 -2.9124842 -200 45 -200 45 -200 45
2072541773.6289 -3.6786633 -2.9174547 -200 45 -200 45 -200 45
2073541890.3151 -3.6781816 -2.935334 -200 45 -200 45 -200 45
2074542007.0012 -3.6790736 -2.9445138 -200 45 -200 45 -200 45
2075542123.6873 -3.6873207 -2.9242551 -200 45 -200 45 -200 45
2076542240.3734 -3.6978886 -2.8819973 -200 45 -200 45 -200 45
2077542357.0595 -3.7039886 -2.8828087 -200 45 -200 45 -200 45
2078542473.7456 -3.7067742 -2.8904388 -200 45 -200 45 -200 45
2079542590.4317 -3.7009542 -2.9053783 -200 45 -200 45 -200 45
2080542707.1179 -3.6997359 -2.9218481 -200 45 -200 45 -200 45
2081542823.804 -3.7012448 -2.9311576 -200 45 -200 45 -200 45
2082542940.4901 -3.7108641 -2.915874 -200 45 -200 45 -200 45
2083543057.1762 -3.7149644 -2.9136751 -200 45 -200 45 -200 45
2084543173.8623 -3.7185454 -2.9059517 -200 45 -200 45 -200 45
2085543290.5484 -3.7214348 -2.9086146 -200 45 -200 45 -200 45
2086543407.2345 -3.7248902 -2.9033191 -200 45 -200 45 -200 45
2087543523.9207 -3.7342026 -2.8893068 -200 45 -200 45 -200 45
2088543640.6068 -3.7343869 -2.9022343 -200 45 -200 45 -200 45
2089543757.2929 -3.7348962 -2.9211328 -200 45 -200 45 -200 45
2090543873.979 -3.7345929 -2.9433761 -200 45 -200 45 -200 45
2091543990.6651 -3.7437732 -2.9248786 -200 45 -200 45 -200 45
2092544107.3512 -3.7543027 -2.9033175 -200 45 -200 45 -200 45
2093544224.0373 -3.7643008 -2.9009917 -200 45 -200 45 -200 45
2094544340.7235 -3.7694392 -2.905726 -200 45 -200 45 -200 45
2095544457.4096 -3.7661898 -2.9144905 -200 45 -200 45 -200 45
2096544574.0957 -3.7658908 -2.9413586 -200 45 -200 45 -200 45
2097544690.7818 -3.766335 -2.9548438 -200 45 -200 45 -200 45
2098544807.4679 -3.7766488 -2.9513323 -200 45 -200 45 -200 45
2099544924.154 -3.7841406 -2.9503522 -200 45 -200 45 -200 45
2100545040.8401 -3.793148 -2.9624209 -200 45 -200 45 -200 45
2101545157.5263 -3.7957122 -2.9720392 -200 45 -200 45 -200 45
2102545274.2124 -3.8019435 -2.9618423 -200 45 -200 45 -200 45
2103545390.8985 -3.8113048 -2.9608283 -200 45 -200 45 -200 45
2104545507.5846 -3.8166976 -2.9883146 -200 45 -200 45 -200 45
2105545624.2707 -3.8203044 -3.0013614 -200 45 -200 45 -200 45
2106545740.9568 -3.8247116 -3.0445457 -200 45 -200 45 -200 45
2107545857.6429 -3.8359663 -3.0244 -200 45 -200 45 -200 45
2108545974.3291 -3.8494775 -3.0276012 -200 45 -200 45 -200 45
2109546091.0152 -3.8640623 -3.0339439 -200 45 -200 45 -200 45
2110546207.7013 -3.8729448 -3.0633116 -200 45 -200 45 -200 45
2111546324.3874 -3.8770862 -3.078382 -200 45 -200 45 -200 45
2112546441.0735 -3.8824828 -3.1271946 -200 45 -200 45 -200 45
2113546557.7596 -3.8906553 -3.1535349 -200 45 -200 45 -200 45
2114546674.4457 -3.9069629 -3.1812909 -200 45 -200 45 -200 45
2115546791.1319 -3.9232273 -3.1956668 -200 45 -200 45 -200 45
2116546907.818 -3.940949 -3.2285271 -200 45 -200 45 -200 45
2117547024.5041 -3.9541526 -3.2683794 -200 45 -200 45 -200 45
2118547141.1902 -3.9754598 -3.303122 -200 45 -200 45 -200 45
2119547257.8763 -3.9980328 -3.337168 -200 45 -200 45 -200 45
2120547374.5624 -4.0227475 -3.3778749 -200 45 -200 45 -200 45
2121547491.2485 -4.0478778 -3.4533858 -200 45 -200 45 -200 45
2122547607.9347 -4.0795188 -3.5272801 -200 45 -200 45 -200 45
2123547724.6208 -4.1254025 -3.5941887 -200 45 -200 45 -200 45
2124547841.3069 -4.1808701 -3.6364329 -200 45 -200 45 -200 45
2125547957.993 -4.2557755 -3.6622872 -200 45 -200 45 -200 45
2126548074.6791 -4.349422 -3.6498854 -200 45 -200 45 -200 45
2127548191.3652 -4.4637942 -3.4566503 -200 45 -200 45 -200 45
2128548308.0513 -4.5960898 -2.8580074 -200 45 -200 45 -200 45
2129548424.7375 -4.6957664 -1.6912727 -200 45 -200 45 -200 45
2130548541.4236 -4.6993051 -0.36832428 -200 45 -200 45 -200 45
2131548658.1097 -4.640707 0.65330803 -200 45 -200 45 -200 45
2132548774.7958 -4.5598421 1.4133794 -200 45 -200 45 -200 45
2133548891.4819 -4.4658604 1.897525 -200 45 -200 45 -200 45
2134549008.168 -4.3928518 2.225872 -200 45 -200 45 -200 45
2135549124.8541 -4.3427868 2.5428362 -200 45 -200 45 -200 45
2136549241.5403 -4.2936258 2.9791992 -200 45 -200 45 -200 45
2137549358.2264 -4.1998544 3.530225 -200 45 -200 45 -200 45
2138549474.9125 -4.0692735 3.8167264 -200 45 -200 45 -200 45
2139549591.5986 -3.9430659 3.8180156 -200 45 -200 45 -200 45
2140549708.2847 -3.8355148 3.6135218 -200 45 -200 45 -200 45
2141549824.9708 -3.7663982 3.1846225 -200 45 -200 45 -200 45
2142549941.6569 -3.7446194 2.8372996 -200 45 -200 45 -200 45
2143550058.3431 -3.7232976 2.8073356 -200 45 -200 45 -200 45
2144550175.0292 -3.6564064 2.8998513 -200 45 -200 45 -200 45
2145550291.7153 -3.5596824 2.8191187 -200 45 -200 45 -200 45
2146550408.4014 -3.4701054 2.3743525 -200 45 -200 45 -200 45
2147550525.0875 -3.4287524 1.7550884 -200 45 -200 45 -200 45
2148550641.7736 -3.4277854 1.1915922 -200 45 -200 45 -200 45
2149550758.4597 -3.4475517 0.82179409 -200 45 -200 45 -200 45
2150550875.1459 -3.4645207 0.6790278 -200 45 -200 45 -200 45
2151550991.832 -3.4536355 0.59011108 -200 45 -200 45 -200 45
2152551108.5181 -3.4264352 0.34515783 -200 45 -200 45 -200 45
2153551225.2042 -3.4156208 -0.043987423 -200 45 -200 45 -200 45
2154551341.8903 -3.4267714 -0.38831154 -200 45 -200 45 -200 45
2155551458.5764 -3.4514327 -0.63459808 -200 45 -200 45 -200 45
2156551575.2625 -3.4773543 -0.80532157 -200 45 -200 45 -200 45
2157551691.9487 -3.5081942 -0.9246515 -200 45 -200 45 -200 45
2158551808.6348 -3.5292928 -1.0387866 -200 45 -200 45 -200 45
2159551925.3209 -3.5437212 -1.1416001 -200 45 -200 45 -200 45
2160552042.007 -3.5520999 -1.220194 -200 45 -200 45 -200 45
2161552158.6931 -3.564091 -1.3001068 -200 45 -200 45 -200 45
2162552275.3792 -3.577199 -1.3563046 -200 45 -200 45 -200 45
2163552392.0653 -3.5982418 -1.3840592 -200 45 -200 45 -200 45
2164552508.7515 -3.6089048 -1.4249814 -200 45 -200 45 -200 45
2165552625.4376 -3.6190045 -1.4664899 -200 45 -200 45 -200 45
2166552742.1237 -3.6300123 -1.5037103 -200 45 -200 45 -200 45
2167552858.8098 -3.6410449 -1.5256041 -200 45 -200 45 -200 45
2168552975.4959 -3.654259 -1.5570153 -200 45 -200 45 -200 45
2169553092.182 -3.6589675 -1.5945716 -200 45 -200 45 -200 45
2170553208.8681 -3.6648474 -1.6333339 -200 45 -200 45 -200 45
2171553325.5543 -3.6757231 -1.6555213 -200 45 -200 45 -200 45
2172553442.2404 -3.6893995 -1.6780112 -200 45 -200 45 -200 45
2173553558.9265 -3.7050033 -1.6728208 -200 45 -200 45 -200 45
2174553675.6126 -3.7156634 -1.681653 -200 45 -200 45 -200 45
2175553792.2987 -3.7207351 -1.704905 -200 45 -200 45 -200 45
2176553908.9848 -3.7210829 -1.7407589 -200 45 -200 45 -200 45
2177554025.6709 -3.7259593 -1.7790962 -200 45 -200 45 -200 45
2178554142.3571 -3.7307589 -1.7842457 -200 45 -200 45 -200 45
2179554259.0432 -3.7457631 -1.786945 -200 45 -200 45 -200 45
2180554375.7293 -3.7547884 -1.821038 -200 45 -200 45 -200 45
2181554492.4154 -3.7598429 -1.8267918 -200 45 -200 45 -200 45
2182554609.1015 -3.7687409 -1.8312354 -200 45 -200 45 -200 45
2183554725.7876 -3.7775321 -1.8558851 -200 45 -200 45 -200 45
2184554842.4737 -3.7879436 -1.8455077 -200 45 -200 45 -200 45
2185554959.1599 -3.791121 -1.8999286 -200 45 -200 45 -200 45
2186555075.846 -3.7959416 -1.9193156 -200 45 -200 45 -200 45
2187555192.5321 -3.8033845 -1.9350103 -200 45 -200 45 -200 45
2188555309.2182 -3.8158157 -1.9407718 -200 45 -200 45 -200 45
2189555425.9043 -3.8328514 -1.9321655 -200 45 -200 45 -200 45
2190555542.5904 -3.842252 -1.9460068 -200 45 -200 45 -200 45
2191555659.2765 -3.8492429 -1.9713603 -200 45 -200 45 -200 45
2192555775.9627 -3.8496735 -2.0076911 -200 45 -200 45 -200 45
2193555892.6488 -3.8550327 -2.0354412 -200 45 -200 45 -200 45
2194556009.3349 -3.8610651 -2.063072 -200 45 -200 45 -200 45
2195556126.021 -3.8781219 -2.0664501 -200 45 -200 45 -200 45
2196556242.7071 -3.8881254 -2.0767119 -200 45 -200 45 -200 45
2197556359.3932 -3.8990316 -2.0981698 -200 45 -200 45 -200 45
2198556476.0793 -3.907841 -2.1115322 -200 45 -200 45 -200 45
2199556592.7655 -3.9171693 -2.146848 -200 45 -200 45 -200 45
2200556709.4516 -3.9322486 -2.15661 -200 45 -200 45 -200 45
2201556826.1377 -3.9412827 -2.184932 -200 45 -200 45 -200 45
2202556942.8238 -3.9481175 -2.238632 -200 45 -200 45 -200 45
2203557059.5099 -3.9602923 -2.2597871 -200 45 -200 45 -200 45
2204557176.196 -3.9764028 -2.2616131 -200 45 -200 45 -200 45
2205557292.8821 -3.99701 -2.2815242 -200 45 -200 45 -200 45
2206557409.5683 -4.0143313 -2.3006752 -200 45 -200 45 -200 45
2207557526.2544 -4.0264544 -2.3479321 -200 45 -200 45 -200 45
2208557642.9405 -4.0349154 -2.3959229 -200 45 -200 45 -200 45
2209557759.6266 -4.0474825 -2.4547884 -200 45 -200 45 -200 45
2210557876.3127 -4.0613623 -2.4877453 -200 45 -200 45 -200 45
2211557992.9988 -4.0875502 -2.5114663 -200 45 -200 45 -200 45
2212558109.6849 -4.1091642 -2.5534277 -200 45 -200 45 -200 45
2213558226.3711 -4.1326365 -2.6055634 -200 45 -200 45 -200 45
2214558343.0572 -4.153729 -2.6753485 -200 45 -200 45 -200 45
2215558459.7433 -4.1791992 -2.7319741 -200 45 -200 45 -200 45
2216558576.4294 -4.2106366 -2.7975564 -200 45 -200 45 -200 45
2217558693.1155 -4.2393036 -2.8549085 -200 45 -200 45 -200 45
2218558809.8016 -4.2694669 -2.9590271 -200 45 -200 45 -200 45
2219558926.4877 -4.3057351 -3.0598409 -200 45 -200 45 -200 45
2220559043.1739 -4.3547969 -3.1178503 -200 45 -200 45 -200 45
2221559159.86 -4.4098802 -3.2219365 -200 45 -200 45 -200 45
2222559276.5461 -4.468668 -3.3204768 -200 45 -200 45 -200 45
2223559393.2322 -4.5375447 -3.4635191 -200 45 -200 45 -200 45
2224559509.9183 -4.6118903 -3.6444986 -200 45 -200 45 -200 45
2225559626.6044 -4.7102957 -3.8202004 -200 45 -200 45 -200 45
2226559743.2905 -4.8406291 -3.9776325 -200 45 -200 45 -200 45
2227559859.9767 -5.019886 -4.0836883 -200 45 -200 45 -200 45
2228559976.6628 -5.2679505 -4.0523009 -200 45 -200 45 -200 45
2229560093.3489 -5.6147647 -3.4103727 -200 45 -200 45 -200 45
2230560210.035 -6.0152984 -1.1197522 -200 45 -200 45 -200 45
2231560326.7211 -6.1334267 2.9810276 -200 45 -200 45 -200 45
2232560443.4072 -5.9235339 6.0138421 -200 45 -200 45 -200 45
2233560560.0933 -5.6725988 7.7839618 -200 45 -200 45 -200 45
2234560676.7795 -5.4661541 8.8653564 -200 45 -200 45 -200 45
2235560793.4656 -5.3016157 10.189914 -200 45 -200 45 -200 45
2236560910.1517 -5.0335069 11.456703 -200 45 -200 45 -200 45
2237561026.8378 -4.7242527 11.866083 -200 45 -200 45 -200 45
2238561143.5239 -4.4723225 11.502742 -200 45 -200 45 -200 45
2239561260.21 -4.3317647 10.935998 -200 45 -200 45 -200 45
2240561376.8961 -4.2411919 10.792585 -200 45 -200 45 -200 45
2241561493.5823 -4.1217809 10.907201 -200 45 -200 45 -200 45
2242561610.2684 -3.9916394 10.995787 -200 45 -200 45 -200 45
2243561726.9545 -3.8169889 11.077682 -200 45 -200 45 -200 45
2244561843.6406 -3.6355796 10.473086 -200 45 -200 45 -200 45
2245561960.3267 -3.5417554 9.676486 -200 45 -200 45 -200 45
2246562077.0128 -3.5142827 9.1839123 -200 45 -200 45 -200 45
2247562193.6989 -3.442008 9.281826 -200 45 -200 45 -200 45
2248562310.3851 -3.2878571 8.8566866 -200 45 -200 45 -200 45
2249562427.0712 -3.2070696 7.9861288 -200 45 -200 45 -200 45
2250562543.7573 -3.1620512 7.3117013 -200 45 -200 45 -200 45
2251562660.4434 -3.1396148 6.6301212 -200 45 -200 45 -200 45
2252562777.1295 -3.156832 6.3457441 -200 45 -200 45 -200 45
2253562893.8156 -3.1066535 6.3504653 -200 45 -200 45 -200 45
2254563010.5018 -3.0069091 5.7986226 -200 45 -200 45 -200 45
2255563127.1879 -2.9654431 4.8792491 -200 45 -200 45 -200 45
2256563243.874 -2.9707277 4.0574417 -200 45 -200 45 -200 45
2257563360.5601 -2.9973576 3.4502246 -200 45 -200 45 -200 45
2258563477.2462 -3.0319524 2.9797063 -200 45 -200 45 -200 45
2259563593.9323 -3.0709171 2.6230886 -200 45 -200 45 -200 45
2260563710.6184 -3.1106334 2.342808 -200 45 -200 45 -200 45
2261563827.3046 -3.1427908 2.1068134 -200 45 -200 45 -200 45
2262563943.9907 -3.1707571 1.9081818 -200 45 -200 45 -200 45
2263564060.6768 -3.1943119 1.7392576 -200 45 -200 45 -200 45
2264564177.3629 -3.2219946 1.5865228 -200 45 -200 45 -200 45
2265564294.049 -3.2443037 1.4557061 -200 45 -200 45 -200 45
2266564410.7351 -3.2630594 1.3247985 -200 45 -200 45 -200 45
2267564527.4212 -3.2785451 1.2007776 -200 45 -200 45 -200 45
2268564644.1074 -3.2991235 1.126891 -200 45 -200 45 -200 45
2269564760.7935 -3.3218727 1.0608881 -200 45 -200 45 -200 45
2270564877.4796 -3.3462825 1.0098157 -200 45 -200 45 -200 45
2271564994.1657 -3.3617818 0.93767315 -200 45 -200 45 -200 45
2272565110.8518 -3.3715506 0.8682856 -200 45 -200 45 -200 45
2273565227.5379 -3.3756135 0.78917998 -200 45 -200 45 -200 45
2274565344.224 -3.3874104 0.72381258 -200 45 -200 45 -200 45
2275565460.9102 -3.3995035 0.67819804 -200 45 -200 45 -200 45
2276565577.5963 -3.4172435 0.65524811 -200 45 -200 45 -200 45
2277565694.2824 -3.427937 0.6232307 -200 45 -200 45 -200 45
2278565810.9685 -3.4366949 0.59092319 -200 45 -200 45 -200 45
2279565927.6546 -3.4485738 0.56056052 -200 45 -200 45 -200 45
2280566044.3407 -3.4583886 0.53764737 -200 45 -200 45 -200 45
2281566161.0268 -3.4672873 0.50297117 -200 45 -200 45 -200 45
2282566277.713 -3.47311 0.45153528 -200 45 -200 45 -200 45
2283566394.3991 -3.479789 0.41289353 -200 45 -200 45 -200 45
2284566511.0852 -3.4857719 0.39351729 -200 45 -200 45 -200 45
2285566627.7713 -3.5010889 0.40316364 -200 45 -200 45 -200 45
2286566744.4574 -3.5154808 0.40552405 -200 45 -200 45 -200 45
2287566861.1435 -3.5235116 0.38329956 -200 45 -200 45 -200 45
2288566977.8296 -3.5252836 0.35797545 -200 45 -200 45 -200 45
2289567094.5158 -3.5250201 0.31049532 -200 45 -200 45 -200 45
2290567211.2019 -3.5278473 0.30615577 -200 45 -200 45 -200 45
2291567327.888 -3.5353899 0.27507821 -200 45 -200 45 -200 45
2292567444.5741 -3.5490603 0.28099969 -200 45 -200 45 -200 45
2293567561.2602 -3.5544574 0.26121065 -200 45 -200 45 -200 45
2294567677.9463 -3.559557 0.25069332 -200 45 -200 45 -200 45
2295567794.6324 -3.564451 0.2356303 -200 45 -200 45 -200 45
2296567911.3186 -3.5716612 0.2385824 -200 45 -200 45 -200 45
2297568028.0047 -3.5803418 0.23556153 -200 45 -200 45 -200 45
2298568144.6908 -3.5806251 0.20328599 -200 45 -200 45 -200 45
2299568261.3769 -3.5809822 0.18080428 -200 45 -200 45 -200 45
2300568378.063 -3.5862129 0.1735978 -200 45 -200 45 -200 45
2301568494.7491 -3.5957489 0.17366192 -200 45 -200 45 -200 45
2302568611.4352 -3.6113925 0.21316588 -200 45 -200 45 -200 45
2303568728.1214 -3.6168621 0.19878335 -200 45 -200 45 -200 45
2304568844.8075 -3.6160786 0.18326467 -200 45 -200 45 -200 45
2305568961.4936 -3.6132498 0.15377322 -200 45 -200 45 -200 45
2306569078.1797 -3.6127589 0.15406089 -200 45 -200 45 -200 45
2307569194.8658 -3.6186926 0.12253514 -200 45 -200 45 -200 45
2308569311.5519 -3.6270435 0.14448677 -200 45 -200 45 -200 45
2309569428.238 -3.6329677 0.12786239 -200 45 -200 45 -200 45
2310569544.9242 -3.6372218 0.13206436 -200 45 -200 45 -200 45
2311569661.6103 -3.6422093 0.13704403 -200 45 -200 45 -200 45
2312569778.2964 -3.6437864 0.14321189 -200 45 -200 45 -200 45
2313569894.9825 -3.6522446 0.13446467 -200 45 -200 45 -200 45
2314570011.6686 -3.649657 0.11495715 -200 45 -200 45 -200 45
2315570128.3547 -3.6513169 0.09111885 -200 45 -200 45 -200 45
2316570245.0408 -3.6555147 0.09994144 -200 45 -200 45 -200 45
2317570361.727 -3.6649137 0.10988967 -200 45 -200 45 -200 45
2318570478.4131 -3.6753125 0.13435496 -200 45 -200 45 -200 45
2319570595.0992 -3.6825569 0.14276029 -200 45 -200 45 -200 45
2320570711.7853 -3.683054 0.13226075 -200 45 -200 45 -200 45
2321570828.4714 -3.6743181 0.10522413 -200 45 -200 45 -200 45
2322570945.1575 -3.6750176 0.089778908 -200 45 -200 45 -200 45
2323571061.8436 -3.6782315 0.088143103 -200 45 -200 45 -200 45
2324571178.5298 -3.6880851 0.11201472 -200 45 -200 45 -200 45
2325571295.2159 -3.6928549 0.10392338 -200 45 -200 45 -200 45
2326571411.902 -3.6956177 0.11069559 -200 45 -200 45 -200 45
2327571528.5881 -3.6983333 0.12259997 -200 45 -200 45 -200 45
2328571645.2742 -3.7008944 0.1036431 -200 45 -200 45 -200 45
2329571761.9603 -3.7072365 0.11780652 -200 45 -200 45 -200 45
2330571878.6464 -3.7048259 0.10357492 -200 45 -200 45 -200 45
2331571995.3326 -3.7061572 0.089724615 -200 45 -200 45 -200 45
2332572112.0187 -3.7083564 0.089484334 -200 45 -200 45 -200 45
2333572228.7048 -3.7155602 0.11913735 -200 45 -200 45 -200 45
2334572345.3909 -3.7262998 0.12539086 -200 45 -200 45 -200 45
2335572462.077 -3.7323532 0.14058562 -200 45 -200 45 -200 45
2336572578.7631 -3.7323668 0.13618378 -200 45 -200 45 -200 45
2337572695.4492 -3.7274852 0.12038419 -200 45 -200 45 -200 45
2338572812.1354 -3.7274828 0.11061396 -200 45 -200 45 -200 45
2339572928.8215 -3.7266924 0.098591663 -200 45 -200 45 -200 45
2340573045.5076 -3.737215 0.10732006 -200 45 -200 45 -200 45
2341573162.1937 -3.7399876 0.11820033 -200 45 -200 45 -200 45
2342573278.8798 -3.7421944 0.1246025 -200 45 -200 45 -200 45
2343573395.5659 -3.7465699 0.13695599 -200 45 -200 45 -200 45
2344573512.252 -3.7486506 0.14027387 -200 45 -200 45 -200 45
2345573628.9382 -3.7518013 0.13613902 -200 45 -200 45 -200 45
2346573745.6243 -3.7535424 0.12695667 -200 45 -200 45 -200 45
2347573862.3104 -3.751338 0.10865185 -200 45 -200 45 -200 45
2348573978.9965 -3.7527099 0.11838807 -200 45 -200 45 -200 45
2349574095.6826 -3.7597847 0.13385552 -200 45 -200 45 -200 45
2350574212.3687 -3.7687113 0.17273815 -200 45 -200 45 -200 45
2351574329.0548 -3.7740955 0.17645507 -200 45 -200 45 -200 45
2352574445.741 -3.7763693 0.174597 -200 45 -200 45 -200 45
2353574562.4271 -3.7706263 0.15653998 -200 45 -200 45 -200 45
2354574679.1132 -3.7684886 0.14173956 -200 45 -200 45 -200 45
2355574795.7993 -3.7673261 0.12892358 -200 45 -200 45 -200 45
2356574912.4854 -3.7776198 0.15376702 -200 45 -200 45 -200 45
2357575029.1715 -3.7815528 0.17512874 -200 45 -200 45 -200 45
2358575145.8576 -3.7857084 0.16415745 -200 45 -200 45 -200 45
2359575262.5438 -3.7857714 0.17327845 -200 45 -200 45 -200 45
2360575379.2299 -3.7881377 0.18281506 -200 45 -200 45 -200 45
2361575495.916 -3.7942405 0.19479977 -200 45 -200 45 -200 45
2362575612.6021 -3.7943499 0.1825058 -200 45 -200 45 -200 45
2363575729.2882 -3.7928698 0.15787284 -200 45 -200 45 -200 45
2364575845.9743 -3.7937019 0.15513222 -200 45 -200 45 -200 45
2365575962.6604 -3.7984672 0.18093969 -200 45 -200 45 -200 45
2366576079.3466 -3.8085701 0.20298423 -200 45 -200 45 -200 45
2367576196.0327 -3.8175793 0.22859256 -200 45 -200 45 -200 45
2368576312.7188 -3.8180358 0.2121001 -200 45 -200 45 -200 45
2369576429.4049 -3.8127067 0.19758615 -200 45 -200 45 -200 45
2370576546.091 -3.8110209 0.17902735 -200 45 -200 45 -200 45
2371576662.7771 -3.8107855 0.18395303 -200 45 -200 45 -200 45
2372576779.4632 -3.8186908 0.19553177 -200 45 -200 45 -200 45
2373576896.1494 -3.8251731 0.20048119 -200 45 -200 45 -200 45
2374577012.8355 -3.828552 0.21122853 -200 45 -200 45 -200 45
2375577129.5216 -3.8316476 0.21940491 -200 45 -200 45 -200 45
2376577246.2077 -3.8351154 0.22102202 -200 45 -200 45 -200 45
2377577362.8938 -3.8393788 0.23638807 -200 45 -200 45 -200 45
2378577479.5799 -3.8435616 0.23173085 -200 45 -200 45 -200 45
2379577596.266 -3.8422525 0.22220829 -200 45 -200 45 -200 45
2380577712.9522 -3.8424122 0.22692172 -200 45 -200 45 -200 45
2381577829.6383 -3.8512411 0.26028714 -200 45 -200 45 -200 45
2382577946.3244 -3.862323 0.3072831 -200 45 -200 45 -200 45
2383578063.0105 -3.8724358 0.34490258 -200 45 -200 45 -200 45
2384578179.6966 -3.8735995 0.37684891 -200 45 -200 45 -200 45
2385578296.3827 -3.8689475 0.38970429 -200 45 -200 45 -200 45
2386578413.0688 -3.8623145 0.41362062 -200 45 -200 45 -200 45
2387578529.755 -3.8596444 0.41926149 -200 45 -200 45 -200 45
2388578646.4411 -3.8632743 0.44668105 -200 45 -200 45 -200 45
2389578763.1272 -3.8665226 0.46645924 -200 45 -200 45 -200 45
2390578879.8133 -3.8656211 0.48176953 -200 45 -200 45 -200 45
2391578996.4994 -3.8646753 0.49535686 -200 45 -200 45 -200 45
2392579113.1855 -3.8667462 0.50144231 -200 45 -200 45 -200 45
2393579229.8716 -3.8676722 0.5222165 -200 45 -200 45 -200 45
2394579346.5578 -3.8689363 0.52165997 -200 45 -200 45 -200 45
2395579463.2439 -3.8652284 0.49801797 -200 45 -200 45 -200 45
2396579579.93 -3.862061 0.50114882 -200 45 -200 45 -200 45
2397579696.6161 -3.8654902 0.5155229 -200 45 -200 45 -200 45
2398579813.3022 -3.8728802 0.54484445 -200 45 -200 45 -200 45
2399579929.9883 -3.8780279 0.57270151 -200 45 -200 45 -200 45
2400580046.6744 -3.8799474 0.58496255 -200 45 -200 45 -200 45
2401580163.3606 -3.876502 0.56417871 -200 45 -200 45 -200 45
2402580280.0467 -3.8686171 0.56697631 -200 45 -200 45 -200 45
2403580396.7328 -3.8659856 0.55125177 -200 45 -200 45 -200 45
2404580513.4189 -3.8672802 0.55838782 -200 45 -200 45 -200 45
2405580630.105 -3.8740098 0.57560414 -200 45 -200 45 -200 45
2406580746.7911 -3.874218 0.58295894 -200 45 -200 45 -200 45
2407580863.4772 -3.8714046 0.58348215 -200 45 -200 45 -200 45
2408580980.1634 -3.8752158 0.57932568 -200 45 -200 45 -200 45
2409581096.8495 -3.8761852 0.57158607 -200 45 -200 45 -200 45
2410581213.5356 -3.8792496 0.56241679 -200 45 -200 45 -200 45
2411581330.2217 -3.8752012 0.53810716 -200 45 -200 45 -200 45
2412581446.9078 -3.8735392 0.51321989 -200 45 -200 45 -200 45
2413581563.5939 -3.8781395 0.53406203 -200 45 -200 45 -200 45
2414581680.28 -3.8842607 0.54189211 -200 45 -200 45 -200 45
2415581796.9662 -3.8944101 0.57403004 -200 45 -200 45 -200 45
2416581913.6523 -3.8975892 0.55752599 -200 45 -200 45 -200 45
2417582030.3384 -3.8954194 0.56304359 -200 45 -200 45 -200 45
2418582147.0245 -3.890038 0.52123594 -200 45 -200 45 -200 45
2419582263.7106 -3.8898664 0.52380842 -200 45 -200 45 -200 45
2420582380.3967 -3.8925095 0.51641363 -200 45 -200 45 -200 45
2421582497.0828 -3.9018357 0.53866798 -200 45 -200 45 -200 45
2422582613.769 -3.905036 0.5619126 -200 45 -200 45 -200 45
2423582730.4551 -3.903533 0.53549391 -200 45 -200 45 -200 45
2424582847.1412 -3.9090562 0.54699999 -200 45 -200 45 -200 45
2425582963.8273 -3.9118047 0.55745888 -200 45 -200 45 -200 45
2426583080.5134 -3.9146552 0.57969129 -200 45 -200 45 -200 45
2427583197.1995 -3.9140072 0.54613411 -200 45 -200 45 -200 45
2428583313.8856 -3.9135487 0.54750401 -200 45 -200 45 -200 45
2429583430.5718 -3.9147863 0.55304718 -200 45 -200 45 -200 45
2430583547.2579 -3.9239752 0.57913691 -200 45 -200 45 -200 45
2431583663.944 -3.9348505 0.62987566 -200 45 -200 45 -200 45
2432583780.6301 -3.9367197 0.61854535 -200 45 -200 45 -200 45
2433583897.3162 -3.9328423 0.60646075 -200 45 -200 45 -200 45
2434584014.0023 -3.927377 0.60541636 -200 45 -200 45 -200 45
2435584130.6884 -3.9270995 0.59215236 -200 45 -200 45 -200 45
2436584247.3746 -3.931072 0.58346868 -200 45 -200 45 -200 45
2437584364.0607 -3.9381559 0.61252612 -200 45 -200 45 -200 45
2438584480.7468 -3.9411879 0.62438244 -200 45 -200 45 -200 45
2439584597.4329 -3.9400373 0.63200843 -200 45 -200 45 -200 45
2440584714.119 -3.9452369 0.63464606 -200 45 -200 45 -200 45
2441584830.8051 -3.945318 0.63887441 -200 45 -200 45 -200 45
2442584947.4912 -3.9502375 0.65948611 -200 45 -200 45 -200 45
2443585064.1774 -3.9505475 0.63497764 -200 45 -200 45 -200 45
2444585180.8635 -3.9488804 0.61868554 -200 45 -200 45 -200 45
2445585297.5496 -3.9487915 0.63560528 -200 45 -200 45 -200 45
2446585414.2357 -3.9582036 0.66804093 -200 45 -200 45 -200 45
2447585530.9218 -3.9652467 0.67992359 -200 45 -200 45 -200 45
2448585647.6079 -3.9705353 0.69462675 -200 45 -200 45 -200 45
2449585764.294 -3.9699512 0.70052177 -200 45 -200 45 -200 45
2450585880.9802 -3.963762 0.6827721 -200 45 -200 45 -200 45
2451585997.6663 -3.9624095 0.67683089 -200 45 -200 45 -200 45
2452586114.3524 -3.9631143 0.66518986 -200 45 -200 45 -200 45
2453586231.0385 -3.9721568 0.68738192 -200 45 -200 45 -200 45
2454586347.7246 -3.9749563 0.70337349 -200 45 -200 45 -200 45
2455586464.4107 -3.9756684 0.6983496 -200 45 -200 45 -200 45
2456586581.0968 -3.9785185 0.72922283 -200 45 -200 45 -200 45
2457586697.783 -3.979835 0.71366405 -200 45 -200 45 -200 45
2458586814.4691 -3.9857092 0.73099482 -200 45 -200 45 -200 45
2459586931.1552 -3.9836507 0.71632856 -200 45 -200 45 -200 45
2460587047.8413 -3.9835589 0.70964998 -200 45 -200 45 -200 45
2461587164.5274 -3.9838295 0.73024637 -200 45 -200 45 -200 45
2462587281.2135 -3.9906907 0.73978996 -200 45 -200 45 -200 45
2463587397.8997 -3.9966686 0.76765716 -200 45 -200 45 -200 45
2464587514.5858 -4.0030699 0.76946044 -200 45 -200 45 -200 45
2465587631.2719 -4.0036182 0.7677896 -200 45 -200 45 -200 45
2466587747.958 -3.9970896 0.75667709 -200 45 -200 45 -200 45
2467587864.6441 -3.9972136 0.75363046 -200 45 -200 45 -200 45
2468587981.3302 -3.9979644 0.746544 -200 45 -200 45 -200 45
2469588098.0163 -4.0056305 0.77067852 -200 45 -200 45 -200 45
2470588214.7025 -4.0080767 0.78351438 -200 45 -200 45 -200 45
2471588331.3886 -4.0102644 0.78770596 -200 45 -200 45 -200 45
2472588448.0747 -4.0111532 0.80258858 -200 45 -200 45 -200 45
2473588564.7608 -4.0138421 0.79862446 -200 45 -200 45 -200 45
2474588681.4469 -4.0184941 0.81875324 -200 45 -200 45 -200 45
2475588798.133 -4.0168719 0.80210984 -200 45 -200 45 -200 45
2476588914.8191 -4.0146427 0.79039663 -200 45 -200 45 -200 45
2477589031.5053 -4.0168996 0.79691243 -200 45 -200 45 -200 45
2478589148.1914 -4.023931 0.81864172 -200 45 -200 45 -200 45
2479589264.8775 -4.0310516 0.84458452 -200 45 -200 45 -200 45
2480589381.5636 -4.0368557 0.85579866 -200 45 -200 45 -200 45
2481589498.2497 -4.038672 0.86205697 -200 45 -200 45 -200 45
2482589614.9358 -4.0337162 0.83770788 -200 45 -200 45 -200 45
2483589731.6219 -4.0316186 0.84326583 -200 45 -200 45 -200 45
2484589848.3081 -4.0322986 0.83191651 -200 45 -200 45 -200 45
2485589964.9942 -4.0395827 0.85371006 -200 45 -200 45 -200 45
2486590081.6803 -4.0440636 0.86506259 -200 45 -200 45 -200 45
2487590198.3664 -4.0456004 0.8664006 -200 45 -200 45 -200 45
2488590315.0525 -4.0473228 0.87695587 -200 45 -200 45 -200 45
2489590431.7386 -4.0479641 0.88208687 -200 45 -200 45 -200 45
2490590548.4247 -4.057374 0.89960563 -200 45 -200 45 -200 45
2491590665.1109 -4.0545411 0.89363337 -200 45 -200 45 -200 45
2492590781.797 -4.0532842 0.86811787 -200 45 -200 45 -200 45
2493590898.4831 -4.0536685 0.87259811 -200 45 -200 45 -200 45
2494591015.1692 -4.0613527 0.90223664 -200 45 -200 45 -200 45
2495591131.8553 -4.0685725 0.91584706 -200 45 -200 45 -200 45
2496591248.5414 -4.0764942 0.95043278 -200 45 -200 45 -200 45
2497591365.2275 -4.0784292 0.93896043 -200 45 -200 45 -200 45
2498591481.9137 -4.0717735 0.90825391 -200 45 -200 45 -200 45
2499591598.5998 -4.0707469 0.9164229 -200 45 -200 45 -200 45
2500591715.2859 -4.0746994 0.91012156 -200 45 -200 45 -200 45
2501591831.972 -4.0798931 0.93299711 -200 45 -200 45 -200 45
2502591948.6581 -4.0827761 0.9389264 -200 45 -200 45 -200 45
2503592065.3442 -4.0856633 0.94276613 -200 45 -200 45 -200 45
2504592182.0303 -4.0888519 0.93847603 -200 45 -200 45 -200 45
2505592298.7165 -4.0938625 0.95970768 -200 45 -200 45 -200 45
2506592415.4026 -4.0970631 0.96943855 -200 45 -200 45 -200 45
2507592532.0887 -4.0955915 0.96110421 -200 45 -200 45 -200 45
2508592648.7748 -4.0951509 0.94933999 -200 45 -200 45 -200 45
2509592765.4609 -4.1006026 0.95275706 -200 45 -200 45 -200 45
2510592882.147 -4.1060333 0.97648293 -200 45 -200 45 -200 45
2511592998.8331 -4.1158633 1.0032667 -200 45 -200 45 -200 45
2512593115.5193 -4.1212106 0.99424428 -200 45 -200 45 -200 45
2513593232.2054 -4.1187673 1.0065025 -200 45 -200 45 -200 45
2514593348.8915 -4.1149688 0.98935771 -200 45 -200 45 -200 45
2515593465.5776 -4.1158123 0.98707557 -200 45 -200 45 -200 45
2516593582.2637 -4.1206908 0.98770833 -200 45 -200 45 -200 45
2517593698.9498 -4.1287942 0.99846792 -200 45 -200 45 -200 45
2518593815.6359 -4.1318693 1.0076058 -200 45 -200 45 -200 45
2519593932.3221 -4.1358976 1.0042474 -200 45 -200 45 -200 45
2520594049.0082 -4.138689 1.0115147 -200 45 -200 45 -200 45
2521594165.6943 -4.1426249 1.0164636 -200 45 -200 45 -200 45
2522594282.3804 -4.1484437 1.0377182 -200 45 -200 45 -200 45
2523594399.0665 -4.1480908 1.0152589 -200 45 -200 45 -200 45
2524594515.7526 -4.1486197 1.0137843 -200 45 -200 45 -200 45
2525594632.4387 -4.1543765 1.000482 -200 45 -200 45 -200 45
2526594749.1249 -4.1623383 1.0258279 -200 45 -200 45 -200 45
2527594865.811 -4.1754227 1.0464457 -200 45 -200 45 -200 45
2528594982.4971 -4.1789517 1.0469871 -200 45 -200 45 -200 45
2529595099.1832 -4.178997 1.0501617 -200 45 -200 45 -200 45
2530595215.8693 -4.1758676 1.0273705 -200 45 -200 45 -200 45
2531595332.5554 -4.1791945 1.0247537 -200 45 -200 45 -200 45
2532595449.2415 -4.1846051 1.0247703 -200 45 -200 45 -200 45
2533595565.9277 -4.1942716 1.0333364 -200 45 -200 45 -200 45
2534595682.6138 -4.1986618 1.0336345 -200 45 -200 45 -200 45
2535595799.2999 -4.205328 1.0088637 -200 45 -200 45 -200 45
2536595915.986 -4.2090368 1.033551 -200 45 -200 45 -200 45
2537596032.6721 -4.2152076 1.0418142 -200 45 -200 45 -200 45
2538596149.3582 -4.2243881 1.0443573 -200 45 -200 45 -200 45
2539596266.0443 -4.2268081 1.0147455 -200 45 -200 45 -200 45
2540596382.7305 -4.2287874 1.0097127 -200 45 -200 45 -200 45
2541596499.4166 -4.2336035 1.001936 -200 45 -200 45 -200 45
2542596616.1027 -4.2470798 1.0288746 -200 45 -200 45 -200 45
2543596732.7888 -4.2614474 1.0371563 -200 45 -200 45 -200 45
2544596849.4749 -4.2682214 1.0321046 -200 45 -200 45 -200 45
2545596966.161 -4.271059 1.0211992 -200 45 -200 45 -200 45
2546597082.8471 -4.2761521 0.99878436 -200 45 -200 45 -200 45
2547597199.5333 -4.2779694 0.99993926 -200 45 -200 45 -200 45
2548597316.2194 -4.2907734 0.98662841 -200 45 -200 45 -200 45
2549597432.9055 -4.3020573 0.97512907 -200 45 -200 45 -200 45
2550597549.5916 -4.3129611 0.98614979 -200 45 -200 45 -200 45
2551597666.2777 -4.3232203 0.95930946 -200 45 -200 45 -200 45
2552597782.9638 -4.3351493 0.96040016 -200 45 -200 45 -200 45
2553597899.6499 -4.3474116 0.95069712 -200 45 -200 45 -200 45
2554598016.3361 -4.3622298 0.95204687 -200 45 -200 45 -200 45
2555598133.0222 -4.3751168 0.91559935 -200 45 -200 45 -200 45
2556598249.7083 -4.3861427 0.89209634 -200 45 -200 45 -200 45
2557598366.3944 -4.4047732 0.8845861 -200 45 -200 45 -200 45
2558598483.0805 -4.4291749 0.87602711 -200 45 -200 45 -200 45
2559598599.7666 -4.4551597 0.87365496 -200 45 -200 45 -200 45
2560598716.4527 -4.4817901 0.85656852 -200 45 -200 45 -200 45
2561598833.1389 -4.5012727 0.83776826 -200 45 -200 45 -200 45
2562598949.825 -4.5263705 0.80894578 -200 45 -200 45 -200 45
2563599066.5111 -4.5584865 0.7846759 -200 45 -200 45 -200 45
2564599183.1972 -4.6032562 0.79021722 -200 45 -200 45 -200 45
2565599299.8833 -4.6581693 0.81853276 -200 45 -200 45 -200 45
2566599416.5694 -4.7169652 0.88004804 -200 45 -200 45 -200 45
2567599533.2555 -4.7865548 1.0084819 -200 45 -200 45 -200 45
2568599649.9417 -4.8686905 1.2554085 -200 45 -200 45 -200 45
2569599766.6278 -4.9568725 1.6918505 -200 45 -200 45 -200 45
2570599883.3139 -5.0337181 2.3376229 -200 45 -200 45 -200 45
2571600000 -5.084444 3.1696422 -200 45 -200 45 -200 45
2572600116.6861 -5.0920401 4.12012 -200 45 -200 45 -200 45
2573600233.3722 -5.0616288 5.0178657 -200 45 -200 45 -200 45
2574600350.0583 -5.0122824 5.7649703 -200 45 -200 45 -200 45
2575600466.7445 -4.9531178 6.4101672 -200 45 -200 45 -200 45
2576600583.4306 -4.884285 6.9487247 -200 45 -200 45 -200 45
2577600700.1167 -4.7958784 7.382421 -200 45 -200 45 -200 45
2578600816.8028 -4.7056828 7.7099757 -200 45 -200 45 -200 45
2579600933.4889 -4.6150665 7.9758792 -200 45 -200 45 -200 45
2580601050.175 -4.5276432 8.1673412 -200 45 -200 45 -200 45
2581601166.8611 -4.4440112 8.2202721 -200 45 -200 45 -200 45
2582601283.5473 -4.3648229 8.2066402 -200 45 -200 45 -200 45
2583601400.2334 -4.2937927 8.1849871 -200 45 -200 45 -200 45
2584601516.9195 -4.223567 8.1502113 -200 45 -200 45 -200 45
2585601633.6056 -4.1520138 8.0975304 -200 45 -200 45 -200 45
2586601750.2917 -4.0698357 7.9313035 -200 45 -200 45 -200 45
2587601866.9778 -3.9938581 7.5803576 -200 45 -200 45 -200 45
2588601983.6639 -3.9429748 7.1429391 -200 45 -200 45 -200 45
2589602100.3501 -3.9257929 6.7474499 -200 45 -200 45 -200 45
2590602217.0362 -3.9268568 6.4888787 -200 45 -200 45 -200 45
2591602333.7223 -3.9362276 6.3213305 -200 45 -200 45 -200 45
2592602450.4084 -3.9257896 6.223752 -200 45 -200 45 -200 45
2593602567.0945 -3.9032328 6.1211295 -200 45 -200 45 -200 45
2594602683.7806 -3.8810592 6.0151868 -200 45 -200 45 -200 45
2595602800.4667 -3.8558738 5.9273729 -200 45 -200 45 -200 45
2596602917.1529 -3.8291554 5.8149352 -200 45 -200 45 -200 45
2597603033.839 -3.8004315 5.6594286 -200 45 -200 45 -200 45
2598603150.5251 -3.7739077 5.4031687 -200 45 -200 45 -200 45
2599603267.2112 -3.7541816 5.109107 -200 45 -200 45 -200 45
2600603383.8973 -3.7461307 4.8090158 -200 45 -200 45 -200 45
2601603500.5834 -3.7519066 4.5517225 -200 45 -200 45 -200 45
2602603617.2695 -3.760426 4.3181009 -200 45 -200 45 -200 45
2603603733.9557 -3.7679718 4.0907435 -200 45 -200 45 -200 45
2604603850.6418 -3.7761467 3.9254947 -200 45 -200 45 -200 45
2605603967.3279 -3.7928605 3.7815216 -200 45 -200 45 -200 45
2606604084.014 -3.8098319 3.6845465 -200 45 -200 45 -200 45
2607604200.7001 -3.8287416 3.5840261 -200 45 -200 45 -200 45
2608604317.3862 -3.8415148 3.4884124 -200 45 -200 45 -200 45
2609604434.0723 -3.8459561 3.3865674 -200 45 -200 45 -200 45
2610604550.7585 -3.8560259 3.3120375 -200 45 -200 45 -200 45
2611604667.4446 -3.8630881 3.2324493 -200 45 -200 45 -200 45
2612604784.1307 -3.8764493 3.2011147 -200 45 -200 45 -200 45
2613604900.8168 -3.8924503 3.1694524 -200 45 -200 45 -200 45
2614605017.5029 -3.8991346 3.1483107 -200 45 -200 45 -200 45
2615605134.189 -3.9068906 3.1163759 -200 45 -200 45 -200 45
2616605250.8751 -3.9107978 3.0971398 -200 45 -200 45 -200 45
2617605367.5613 -3.9172809 3.0659344 -200 45 -200 45 -200 45
2618605484.2474 -3.9231532 3.0218592 -200 45 -200 45 -200 45
2619605600.9335 -3.9270818 2.954849 -200 45 -200 45 -200 45
2620605717.6196 -3.9323454 2.9029341 -200 45 -200 45 -200 45
2621605834.3057 -3.9428463 2.9132328 -200 45 -200 45 -200 45
2622605950.9918 -3.9556699 2.8951027 -200 45 -200 45 -200 45
2623606067.6779 -3.9684818 2.8933494 -200 45 -200 45 -200 45
2624606184.3641 -3.9722154 2.869534 -200 45 -200 45 -200 45
2625606301.0502 -3.9741762 2.830121 -200 45 -200 45 -200 45
2626606417.7363 -3.9743552 2.8055699 -200 45 -200 45 -200 45
2627606534.4224 -3.976516 2.7950995 -200 45 -200 45 -200 45
2628606651.1085 -3.9880698 2.7857766 -200 45 -200 45 -200 45
2629606767.7946 -3.99564 2.8005917 -200 45 -200 45 -200 45
2630606884.4807 -4.0022125 2.7730842 -200 45 -200 45 -200 45
2631607001.1669 -4.0052857 2.7808661 -200 45 -200 45 -200 45
2632607117.853 -4.011498 2.7736053 -200 45 -200 45 -200 45
2633607234.5391 -4.0173879 2.7858756 -200 45 -200 45 -200 45
2634607351.2252 -4.0226259 2.7692616 -200 45 -200 45 -200 45
2635607467.9113 -4.0215406 2.7458797 -200 45 -200 45 -200 45
2636607584.5974 -4.0257297 2.7556946 -200 45 -200 45 -200 45
2637607701.2835 -4.0329003 2.7622859 -200 45 -200 45 -200 45
2638607817.9697 -4.0414491 2.7723939 -200 45 -200 45 -200 45
2639607934.6558 -4.0482831 2.7889771 -200 45 -200 45 -200 45
2640608051.3419 -4.055387 2.7784338 -200 45 -200 45 -200 45
2641608168.028 -4.0517411 2.7620335 -200 45 -200 45 -200 45
2642608284.7141 -4.0499563 2.7524729 -200 45 -200 45 -200 45
2643608401.4002 -4.0492525 2.7532523 -200 45 -200 45 -200 45
2644608518.0863 -4.0587111 2.7723963 -200 45 -200 45 -200 45
2645608634.7725 -4.0650568 2.7782595 -200 45 -200 45 -200 45
2646608751.4586 -4.0692 2.7700205 -200 45 -200 45 -200 45
2647608868.1447 -4.0715752 2.7737739 -200 45 -200 45 -200 45
2648608984.8308 -4.0724978 2.7746947 -200 45 -200 45 -200 45
2649609101.5169 -4.0783024 2.799 -200 45 -200 45 -200 45
2650609218.203 -4.0817051 2.7743974 -200 45 -200 45 -200 45
2651609334.8891 -4.0796456 2.7610066 -200 45 -200 45 -200 45
2652609451.5753 -4.0808325 2.7511785 -200 45 -200 45 -200 45
2653609568.2614 -4.0864682 2.7563474 -200 45 -200 45 -200 45
2654609684.9475 -4.096735 2.8100271 -200 45 -200 45 -200 45
2655609801.6336 -4.1010265 2.8180869 -200 45 -200 45 -200 45
2656609918.3197 -4.1037683 2.8264046 -200 45 -200 45 -200 45
2657610035.0058 -4.1019344 2.7949071 -200 45 -200 45 -200 45
2658610151.6919 -4.0989108 2.7745957 -200 45 -200 45 -200 45
2659610268.3781 -4.0998998 2.7710695 -200 45 -200 45 -200 45
2660610385.0642 -4.1068811 2.7832589 -200 45 -200 45 -200 45
2661610501.7503 -4.1135759 2.8051982 -200 45 -200 45 -200 45
2662610618.4364 -4.1159449 2.8121793 -200 45 -200 45 -200 45
2663610735.1225 -4.1172252 2.8172014 -200 45 -200 45 -200 45
2664610851.8086 -4.1186771 2.815239 -200 45 -200 45 -200 45
2665610968.4947 -4.125309 2.8259785 -200 45 -200 45 -200 45
2666611085.1809 -4.1255932 2.8277206 -200 45 -200 45 -200 45
2667611201.867 -4.1268549 2.8068099 -200 45 -200 45 -200 45
2668611318.5531 -4.124475 2.8050234 -200 45 -200 45 -200 45
2669611435.2392 -4.1298537 2.8284957 -200 45 -200 45 -200 45
2670611551.9253 -4.139678 2.8535266 -200 45 -200 45 -200 45
2671611668.6114 -4.1445069 2.8750868 -200 45 -200 45 -200 45
2672611785.2975 -4.1468029 2.8528664 -200 45 -200 45 -200 45
2673611901.9837 -4.1412287 2.8373199 -200 45 -200 45 -200 45
2674612018.6698 -4.1395063 2.8353248 -200 45 -200 45 -200 45
2675612135.3559 -4.1403279 2.8387806 -200 45 -200 45 -200 45
2676612252.042 -4.1487765 2.8607895 -200 45 -200 45 -200 45
2677612368.7281 -4.1510825 2.8604362 -200 45 -200 45 -200 45
2678612485.4142 -4.1546421 2.8762944 -200 45 -200 45 -200 45
2679612602.1004 -4.1551366 2.8773561 -200 45 -200 45 -200 45
2680612718.7865 -4.1570387 2.8866811 -200 45 -200 45 -200 45
2681612835.4726 -4.1631055 2.8999178 -200 45 -200 45 -200 45
2682612952.1587 -4.1629677 2.8899145 -200 45 -200 45 -200 45
2683613068.8448 -4.1618681 2.8803875 -200 45 -200 45 -200 45
2684613185.5309 -4.1619124 2.8765604 -200 45 -200 45 -200 45
2685613302.217 -4.1681333 2.9143753 -200 45 -200 45 -200 45
2686613418.9032 -4.1752629 2.9483945 -200 45 -200 45 -200 45
2687613535.5893 -4.183495 2.9474797 -200 45 -200 45 -200 45
2688613652.2754 -4.1822639 2.9467409 -200 45 -200 45 -200 45
2689613768.9615 -4.1775103 2.941515 -200 45 -200 45 -200 45
2690613885.6476 -4.1762466 2.9144838 -200 45 -200 45 -200 45
2691614002.3337 -4.1746469 2.9285269 -200 45 -200 45 -200 45
2692614119.0198 -4.183228 2.9348865 -200 45 -200 45 -200 45
2693614235.706 -4.1872339 2.9575233 -200 45 -200 45 -200 45
2694614352.3921 -4.1907997 2.9594147 -200 45 -200 45 -200 45
2695614469.0782 -4.1915259 2.9662004 -200 45 -200 45 -200 45
2696614585.7643 -4.1927438 2.980767 -200 45 -200 45 -200 45
2697614702.4504 -4.1963 2.9861214 -200 45 -200 45 -200 45
2698614819.1365 -4.1964731 2.9769392 -200 45 -200 45 -200 45
2699614935.8226 -4.1962228 2.9732723 -200 45 -200 45 -200 45
2700615052.5088 -4.196094 2.9743009 -200 45 -200 45 -200 45
2701615169.1949 -4.2015376 3.0032039 -200 45 -200 45 -200 45
2702615285.881 -4.2112718 3.040343 -200 45 -200 45 -200 45
2703615402.5671 -4.2153907 3.0519562 -200 45 -200 45 -200 45
2704615519.2532 -4.2161703 3.0422225 -200 45 -200 45 -200 45
2705615635.9393 -4.2104807 3.0312891 -200 45 -200 45 -200 45
2706615752.6254 -4.2089305 3.0247927 -200 45 -200 45 -200 45
2707615869.3116 -4.2075958 3.0186286 -200 45 -200 45 -200 45
2708615985.9977 -4.217401 3.0369885 -200 45 -200 45 -200 45
2709616102.6838 -4.2194986 3.0407431 -200 45 -200 45 -200 45
2710616219.3699 -4.2235489 3.0556009 -200 45 -200 45 -200 45
2711616336.056 -4.2254329 3.0692682 -200 45 -200 45 -200 45
2712616452.7421 -4.2255659 3.0726912 -200 45 -200 45 -200 45
2713616569.4282 -4.2302899 3.0939481 -200 45 -200 45 -200 45
2714616686.1144 -4.230279 3.087882 -200 45 -200 45 -200 45
2715616802.8005 -4.2321863 3.0703766 -200 45 -200 45 -200 45
2716616919.4866 -4.2320013 3.0877001 -200 45 -200 45 -200 45
2717617036.1727 -4.2373996 3.1173847 -200 45 -200 45 -200 45
2718617152.8588 -4.2467942 3.1444201 -200 45 -200 45 -200 45
2719617269.5449 -4.2532215 3.1598461 -200 45 -200 45 -200 45
2720617386.231 -4.2514257 3.1654086 -200 45 -200 45 -200 45
2721617502.9172 -4.2472672 3.1672184 -200 45 -200 45 -200 45
2722617619.6033 -4.2448931 3.1781676 -200 45 -200 45 -200 45
2723617736.2894 -4.2443056 3.1674118 -200 45 -200 45 -200 45
2724617852.9755 -4.253264 3.1910803 -200 45 -200 45 -200 45
2725617969.6616 -4.2539721 3.2258594 -200 45 -200 45 -200 45
2726618086.3477 -4.254055 3.2376742 -200 45 -200 45 -200 45
2727618203.0338 -4.2550926 3.2316911 -200 45 -200 45 -200 45
2728618319.72 -4.2560382 3.2495112 -200 45 -200 45 -200 45
2729618436.4061 -4.2610431 3.2696869 -200 45 -200 45 -200 45
2730618553.0922 -4.2584 3.2570167 -200 45 -200 45 -200 45
2731618669.7783 -4.2517543 3.2438445 -200 45 -200 45 -200 45
2732618786.4644 -4.2565804 3.2626996 -200 45 -200 45 -200 45
2733618903.1505 -4.2603979 3.2894111 -200 45 -200 45 -200 45
2734619019.8366 -4.2689805 3.3226223 -200 45 -200 45 -200 45
2735619136.5228 -4.2731447 3.3286338 -200 45 -200 45 -200 45
2736619253.2089 -4.2732983 3.3209527 -200 45 -200 45 -200 45
2737619369.895 -4.266324 3.2992067 -200 45 -200 45 -200 45
2738619486.5811 -4.263938 3.3003807 -200 45 -200 45 -200 45
2739619603.2672 -4.2649961 3.3013749 -200 45 -200 45 -200 45
2740619719.9533 -4.2706447 3.3202839 -200 45 -200 45 -200 45
2741619836.6394 -4.2738023 3.3320324 -200 45 -200 45 -200 45
2742619953.3256 -4.275353 3.3433146 -200 45 -200 45 -200 45
2743620070.0117 -4.2779503 3.3509955 -200 45 -200 45 -200 45
2744620186.6978 -4.278605 3.3645899 -200 45 -200 45 -200 45
2745620303.3839 -4.2819886 3.3774569 -200 45 -200 45 -200 45
2746620420.07 -4.2832999 3.3618374 -200 45 -200 45 -200 45
2747620536.7561 -4.2798157 3.3457291 -200 45 -200 45 -200 45
2748620653.4422 -4.2809844 3.3524883 -200 45 -200 45 -200 45
2749620770.1284 -4.2885623 3.3734071 -200 45 -200 45 -200 45
2750620886.8145 -4.2967238 3.4081328 -200 45 -200 45 -200 45
2751621003.5006 -4.3002 3.4279704 -200 45 -200 45 -200 45
2752621120.1867 -4.3003244 3.4230242 -200 45 -200 45 -200 45
2753621236.8728 -4.2957578 3.4120054 -200 45 -200 45 -200 45
2754621353.5589 -4.2928066 3.3895991 -200 45 -200 45 -200 45
2755621470.245 -4.293519 3.3875699 -200 45 -200 45 -200 45
2756621586.9312 -4.3006773 3.4313924 -200 45 -200 45 -200 45
2757621703.6173 -4.302145 3.4432225 -200 45 -200 45 -200 45
2758621820.3034 -4.3053908 3.4374623 -200 45 -200 45 -200 45
2759621936.9895 -4.3063498 3.4554574 -200 45 -200 45 -200 45
2760622053.6756 -4.3106542 3.4679286 -200 45 -200 45 -200 45
2761622170.3617 -4.3151855 3.473906 -200 45 -200 45 -200 45
2762622287.0478 -4.3132353 3.4734812 -200 45 -200 45 -200 45
2763622403.734 -4.310751 3.4604032 -200 45 -200 45 -200 45
2764622520.4201 -4.3137412 3.4511223 -200 45 -200 45 -200 45
2765622637.1062 -4.3192554 3.4967782 -200 45 -200 45 -200 45
2766622753.7923 -4.3291302 3.5147257 -200 45 -200 45 -200 45
2767622870.4784 -4.3328466 3.5333753 -200 45 -200 45 -200 45
2768622987.1645 -4.331862 3.5184617 -200 45 -200 45 -200 45
2769623103.8506 -4.3273368 3.519428 -200 45 -200 45 -200 45
2770623220.5368 -4.3272605 3.5220249 -200 45 -200 45 -200 45
2771623337.2229 -4.3289771 3.5048182 -200 45 -200 45 -200 45
2772623453.909 -4.3358083 3.5385895 -200 45 -200 45 -200 45
2773623570.5951 -4.3387184 3.5485153 -200 45 -200 45 -200 45
2774623687.2812 -4.3395638 3.5516143 -200 45 -200 45 -200 45
2775623803.9673 -4.3427892 3.5606878 -200 45 -200 45 -200 45
2776623920.6534 -4.344419 3.576916 -200 45 -200 45 -200 45
2777624037.3396 -4.3496146 3.5782752 -200 45 -200 45 -200 45
2778624154.0257 -4.3487983 3.5756466 -200 45 -200 45 -200 45
2779624270.7118 -4.3476377 3.5649941 -200 45 -200 45 -200 45
2780624387.3979 -4.3504896 3.5510089 -200 45 -200 45 -200 45
2781624504.084 -4.359767 3.5940955 -200 45 -200 45 -200 45
2782624620.7701 -4.3691497 3.629972 -200 45 -200 45 -200 45
2783624737.4562 -4.3764143 3.6394808 -200 45 -200 45 -200 45
2784624854.1424 -4.3743334 3.6468468 -200 45 -200 45 -200 45
2785624970.8285 -4.3702178 3.6152115 -200 45 -200 45 -200 45
2786625087.5146 -4.3720183 3.6397655 -200 45 -200 45 -200 45
2787625204.2007 -4.3756123 3.642312 -200 45 -200 45 -200 45
2788625320.8868 -4.3879747 3.6860397 -200 45 -200 45 -200 45
2789625437.5729 -4.3921642 3.7078493 -200 45 -200 45 -200 45
2790625554.259 -4.3928175 3.7317545 -200 45 -200 45 -200 45
2791625670.9452 -4.3990574 3.7840359 -200 45 -200 45 -200 45
2792625787.6313 -4.4002662 3.845196 -200 45 -200 45 -200 45
2793625904.3174 -4.403265 3.875711 -200 45 -200 45 -200 45
2794626021.0035 -4.3974438 3.9128809 -200 45 -200 45 -200 45
2795626137.6896 -4.3927975 3.9388587 -200 45 -200 45 -200 45
2796626254.3757 -4.3893743 3.9524891 -200 45 -200 45 -200 45
2797626371.0618 -4.3895655 3.9874682 -200 45 -200 45 -200 45
2798626487.748 -4.3927484 4.0201974 -200 45 -200 45 -200 45
2799626604.4341 -4.3935776 4.0233378 -200 45 -200 45 -200 45
2800626721.1202 -4.386857 4.0098877 -200 45 -200 45 -200 45
2801626837.8063 -4.3799434 3.9824541 -200 45 -200 45 -200 45
2802626954.4924 -4.3755059 3.9783309 -200 45 -200 45 -200 45
2803627071.1785 -4.3738174 3.970701 -200 45 -200 45 -200 45
2804627187.8646 -4.3810253 3.9561698 -200 45 -200 45 -200 45
2805627304.5508 -4.3799424 3.9616473 -200 45 -200 45 -200 45
2806627421.2369 -4.3816905 3.9543517 -200 45 -200 45 -200 45
2807627537.923 -4.3842402 3.9382782 -200 45 -200 45 -200 45
2808627654.6091 -4.3859448 3.9263728 -200 45 -200 45 -200 45
2809627771.2952 -4.3916345 3.9359875 -200 45 -200 45 -200 45
2810627887.9813 -4.3913631 3.9193633 -200 45 -200 45 -200 45
2811628004.6674 -4.3888855 3.9064622 -200 45 -200 45 -200 45
2812628121.3536 -4.3925285 3.9051039 -200 45 -200 45 -200 45
2813628238.0397 -4.4027009 3.9256184 -200 45 -200 45 -200 45
2814628354.7258 -4.4101863 3.962744 -200 45 -200 45 -200 45
2815628471.4119 -4.4124613 3.9743562 -200 45 -200 45 -200 45
2816628588.098 -4.4116011 3.9652224 -200 45 -200 45 -200 45
2817628704.7841 -4.4051661 3.9486339 -200 45 -200 45 -200 45
2818628821.4702 -4.4051914 3.9504147 -200 45 -200 45 -200 45
2819628938.1564 -4.40661 3.9518015 -200 45 -200 45 -200 45
2820629054.8425 -4.4137349 3.9806893 -200 45 -200 45 -200 45
2821629171.5286 -4.4158134 3.9743974 -200 45 -200 45 -200 45
2822629288.2147 -4.4172058 3.9689085 -200 45 -200 45 -200 45
2823629404.9008 -4.4196534 3.9837148 -200 45 -200 45 -200 45
2824629521.5869 -4.4209208 3.9970899 -200 45 -200 45 -200 45
2825629638.273 -4.4275966 3.9825134 -200 45 -200 45 -200 45
2826629754.9592 -4.4243641 3.9765303 -200 45 -200 45 -200 45
2827629871.6453 -4.4249129 3.9409099 -200 45 -200 45 -200 45
2828629988.3314 -4.428535 3.9612925 -200 45 -200 45 -200 45
2829630105.0175 -4.4357214 3.989306 -200 45 -200 45 -200 45
2830630221.7036 -4.4450254 4.0086913 -200 45 -200 45 -200 45
2831630338.3897 -4.449985 4.0188079 -200 45 -200 45 -200 45
2832630455.0758 -4.4503036 4.02494 -200 45 -200 45 -200 45
2833630571.762 -4.4443264 4.0071206 -200 45 -200 45 -200 45
2834630688.4481 -4.4463229 3.9934866 -200 45 -200 45 -200 45
2835630805.1342 -4.447638 4.003644 -200 45 -200 45 -200 45
2836630921.8203 -4.4540977 4.0218663 -200 45 -200 45 -200 45
2837631038.5064 -4.4573359 4.037807 -200 45 -200 45 -200 45
2838631155.1925 -4.460762 4.045362 -200 45 -200 45 -200 45
2839631271.8786 -4.4639907 4.0481844 -200 45 -200 45 -200 45
2840631388.5648 -4.4671149 4.0581779 -200 45 -200 45 -200 45
2841631505.2509 -4.4710093 4.0676198 -200 45 -200 45 -200 45
2842631621.937 -4.4701452 4.050303 -200 45 -200 45 -200 45
2843631738.6231 -4.4712439 4.0371976 -200 45 -200 45 -200 45
2844631855.3092 -4.4757943 4.0560374 -200 45 -200 45 -200 45
2845631971.9953 -4.4824214 4.0813332 -200 45 -200 45 -200 45
2846632088.6814 -4.4899521 4.1013465 -200 45 -200 45 -200 45
2847632205.3676 -4.49476 4.1072068 -200 45 -200 45 -200 45
2848632322.0537 -4.4954176 4.0964279 -200 45 -200 45 -200 45
2849632438.7398 -4.4902091 4.0914564 -200 45 -200 45 -200 45
2850632555.4259 -4.4928079 4.0821519 -200 45 -200 45 -200 45
2851632672.112 -4.497004 4.0879421 -200 45 -200 45 -200 45
2852632788.7981 -4.5054927 4.0954366 -200 45 -200 45 -200 45
2853632905.4842 -4.5092983 4.1191087 -200 45 -200 45 -200 45
2854633022.1704 -4.5124011 4.1217828 -200 45 -200 45 -200 45
2855633138.8565 -4.5159283 4.1266661 -200 45 -200 45 -200 45
2856633255.5426 -4.5208235 4.1408191 -200 45 -200 45 -200 45
2857633372.2287 -4.5237699 4.1545067 -200 45 -200 45 -200 45
2858633488.9148 -4.5249505 4.1337061 -200 45 -200 45 -200 45
2859633605.6009 -4.5275416 4.1300445 -200 45 -200 45 -200 45
2860633722.287 -4.5347762 4.1470933 -200 45 -200 45 -200 45
2861633838.9732 -4.5419068 4.1576204 -200 45 -200 45 -200 45
2862633955.6593 -4.5544839 4.1841431 -200 45 -200 45 -200 45
2863634072.3454 -4.5594668 4.1856084 -200 45 -200 45 -200 45
2864634189.0315 -4.5586462 4.1948047 -200 45 -200 45 -200 45
2865634305.7176 -4.5590897 4.1752281 -200 45 -200 45 -200 45
2866634422.4037 -4.5607781 4.169714 -200 45 -200 45 -200 45
2867634539.0898 -4.5672989 4.1748004 -200 45 -200 45 -200 45
2868634655.776 -4.5761003 4.1893802 -200 45 -200 45 -200 45
2869634772.4621 -4.5841331 4.2078562 -200 45 -200 45 -200 45
2870634889.1482 -4.5886865 4.1961279 -200 45 -200 45 -200 45
2871635005.8343 -4.5964851 4.217638 -200 45 -200 45 -200 45
2872635122.5204 -4.6014023 4.2427845 -200 45 -200 45 -200 45
2873635239.2065 -4.6088977 4.2420039 -200 45 -200 45 -200 45
2874635355.8926 -4.6115088 4.2324677 -200 45 -200 45 -200 45
2875635472.5788 -4.6124816 4.2294731 -200 45 -200 45 -200 45
2876635589.2649 -4.6223354 4.2306428 -200 45 -200 45 -200 45
2877635705.951 -4.6329007 4.2484574 -200 45 -200 45 -200 45
2878635822.6371 -4.6467834 4.2834377 -200 45 -200 45 -200 45
2879635939.3232 -4.6538715 4.2868104 -200 45 -200 45 -200 45
2880636056.0093 -4.6571403 4.2673101 -200 45 -200 45 -200 45
2881636172.6954 -4.6618075 4.2381673 -200 45 -200 45 -200 45
2882636289.3816 -4.6681757 4.2394948 -200 45 -200 45 -200 45
2883636406.0677 -4.6813331 4.2360573 -200 45 -200 45 -200 45
2884636522.7538 -4.6937237 4.2509704 -200 45 -200 45 -200 45
2885636639.4399 -4.7070155 4.2540631 -200 45 -200 45 -200 45
2886636756.126 -4.7147059 4.2422185 -200 45 -200 45 -200 45
2887636872.8121 -4.7310791 4.2519026 -200 45 -200 45 -200 45
2888636989.4983 -4.7434173 4.254149 -200 45 -200 45 -200 45
2889637106.1844 -4.7605324 4.2560797 -200 45 -200 45 -200 45
2890637222.8705 -4.7763247 4.219945 -200 45 -200 45 -200 45
2891637339.5566 -4.790792 4.2343326 -200 45 -200 45 -200 45
2892637456.2427 -4.8132372 4.2335763 -200 45 -200 45 -200 45
2893637572.9288 -4.83956 4.2562718 -200 45 -200 45 -200 45
2894637689.6149 -4.8720946 4.2793493 -200 45 -200 45 -200 45
2895637806.3011 -4.8981957 4.290482 -200 45 -200 45 -200 45
2896637922.9872 -4.9253798 4.3103237 -200 45 -200 45 -200 45
2897638039.6733 -4.9586978 4.3365884 -200 45 -200 45 -200 45
2898638156.3594 -4.9932098 4.3959532 -200 45 -200 45 -200 45
2899638273.0455 -5.0416961 4.4844422 -200 45 -200 45 -200 45
2900638389.7316 -5.0946684 4.6204691 -200 45 -200 45 -200 45
2901638506.4177 -5.1547055 4.8025231 -200 45 -200 45 -200 45
2902638623.1039 -5.2159214 5.0645089 -200 45 -200 45 -200 45
2903638739.79 -5.289042 5.4399538 -200 45 -200 45 -200 45
2904638856.4761 -5.3641691 6.0040302 -200 45 -200 45 -200 45
2905638973.1622 -5.4257498 6.774508 -200 45 -200 45 -200 45
2906639089.8483 -5.4525857 7.7344975 -200 45 -200 45 -200 45
2907639206.5344 -5.427196 8.7890844 -200 45 -200 45 -200 45
2908639323.2205 -5.3606014 9.7814894 -200 45 -200 45 -200 45
2909639439.9067 -5.2627583 10.555385 -200 45 -200 45 -200 45
2910639556.5928 -5.1518636 11.055312 -200 45 -200 45 -200 45
2911639673.2789 -5.0370607 11.343184 -200 45 -200 45 -200 45
2912639789.965 -4.9236488 11.466693 -200 45 -200 45 -200 45
2913639906.6511 -4.820662 11.476488 -200 45 -200 45 -200 45
2914640023.3372 -4.7323861 11.389073 -200 45 -200 45 -200 45
2915640140.0233 -4.6633368 11.299676 -200 45 -200 45 -200 45
2916640256.7095 -4.6038089 11.178797 -200 45 -200 45 -200 45
2917640373.3956 -4.5481153 11.05967 -200 45 -200 45 -200 45
2918640490.0817 -4.4922166 10.941078 -200 45 -200 45 -200 45
2919640606.7678 -4.440321 10.773447 -200 45 -200 45 -200 45
2920640723.4539 -4.3970795 10.619367 -200 45 -200 45 -200 45
2921640840.14 -4.3587813 10.389676 -200 45 -200 45 -200 45
2922640956.8261 -4.3197365 10.160886 -200 45 -200 45 -200 45
2923641073.5123 -4.2887306 9.9487677 -200 45 -200 45 -200 45
2924641190.1984 -4.265686 9.7397604 -200 45 -200 45 -200 45
2925641306.8845 -4.246603 9.5352144 -200 45 -200 45 -200 45
2926641423.5706 -4.2366161 9.3233309 -200 45 -200 45 -200 45
2927641540.2567 -4.2283421 9.0896969 -200 45 -200 45 -200 45
2928641656.9428 -4.220283 8.8995371 -200 45 -200 45 -200 45
2929641773.6289 -4.2139363 8.7353516 -200 45 -200 45 -200 45
2930641890.3151 -4.2095709 8.6068811 -200 45 -200 45 -200 45
2931642007.0012 -4.2106805 8.5044613 -200 45 -200 45 -200 45
2932642123.6873 -4.2123957 8.4342642 -200 45 -200 45 -200 45
2933642240.3734 -4.2114372 8.3558474 -200 45 -200 45 -200 45
2934642357.0595 -4.2031288 8.3054724 -200 45 -200 45 -200 45
2935642473.7456 -4.1970239 8.2794609 -200 45 -200 45 -200 45
2936642590.4317 -4.1867714 8.2291107 -200 45 -200 45 -200 45
2937642707.1179 -4.1719327 8.175375 -200 45 -200 45 -200 45
2938642823.804 -4.1493688 8.0730391 -200 45 -200 45 -200 45
2939642940.4901 -4.1276102 7.9355659 -200 45 -200 45 -200 45
2940643057.1762 -4.113925 7.7751741 -200 45 -200 45 -200 45
2941643173.8623 -4.1087403 7.6046104 -200 45 -200 45 -200 45
2942643290.5484 -4.1092806 7.4232802 -200 45 -200 45 -200 45
2943643407.2345 -4.1094065 7.2253566 -200 45 -200 45 -200 45
2944643523.9207 -4.1090808 7.0253592 -200 45 -200 45 -200 45
2945643640.6068 -4.1126766 6.8422012 -200 45 -200 45 -200 45
2946643757.2929 -4.1200833 6.7040629 -200 45 -200 45 -200 45
2947643873.979 -4.1373672 6.5998344 -200 45 -200 45 -200 45
2948643990.6651 -4.1535435 6.4974976 -200 45 -200 45 -200 45
2949644107.3512 -4.1657696 6.4030628 -200 45 -200 45 -200 45
2950644224.0373 -4.1771026 6.3439445 -200 45 -200 45 -200 45
2951644340.7235 -4.1895008 6.2999125 -200 45 -200 45 -200 45
2952644457.4096 -4.2023869 6.2436919 -200 45 -200 45 -200 45
2953644574.0957 -4.2119646 6.2005043 -200 45 -200 45 -200 45
2954644690.7818 -4.2157021 6.1347713 -200 45 -200 45 -200 45
2955644807.4679 -4.2244506 6.115139 -200 45 -200 45 -200 45
2956644924.154 -4.2374802 6.0836945 -200 45 -200 45 -200 45
2957645040.8401 -4.2510085 6.090651 -200 45 -200 45 -200 45
2958645157.5263 -4.2615218 6.0754976 -200 45 -200 45 -200 45
2959645274.2124 -4.2706442 6.0512285 -200 45 -200 45 -200 45
2960645390.8985 -4.271625 6.0100293 -200 45 -200 45 -200 45
2961645507.5846 -4.272789 5.9959579 -200 45 -200 45 -200 45
2962645624.2707 -4.2769918 5.9661336 -200 45 -200 45 -200 45
2963645740.9568 -4.2875357 5.9565659 -200 45 -200 45 -200 45
2964645857.6429 -4.2964349 5.9563737 -200 45 -200 45 -200 45
2965645974.3291 -4.3026171 5.9412746 -200 45 -200 45 -200 45
2966646091.0152 -4.3093958 5.9388132 -200 45 -200 45 -200 45
2967646207.7013 -4.3127847 5.9209046 -200 45 -200 45 -200 45
2968646324.3874 -4.322865 5.9247546 -200 45 -200 45 -200 45
2969646441.0735 -4.324697 5.9214578 -200 45 -200 45 -200 45
2970646557.7596 -4.3267384 5.8894343 -200 45 -200 45 -200 45
2971646674.4457 -4.3292394 5.8894916 -200 45 -200 45 -200 45
2972646791.1319 -4.3382068 5.8998852 -200 45 -200 45 -200 45
2973646907.818 -4.3480306 5.9254503 -200 45 -200 45 -200 45
2974647024.5041 -4.3561063 5.9309821 -200 45 -200 45 -200 45
2975647141.1902 -4.3600764 5.9097137 -200 45 -200 45 -200 45
2976647257.8763 -4.3583879 5.903584 -200 45 -200 45 -200 45
2977647374.5624 -4.3599896 5.8979635 -200 45 -200 45 -200 45
2978647491.2485 -4.3598819 5.8815536 -200 45 -200 45 -200 45
2979647607.9347 -4.3682466 5.8934002 -200 45 -200 45 -200 45
2980647724.6208 -4.3749599 5.8991489 -200 45 -200 45 -200 45
2981647841.3069 -4.3780441 5.9073954 -200 45 -200 45 -200 45
2982647957.993 -4.3800497 5.9085741 -200 45 -200 45 -200 45
2983648074.6791 -4.3824964 5.9204602 -200 45 -200 45 -200 45
2984648191.3652 -4.388782 5.9294591 -200 45 -200 45 -200 45
2985648308.0513 -4.3930912 5.915689 -200 45 -200 45 -200 45
2986648424.7375 -4.3916903 5.9001374 -200 45 -200 45 -200 45
2987648541.4236 -4.3964505 5.8973556 -200 45 -200 45 -200 45
2988648658.1097 -4.4008651 5.9061332 -200 45 -200 45 -200 45
2989648774.7958 -4.4101019 5.9273958 -200 45 -200 45 -200 45
2990648891.4819 -4.4180584 5.951911 -200 45 -200 45 -200 45
2991649008.168 -4.4189491 5.9489541 -200 45 -200 45 -200 45
2992649124.8541 -4.4144278 5.940712 -200 45 -200 45 -200 45
2993649241.5403 -4.4168043 5.9208794 -200 45 -200 45 -200 45
2994649358.2264 -4.4155884 5.9220743 -200 45 -200 45 -200 45
2995649474.9125 -4.4249439 5.9400296 -200 45 -200 45 -200 45
2996649591.5986 -4.4286685 5.946908 -200 45 -200 45 -200 45
2997649708.2847 -4.4316974 5.9457679 -200 45 -200 45 -200 45
2998649824.9708 -4.4352965 5.961051 -200 45 -200 45 -200 45
2999649941.6569 -4.4339628 5.9705944 -200 45 -200 45 -200 45
3000650058.3431 -4.4403076 5.9959989 -200 45 -200 45 -200 45
3001650175.0292 -4.4445705 5.9847159 -200 45 -200 45 -200 45
3002650291.7153 -4.442256 5.9516077 -200 45 -200 45 -200 45
3003650408.4014 -4.4421325 5.9636326 -200 45 -200 45 -200 45
3004650525.0875 -4.4491796 5.9949408 -200 45 -200 45 -200 45
3005650641.7736 -4.4549847 6.0110283 -200 45 -200 45 -200 45
3006650758.4597 -4.4626851 6.0052419 -200 45 -200 45 -200 45
3007650875.1459 -4.4642963 6.0211778 -200 45 -200 45 -200 45
3008650991.832 -4.4604378 6.0132337 -200 45 -200 45 -200 45
3009651108.5181 -4.4581718 6.0009742 -200 45 -200 45 -200 45
3010651225.2042 -4.4600472 6.0017924 -200 45 -200 45 -200 45
3011651341.8903 -4.4678779 6.0033026 -200 45 -200 45 -200 45
3012651458.5764 -4.4714246 6.0237861 -200 45 -200 45 -200 45
3013651575.2625 -4.4765677 6.0216517 -200 45 -200 45 -200 45
3014651691.9487 -4.476666 6.0243754 -200 45 -200 45 -200 45
3015651808.6348 -4.4785099 6.0497584 -200 45 -200 45 -200 45
3016651925.3209 -4.4857225 6.0575013 -200 45 -200 45 -200 45
3017652042.007 -4.4853635 6.0481052 -200 45 -200 45 -200 45
3018652158.6931 -4.4850111 6.0434175 -200 45 -200 45 -200 45
3019652275.3792 -4.4862761 6.0428643 -200 45 -200 45 -200 45
3020652392.0653 -4.4915118 6.0632386 -200 45 -200 45 -200 45
3021652508.7515 -4.5027013 6.0780754 -200 45 -200 45 -200 45
3022652625.4376 -4.5079951 6.0914288 -200 45 -200 45 -200 45
3023652742.1237 -4.5088387 6.0951114 -200 45 -200 45 -200 45
3024652858.8098 -4.5062785 6.071135 -200 45 -200 45 -200 45
3025652975.4959 -4.5062771 6.0781865 -200 45 -200 45 -200 45
3026653092.182 -4.5080557 6.0744996 -200 45 -200 45 -200 45
3027653208.8681 -4.5166569 6.0902357 -200 45 -200 45 -200 45
3028653325.5543 -4.5219731 6.1096392 -200 45 -200 45 -200 45
3029653442.2404 -4.5259724 6.11586 -200 45 -200 45 -200 45
3030653558.9265 -4.5310488 6.1274509 -200 45 -200 45 -200 45
3031653675.6126 -4.5339918 6.1433764 -200 45 -200 45 -200 45
3032653792.2987 -4.5413938 6.1668215 -200 45 -200 45 -200 45
3033653908.9848 -4.5465922 6.1848021 -200 45 -200 45 -200 45
3034654025.6709 -4.5459485 6.2114024 -200 45 -200 45 -200 45
3035654142.3571 -4.54915 6.248929 -200 45 -200 45 -200 45
3036654259.0432 -4.5566225 6.3064156 -200 45 -200 45 -200 45
3037654375.7293 -4.5635042 6.376502 -200 45 -200 45 -200 45
3038654492.4154 -4.562541 6.407136 -200 45 -200 45 -200 45
3039654609.1015 -4.5612063 6.4407101 -200 45 -200 45 -200 45
3040654725.7876 -4.5495563 6.4346199 -200 45 -200 45 -200 45
3041654842.4737 -4.5437527 6.4287176 -200 45 -200 45 -200 45
3042654959.1599 -4.5420299 6.4264855 -200 45 -200 45 -200 45
3043655075.846 -4.5497231 6.4495397 -200 45 -200 45 -200 45
3044655192.5321 -4.5514488 6.4576931 -200 45 -200 45 -200 45
3045655309.2182 -4.5504751 6.4581327 -200 45 -200 45 -200 45
3046655425.9043 -4.5512638 6.4794612 -200 45 -200 45 -200 45
3047655542.5904 -4.5535188 6.4972754 -200 45 -200 45 -200 45
3048655659.2765 -4.5560265 6.5158224 -200 45 -200 45 -200 45
3049655775.9627 -4.5564804 6.5356874 -200 45 -200 45 -200 45
3050655892.6488 -4.5525112 6.5254931 -200 45 -200 45 -200 45
3051656009.3349 -4.5515881 6.5395737 -200 45 -200 45 -200 45
3052656126.021 -4.5529761 6.5594444 -200 45 -200 45 -200 45
3053656242.7071 -4.558392 6.5834055 -200 45 -200 45 -200 45
3054656359.3932 -4.5576911 6.5952644 -200 45 -200 45 -200 45
3055656476.0793 -4.5554776 6.584734 -200 45 -200 45 -200 45
3056656592.7655 -4.5495095 6.5630875 -200 45 -200 45 -200 45
3057656709.4516 -4.5483942 6.5483184 -200 45 -200 45 -200 45
3058656826.1377 -4.5476103 6.5391212 -200 45 -200 45 -200 45
3059656942.8238 -4.5557103 6.5514302 -200 45 -200 45 -200 45
3060657059.5099 -4.5565257 6.5490503 -200 45 -200 45 -200 45
3061657176.196 -4.5573707 6.5616193 -200 45 -200 45 -200 45
3062657292.8821 -4.5607662 6.5694895 -200 45 -200 45 -200 45
3063657409.5683 -4.5594316 6.5748138 -200 45 -200 45 -200 45
3064657526.2544 -4.5615325 6.5913711 -200 45 -200 45 -200 45
3065657642.9405 -4.5621271 6.5830846 -200 45 -200 45 -200 45
3066657759.6266 -4.5625048 6.5584178 -200 45 -200 45 -200 45
3067657876.3127 -4.5634403 6.5807471 -200 45 -200 45 -200 45
3068657992.9988 -4.56915 6.5961299 -200 45 -200 45 -200 45
3069658109.6849 -4.5761695 6.6298418 -200 45 -200 45 -200 45
3070658226.3711 -4.5802059 6.6286964 -200 45 -200 45 -200 45
3071658343.0572 -4.5777583 6.6427822 -200 45 -200 45 -200 45
3072658459.7433 -4.571991 6.645288 -200 45 -200 45 -200 45
3073658576.4294 -4.569387 6.6435905 -200 45 -200 45 -200 45
3074658693.1155 -4.5687351 6.6380477 -200 45 -200 45 -200 45
3075658809.8016 -4.5741982 6.6458311 -200 45 -200 45 -200 45
3076658926.4877 -4.5763655 6.6524305 -200 45 -200 45 -200 45
3077659043.1739 -4.5775924 6.6444168 -200 45 -200 45 -200 45
3078659159.86 -4.577424 6.657794 -200 45 -200 45 -200 45
3079659276.5461 -4.5807815 6.6642623 -200 45 -200 45 -200 45
3080659393.2322 -4.5841599 6.6781955 -200 45 -200 45 -200 45
3081659509.9183 -4.5839386 6.6799464 -200 45 -200 45 -200 45
3082659626.6044 -4.5778146 6.6802444 -200 45 -200 45 -200 45
3083659743.2905 -4.5765667 6.6677599 -200 45 -200 45 -200 45
3084659859.9767 -4.5845222 6.6934571 -200 45 -200 45 -200 45
3085659976.6628 -4.5916324 6.7064204 -200 45 -200 45 -200 45
3086660093.3489 -4.5943952 6.7060213 -200 45 -200 45 -200 45
3087660210.035 -4.5910406 6.6992455 -200 45 -200 45 -200 45
3088660326.7211 -4.5862498 6.6647606 -200 45 -200 45 -200 45
3089660443.4072 -4.5876637 6.6652575 -200 45 -200 45 -200 45
3090660560.0933 -4.5903525 6.6676464 -200 45 -200 45 -200 45
3091660676.7795 -4.5960965 6.6729908 -200 45 -200 45 -200 45
3092660793.4656 -4.6002731 6.6769614 -200 45 -200 45 -200 45
3093660910.1517 -4.6000581 6.6760507 -200 45 -200 45 -200 45
3094661026.8378 -4.6040497 6.6745706 -200 45 -200 45 -200 45
3095661143.5239 -4.6064034 6.6886044 -200 45 -200 45 -200 45
3096661260.21 -4.6109509 6.6827736 -200 45 -200 45 -200 45
3097661376.8961 -4.6093726 6.6822104 -200 45 -200 45 -200 45
3098661493.5823 -4.6098676 6.6635103 -200 45 -200 45 -200 45
3099661610.2684 -4.6107025 6.6755061 -200 45 -200 45 -200 45
3100661726.9545 -4.6179881 6.70367 -200 45 -200 45 -200 45
3101661843.6406 -4.6280961 6.7196541 -200 45 -200 45 -200 45
3102661960.3267 -4.6307054 6.7305226 -200 45 -200 45 -200 45
3103662077.0128 -4.6315842 6.7302566 -200 45 -200 45 -200 45
3104662193.6989 -4.625689 6.7185516 -200 45 -200 45 -200 45
3105662310.3851 -4.6259298 6.7020416 -200 45 -200 45 -200 45
3106662427.0712 -4.6309223 6.7198138 -200 45 -200 45 -200 45
3107662543.7573 -4.6367469 6.7348413 -200 45 -200 45 -200 45
3108662660.4434 -4.638978 6.7395625 -200 45 -200 45 -200 45
3109662777.1295 -4.641551 6.753818 -200 45 -200 45 -200 45
3110662893.8156 -4.6438704 6.7724442 -200 45 -200 45 -200 45
3111663010.5018 -4.647841 6.7678862 -200 45 -200 45 -200 45
3112663127.1879 -4.6518869 6.7787089 -200 45 -200 45 -200 45
3113663243.874 -4.6503325 6.7608891 -200 45 -200 45 -200 45
3114663360.5601 -4.6503005 6.765099 -200 45 -200 45 -200 45
3115663477.2462 -4.6518092 6.7819605 -200 45 -200 45 -200 45
3116663593.9323 -4.6602817 6.8079939 -200 45 -200 45 -200 45
3117663710.6184 -4.6672983 6.8463893 -200 45 -200 45 -200 45
3118663827.3046 -4.6727176 6.836834 -200 45 -200 45 -200 45
3119663943.9907 -4.6707535 6.8401041 -200 45 -200 45 -200 45
3120664060.6768 -4.6674242 6.8324757 -200 45 -200 45 -200 45
3121664177.3629 -4.6652331 6.8304806 -200 45 -200 45 -200 45
3122664294.049 -4.6699853 6.8390374 -200 45 -200 45 -200 45
3123664410.7351 -4.6777353 6.8612528 -200 45 -200 45 -200 45
3124664527.4212 -4.6791081 6.8813157 -200 45 -200 45 -200 45
3125664644.1074 -4.6809468 6.8736935 -200 45 -200 45 -200 45
3126664760.7935 -4.6848979 6.8837109 -200 45 -200 45 -200 45
3127664877.4796 -4.6844707 6.8865767 -200 45 -200 45 -200 45
3128664994.1657 -4.6919012 6.9003577 -200 45 -200 45 -200 45
3129665110.8518 -4.6918125 6.884994 -200 45 -200 45 -200 45
3130665227.5379 -4.691361 6.8753819 -200 45 -200 45 -200 45
3131665344.224 -4.6921921 6.8804932 -200 45 -200 45 -200 45
3132665460.9102 -4.6998868 6.9203949 -200 45 -200 45 -200 45
3133665577.5963 -4.7108192 6.9336085 -200 45 -200 45 -200 45
3134665694.2824 -4.7129889 6.9484749 -200 45 -200 45 -200 45
3135665810.9685 -4.7122049 6.935884 -200 45 -200 45 -200 45
3136665927.6546 -4.7095017 6.938333 -200 45 -200 45 -200 45
3137666044.3407 -4.7083039 6.9340029 -200 45 -200 45 -200 45
3138666161.0268 -4.7118917 6.9404054 -200 45 -200 45 -200 45
3139666277.713 -4.7198544 6.957356 -200 45 -200 45 -200 45
3140666394.3991 -4.7215552 6.9706926 -200 45 -200 45 -200 45
3141666511.0852 -4.7237644 6.9740558 -200 45 -200 45 -200 45
3142666627.7713 -4.7264681 6.9878559 -200 45 -200 45 -200 45
3143666744.4574 -4.7311654 6.9878674 -200 45 -200 45 -200 45
3144666861.1435 -4.7359056 7.0072079 -200 45 -200 45 -200 45
3145666977.8296 -4.7367535 6.9857235 -200 45 -200 45 -200 45
3146667094.5158 -4.7354345 6.9725327 -200 45 -200 45 -200 45
3147667211.2019 -4.7401557 6.9840345 -200 45 -200 45 -200 45
3148667327.888 -4.7466302 7.0241308 -200 45 -200 45 -200 45
3149667444.5741 -4.7554584 7.0475373 -200 45 -200 45 -200 45
3150667561.2602 -4.7606182 7.0456476 -200 45 -200 45 -200 45
3151667677.9463 -4.759449 7.0495992 -200 45 -200 45 -200 45
3152667794.6324 -4.7565475 7.0346484 -200 45 -200 45 -200 45
3153667911.3186 -4.7597184 7.0397773 -200 45 -200 45 -200 45
3154668028.0047 -4.7626433 7.0282292 -200 45 -200 45 -200 45
3155668144.6908 -4.771029 7.0584512 -200 45 -200 45 -200 45
3156668261.3769 -4.7741771 7.0531545 -200 45 -200 45 -200 45
3157668378.063 -4.778151 7.0609736 -200 45 -200 45 -200 45
3158668494.7491 -4.7814908 7.0834556 -200 45 -200 45 -200 45
3159668611.4352 -4.7864704 7.0940371 -200 45 -200 45 -200 45
3160668728.1214 -4.7897501 7.1046352 -200 45 -200 45 -200 45
3161668844.8075 -4.7892637 7.0783663 -200 45 -200 45 -200 45
3162668961.4936 -4.7924724 7.0753298 -200 45 -200 45 -200 45
3163669078.1797 -4.7971492 7.0839076 -200 45 -200 45 -200 45
3164669194.8658 -4.8037777 7.1102066 -200 45 -200 45 -200 45
3165669311.5519 -4.8128347 7.1380167 -200 45 -200 45 -200 45
3166669428.238 -4.8203421 7.1295195 -200 45 -200 45 -200 45
3167669544.9242 -4.8217564 7.127634 -200 45 -200 45 -200 45
3168669661.6103 -4.8193274 7.0929604 -200 45 -200 45 -200 45
3169669778.2964 -4.8215513 7.0978661 -200 45 -200 45 -200 45
3170669894.9825 -4.8264337 7.1086807 -200 45 -200 45 -200 45
3171670011.6686 -4.8375764 7.113131 -200 45 -200 45 -200 45
3172670128.3547 -4.8428993 7.1198387 -200 45 -200 45 -200 45
3173670245.0408 -4.8478971 7.1303377 -200 45 -200 45 -200 45
3174670361.727 -4.8529501 7.1190701 -200 45 -200 45 -200 45
3175670478.4131 -4.8594804 7.1347141 -200 45 -200 45 -200 45
3176670595.0992 -4.8668313 7.1316895 -200 45 -200 45 -200 45
3177670711.7853 -4.8712482 7.120954 -200 45 -200 45 -200 45
3178670828.4714 -4.8748484 7.1097369 -200 45 -200 45 -200 45
3179670945.1575 -4.884378 7.1068673 -200 45 -200 45 -200 45
3180671061.8436 -4.8950458 7.1141462 -200 45 -200 45 -200 45
3181671178.5298 -4.907279 7.1448269 -200 45 -200 45 -200 45
3182671295.2159 -4.9198227 7.1414318 -200 45 -200 45 -200 45
3183671411.902 -4.9220953 7.1304736 -200 45 -200 45 -200 45
3184671528.5881 -4.9264598 7.1201358 -200 45 -200 45 -200 45
3185671645.2742 -4.9343853 7.1066098 -200 45 -200 45 -200 45
3186671761.9603 -4.946578 7.1209373 -200 45 -200 45 -200 45
3187671878.6464 -4.961988 7.1261086 -200 45 -200 45 -200 45
3188671995.3326 -4.9723983 7.1496553 -200 45 -200 45 -200 45
3189672112.0187 -4.9845777 7.1533551 -200 45 -200 45 -200 45
3190672228.7048 -4.9972959 7.1604829 -200 45 -200 45 -200 45
3191672345.3909 -5.0133266 7.1679454 -200 45 -200 45 -200 45
3192672462.077 -5.0285878 7.1650348 -200 45 -200 45 -200 45
3193672578.7631 -5.0393786 7.1366258 -200 45 -200 45 -200 45
3194672695.4492 -5.0578613 7.1474996 -200 45 -200 45 -200 45
3195672812.1354 -5.0772839 7.1797423 -200 45 -200 45 -200 45
3196672928.8215 -5.1042371 7.2024293 -200 45 -200 45 -200 45
3197673045.5076 -5.1343799 7.264843 -200 45 -200 45 -200 45
3198673162.1937 -5.1600828 7.2874875 -200 45 -200 45 -200 45
3199673278.8798 -5.1819582 7.3395009 -200 45 -200 45 -200 45
3200673395.5659 -5.2060289 7.4079165 -200 45 -200 45 -200 45
3201673512.252 -5.2350268 7.4769773 -200 45 -200 45 -200 45
3202673628.9382 -5.2737751 7.5895305 -200 45 -200 45 -200 45
3203673745.6243 -5.3108964 7.7381368 -200 45 -200 45 -200 45
3204673862.3104 -5.3501587 7.9235539 -200 45 -200 45 -200 45
3205673978.9965 -5.3861437 8.153986 -200 45 -200 45 -200 45
3206674095.6826 -5.4270005 8.4441643 -200 45 -200 45 -200 45
3207674212.3687 -5.4654593 8.7982197 -200 45 -200 45 -200 45
3208674329.0548 -5.4959421 9.2040977 -200 45 -200 45 -200 45
3209674445.741 -5.5133524 9.6721687 -200 45 -200 45 -200 45
3210674562.4271 -5.5186462 10.188412 -200 45 -200 45 -200 45
3211674679.1132 -5.5113273 10.73395 -200 45 -200 45 -200 45
3212674795.7993 -5.4909544 11.273279 -200 45 -200 45 -200 45
3213674912.4854 -5.4619269 11.771555 -200 45 -200 45 -200 45
3214675029.1715 -5.4172521 12.176116 -200 45 -200 45 -200 45
3215675145.8576 -5.3608589 12.524199 -200 45 -200 45 -200 45
3216675262.5438 -5.301229 12.815008 -200 45 -200 45 -200 45
3217675379.2299 -5.2362714 13.026365 -200 45 -200 45 -200 45
3218675495.916 -5.1796021 13.178556 -200 45 -200 45 -200 45
3219675612.6021 -5.1243415 13.247217 -200 45 -200 45 -200 45
3220675729.2882 -5.071219 13.301826 -200 45 -200 45 -200 45
3221675845.9743 -5.0233445 13.313194 -200 45 -200 45 -200 45
3222675962.6604 -4.9776034 13.315579 -200 45 -200 45 -200 45
3223676079.3466 -4.9380245 13.308718 -200 45 -200 45 -200 45
3224676196.0327 -4.8933229 13.256707 -200 45 -200 45 -200 45
3225676312.7188 -4.8511767 13.153749 -200 45 -200 45 -200 45
3226676429.4049 -4.8136892 13.0334 -200 45 -200 45 -200 45
3227676546.091 -4.7879405 12.89925 -200 45 -200 45 -200 45
3228676662.7771 -4.7733722 12.759403 -200 45 -200 45 -200 45
3229676779.4632 -4.7642527 12.665935 -200 45 -200 45 -200 45
3230676896.1494 -4.7565823 12.580275 -200 45 -200 45 -200 45
3231677012.8355 -4.7454648 12.477294 -200 45 -200 45 -200 45
3232677129.5216 -4.7364998 12.436621 -200 45 -200 45 -200 45
3233677246.2077 -4.7319632 12.413536 -200 45 -200 45 -200 45
3234677362.8938 -4.7311182 12.453814 -200 45 -200 45 -200 45
3235677479.5799 -4.7249455 12.490531 -200 45 -200 45 -200 45
3236677596.266 -4.7140689 12.581429 -200 45 -200 45 -200 45
3237677712.9522 -4.6938419 12.661425 -200 45 -200 45 -200 45
3238677829.6383 -4.6698141 12.735506 -200 45 -200 45 -200 45
3239677946.3244 -4.641283 12.793124 -200 45 -200 45 -200 45
3240678063.0105 -4.6111598 12.788582 -200 45 -200 45 -200 45
3241678179.6966 -4.5752611 12.728355 -200 45 -200 45 -200 45
3242678296.3827 -4.543642 12.65845 -200 45 -200 45 -200 45
3243678413.0688 -4.5163212 12.546229 -200 45 -200 45 -200 45
3244678529.755 -4.4965887 12.445979 -200 45 -200 45 -200 45
3245678646.4411 -4.4833851 12.345306 -200 45 -200 45 -200 45
3246678763.1272 -4.4688034 12.218887 -200 45 -200 45 -200 45
3247678879.8133 -4.450768 12.098777 -200 45 -200 45 -200 45
3248678996.4994 -4.4305348 11.98933 -200 45 -200 45 -200 45
3249679113.1855 -4.4145246 11.907449 -200 45 -200 45 -200 45
3250679229.8716 -4.4037094 11.826142 -200 45 -200 45 -200 45
3251679346.5578 -4.3866124 11.74445 -200 45 -200 45 -200 45
3252679463.2439 -4.3683634 11.634453 -200 45 -200 45 -200 45
3253679579.93 -4.3454928 11.484541 -200 45 -200 45 -200 45
3254679696.6161 -4.32902 11.314599 -200 45 -200 45 -200 45
3255679813.3022 -4.3188438 11.119273 -200 45 -200 45 -200 45
3256679929.9883 -4.3115678 10.891701 -200 45 -200 45 -200 45
3257680046.6744 -4.3063235 10.655395 -200 45 -200 45 -200 45
3258680163.3606 -4.3085217 10.461999 -200 45 -200 45 -200 45
3259680280.0467 -4.3163667 10.287988 -200 45 -200 45 -200 45
3260680396.7328 -4.3338642 10.160353 -200 45 -200 45 -200 45
3261680513.4189 -4.3454328 10.023789 -200 45 -200 45 -200 45
3262680630.105 -4.3563395 9.8988638 -200 45 -200 45 -200 45
3263680746.7911 -4.3635359 9.769146 -200 45 -200 45 -200 45
3264680863.4772 -4.3702588 9.6739321 -200 45 -200 45 -200 45
3265680980.1634 -4.3828893 9.5832291 -200 45 -200 45 -200 45
3266681096.8495 -4.3983178 9.5266399 -200 45 -200 45 -200 45
3267681213.5356 -4.4118843 9.4669266 -200 45 -200 45 -200 45
3268681330.2217 -4.4232278 9.4330959 -200 45 -200 45 -200 45
3269681446.9078 -4.4313941 9.3685942 -200 45 -200 45 -200 45
3270681563.5939 -4.4445925 9.3466654 -200 45 -200 45 -200 45
3271681680.28 -4.4540243 9.3105812 -200 45 -200 45 -200 45
3272681796.9662 -4.462009 9.2628422 -200 45 -200 45 -200 45
3273681913.6523 -4.4686017 9.2158194 -200 45 -200 45 -200 45
3274682030.3384 -4.4761 9.1679296 -200 45 -200 45 -200 45
3275682147.0245 -4.4873881 9.1647768 -200 45 -200 45 -200 45
3276682263.7106 -4.4992385 9.1720963 -200 45 -200 45 -200 45
3277682380.3967 -4.5126338 9.1855364 -200 45 -200 45 -200 45
3278682497.0828 -4.5152769 9.1493416 -200 45 -200 45 -200 45
3279682613.769 -4.519206 9.1133003 -200 45 -200 45 -200 45
3280682730.4551 -4.5218244 9.0925703 -200 45 -200 45 -200 45
3281682847.1412 -4.5271254 9.0710258 -200 45 -200 45 -200 45
3282682963.8273 -4.5382423 9.0590277 -200 45 -200 45 -200 45
3283683080.5134 -4.5470228 9.0540314 -200 45 -200 45 -200 45
3284683197.1995 -4.5513816 9.0513239 -200 45 -200 45 -200 45
3285683313.8856 -4.5586109 9.03654 -200 45 -200 45 -200 45
3286683430.5718 -4.5662303 9.0339537 -200 45 -200 45 -200 45
3287683547.2579 -4.5731583 9.0444107 -200 45 -200 45 -200 45
3288683663.944 -4.5782251 9.0318108 -200 45 -200 45 -200 45
3289683780.6301 -4.5797477 9.0009184 -200 45 -200 45 -200 45
3290683897.3162 -4.5840077 8.9847145 -200 45 -200 45 -200 45
3291684014.0023 -4.5911908 8.9808674 -200 45 -200 45 -200 45
3292684130.6884 -4.6025033 9.0268841 -200 45 -200 45 -200 45
3293684247.3746 -4.6124473 9.023263 -200 45 -200 45 -200 45
3294684364.0607 -4.6149912 9.0334005 -200 45 -200 45 -200 45
3295684480.7468 -4.613987 9.0132198 -200 45 -200 45 -200 45
3296684597.4329 -4.614656 9.0083141 -200 45 -200 45 -200 45
3297684714.119 -4.6193542 8.9989233 -200 45 -200 45 -200 45
3298684830.8051 -4.6286464 9.0061865 -200 45 -200 45 -200 45
3299684947.4912 -4.6339126 9.001833 -200 45 -200 45 -200 45
3300685064.1774 -4.6386232 9.0180931 -200 45 -200 45 -200 45
3301685180.8635 -4.6427836 9.0261688 -200 45 -200 45 -200 45
3302685297.5496 -4.6470928 9.0264158 -200 45 -200 45 -200 45
3303685414.2357 -4.6556816 9.0312128 -200 45 -200 45 -200 45
3304685530.9218 -4.6596904 9.0316534 -200 45 -200 45 -200 45
3305685647.6079 -4.6591477 9.0139828 -200 45 -200 45 -200 45
3306685764.294 -4.6618485 8.9916401 -200 45 -200 45 -200 45
3307685880.9802 -4.6723375 9.0025883 -200 45 -200 45 -200 45
3308685997.6663 -4.6793985 9.0368271 -200 45 -200 45 -200 45
3309686114.3524 -4.6862054 9.0523834 -200 45 -200 45 -200 45
3310686231.0385 -4.6945567 9.0534325 -200 45 -200 45 -200 45
3311686347.7246 -4.6946363 9.0316372 -200 45 -200 45 -200 45
3312686464.4107 -4.6962233 9.0387106 -200 45 -200 45 -200 45
3313686581.0968 -4.6990643 9.0189857 -200 45 -200 45 -200 45
3314686697.783 -4.7090445 9.0268145 -200 45 -200 45 -200 45
3315686814.4691 -4.7184978 9.028326 -200 45 -200 45 -200 45
3316686931.1552 -4.7234969 9.034771 -200 45 -200 45 -200 45
3317687047.8413 -4.7313242 9.0493402 -200 45 -200 45 -200 45
3318687164.5274 -4.7404833 9.0711966 -200 45 -200 45 -200 45
3319687281.2135 -4.7493062 9.072567 -200 45 -200 45 -200 45
3320687397.8997 -4.7573013 9.0773211 -200 45 -200 45 -200 45
3321687514.5858 -4.7619157 9.064003 -200 45 -200 45 -200 45
3322687631.2719 -4.7718563 9.0809441 -200 45 -200 45 -200 45
3323687747.958 -4.7859902 9.1331959 -200 45 -200 45 -200 45
3324687864.6441 -4.8003998 9.1741066 -200 45 -200 45 -200 45
3325687981.3302 -4.8148174 9.2453518 -200 45 -200 45 -200 45
3326688098.0163 -4.8255706 9.2921228 -200 45 -200 45 -200 45
3327688214.7025 -4.8314548 9.3110104 -200 45 -200 45 -200 45
3328688331.3886 -4.83814 9.3717661 -200 45 -200 45 -200 45
3329688448.0747 -4.8528571 9.445961 -200 45 -200 45 -200 45
3330688564.7608 -4.8714819 9.5555487 -200 45 -200 45 -200 45
3331688681.4469 -4.885808 9.7060776 -200 45 -200 45 -200 45
3332688798.133 -4.8933964 9.8927698 -200 45 -200 45 -200 45
3333688914.8191 -4.8931627 10.104564 -200 45 -200 45 -200 45
3334689031.5053 -4.8878684 10.271922 -200 45 -200 45 -200 45
3335689148.1914 -4.8775024 10.470438 -200 45 -200 45 -200 45
3336689264.8775 -4.8614492 10.58752 -200 45 -200 45 -200 45
3337689381.5636 -4.8415155 10.698476 -200 45 -200 45 -200 45
3338689498.2497 -4.8228798 10.788715 -200 45 -200 45 -200 45
3339689614.9358 -4.8035645 10.907934 -200 45 -200 45 -200 45
3340689731.6219 -4.784122 10.997065 -200 45 -200 45 -200 45
3341689848.3081 -4.7627048 11.019557 -200 45 -200 45 -200 45
3342689964.9942 -4.7349472 10.989345 -200 45 -200 45 -200 45
3343690081.6803 -4.7099309 10.922456 -200 45 -200 45 -200 45
3344690198.3664 -4.689424 10.851675 -200 45 -200 45 -200 45
3345690315.0525 -4.6755319 10.75915 -200 45 -200 45 -200 45
3346690431.7386 -4.671278 10.714934 -200 45 -200 45 -200 45
3347690548.4247 -4.6651254 10.644188 -200 45 -200 45 -200 45
3348690665.1109 -4.6566467 10.583662 -200 45 -200 45 -200 45
3349690781.797 -4.6557794 10.535486 -200 45 -200 45 -200 45
3350690898.4831 -4.6492939 10.480708 -200 45 -200 45 -200 45
3351691015.1692 -4.6514091 10.444115 -200 45 -200 45 -200 45
3352691131.8553 -4.651763 10.374749 -200 45 -200 45 -200 45
3353691248.5414 -4.6465092 10.301532 -200 45 -200 45 -200 45
3354691365.2275 -4.6477098 10.266069 -200 45 -200 45 -200 45
3355691481.9137 -4.6519217 10.235782 -200 45 -200 45 -200 45
3356691598.5998 -4.6585679 10.231325 -200 45 -200 45 -200 45
3357691715.2859 -4.6668692 10.223194 -200 45 -200 45 -200 45
3358691831.972 -4.6658998 10.211302 -200 45 -200 45 -200 45
3359691948.6581 -4.6612043 10.18322 -200 45 -200 45 -200 45
3360692065.3442 -4.6593876 10.15354 -200 45 -200 45 -200 45
3361692182.0303 -4.6588335 10.120725 -200 45 -200 45 -200 45
3362692298.7165 -4.6642604 10.139761 -200 45 -200 45 -200 45
3363692415.4026 -4.6637578 10.139471 -200 45 -200 45 -200 45
3364692532.0887 -4.6632099 10.125031 -200 45 -200 45 -200 45
3365692648.7748 -4.6618052 10.122942 -200 45 -200 45 -200 45
3366692765.4609 -4.660831 10.113446 -200 45 -200 45 -200 45
3367692882.147 -4.6653104 10.098904 -200 45 -200 45 -200 45
3368692998.8331 -4.6613107 10.067198 -200 45 -200 45 -200 45
3369693115.5193 -4.6579165 10.008636 -200 45 -200 45 -200 45
3370693232.2054 -4.6597872 9.9975376 -200 45 -200 45 -200 45
3371693348.8915 -4.661984 9.9783239 -200 45 -200 45 -200 45
3372693465.5776 -4.6686049 9.9800558 -200 45 -200 45 -200 45
3373693582.2637 -4.674655 9.9594975 -200 45 -200 45 -200 45
3374693698.9498 -4.6762428 9.9392576 -200 45 -200 45 -200 45
3375693815.6359 -4.6736445 9.8889704 -200 45 -200 45 -200 45
3376693932.3221 -4.6738629 9.8622904 -200 45 -200 45 -200 45
3377694049.0082 -4.678092 9.832942 -200 45 -200 45 -200 45
3378694165.6943 -4.6860938 9.8379984 -200 45 -200 45 -200 45
3379694282.3804 -4.6934533 9.8249378 -200 45 -200 45 -200 45
3380694399.0665 -4.6961031 9.8222437 -200 45 -200 45 -200 45
3381694515.7526 -4.7003651 9.8474674 -200 45 -200 45 -200 45
3382694632.4387 -4.7026839 9.8424082 -200 45 -200 45 -200 45
3383694749.1249 -4.710535 9.8681879 -200 45 -200 45 -200 45
3384694865.811 -4.7135773 9.8652697 -200 45 -200 45 -200 45
3385694982.4971 -4.7107434 9.8470621 -200 45 -200 45 -200 45
3386695099.1832 -4.7132425 9.8509207 -200 45 -200 45 -200 45
3387695215.8693 -4.7184701 9.8852434 -200 45 -200 45 -200 45
3388695332.5554 -4.7267947 9.8990984 -200 45 -200 45 -200 45
3389695449.2415 -4.7295241 9.9249992 -200 45 -200 45 -200 45
3390695565.9277 -4.7296453 9.9215221 -200 45 -200 45 -200 45
3391695682.6138 -4.7251515 9.8965425 -200 45 -200 45 -200 45
3392695799.2999 -4.7250962 9.8967867 -200 45 -200 45 -200 45
3393695915.986 -4.7255893 9.8980932 -200 45 -200 45 -200 45
3394696032.6721 -4.7322268 9.9171419 -200 45 -200 45 -200 45
3395696149.3582 -4.7347584 9.9260397 -200 45 -200 45 -200 45
3396696266.0443 -4.734077 9.9207144 -200 45 -200 45 -200 45
3397696382.7305 -4.7385759 9.9262524 -200 45 -200 45 -200 45
3398696499.4166 -4.7391558 9.9597635 -200 45 -200 45 -200 45
3399696616.1027 -4.7450714 9.9410515 -200 45 -200 45 -200 45
3400696732.7888 -4.7440791 9.9313698 -200 45 -200 45 -200 45
3401696849.4749 -4.7422471 9.910634 -200 45 -200 45 -200 45
3402696966.161 -4.74336 9.928956 -200 45 -200 45 -200 45
3403697082.8471 -4.7480602 9.9419003 -200 45 -200 45 -200 45
3404697199.5333 -4.7578411 9.96099 -200 45 -200 45 -200 45
3405697316.2194 -4.7624111 9.9907742 -200 45 -200 45 -200 45
3406697432.9055 -4.7618833 9.9934092 -200 45 -200 45 -200 45
3407697549.5916 -4.756988 9.982172 -200 45 -200 45 -200 45
3408697666.2777 -4.7556219 9.9700956 -200 45 -200 45 -200 45
3409697782.9638 -4.7567482 9.9600115 -200 45 -200 45 -200 45
3410697899.6499 -4.7637401 9.9873667 -200 45 -200 45 -200 45
3411698016.3361 -4.7681031 10.005257 -200 45 -200 45 -200 45
3412698133.0222 -4.7669344 10.001651 -200 45 -200 45 -200 45
3413698249.7083 -4.7697568 10.022706 -200 45 -200 45 -200 45
3414698366.3944 -4.7703276 10.027383 -200 45 -200 45 -200 45
3415698483.0805 -4.7741137 10.032414 -200 45 -200 45 -200 45
3416698599.7666 -4.7737932 10.030798 -200 45 -200 45 -200 45
3417698716.4527 -4.7729411 10.01777 -200 45 -200 45 -200 45
3418698833.1389 -4.7761922 10.035873 -200 45 -200 45 -200 45
3419698949.825 -4.7792211 10.048302 -200 45 -200 45 -200 45
3420699066.5111 -4.7889371 10.070689 -200 45 -200 45 -200 45
3421699183.1972 -4.7910204 10.082809 -200 45 -200 45 -200 45
3422699299.8833 -4.7901759 10.08664 -200 45 -200 45 -200 45
3423699416.5694 -4.7841692 10.085748 -200 45 -200 45 -200 45
3424699533.2555 -4.7848425 10.092887 -200 45 -200 45 -200 45
3425699649.9417 -4.7855887 10.080498 -200 45 -200 45 -200 45
3426699766.6278 -4.7931533 10.110767 -200 45 -200 45 -200 45
3427699883.3139 -4.7950807 10.105985 -200 45 -200 45 -200 45
3428700000 -4.7934108 10.111472 -200 45 -200 45 -200 45
3429700116.6861 -4.7981024 10.129106 -200 45 -200 45 -200 45
3430700233.3722 -4.8008924 10.142498 -200 45 -200 45 -200 45
3431700350.0583 -4.8029404 10.162728 -200 45 -200 45 -200 45
3432700466.7445 -4.8006372 10.137098 -200 45 -200 45 -200 45
3433700583.4306 -4.8009691 10.140401 -200 45 -200 45 -200 45
3434700700.1167 -4.8019056 10.154434 -200 45 -200 45 -200 45
3435700816.8028 -4.8077435 10.172076 -200 45 -200 45 -200 45
3436700933.4889 -4.8169179 10.198936 -200 45 -200 45 -200 45
3437701050.175 -4.817533 10.21562 -200 45 -200 45 -200 45
3438701166.8611 -4.8171229 10.216026 -200 45 -200 45 -200 45
3439701283.5473 -4.8117862 10.210163 -200 45 -200 45 -200 45
3440701400.2334 -4.8113222 10.206723 -200 45 -200 45 -200 45
3441701516.9195 -4.8112049 10.203039 -200 45 -200 45 -200 45
3442701633.6056 -4.8191385 10.231627 -200 45 -200 45 -200 45
3443701750.2917 -4.822165 10.248355 -200 45 -200 45 -200 45
3444701866.9778 -4.8199892 10.244665 -200 45 -200 45 -200 45
3445701983.6639 -4.8227324 10.275905 -200 45 -200 45 -200 45
3446702100.3501 -4.8251009 10.289334 -200 45 -200 45 -200 45
3447702217.0362 -4.8281231 10.298899 -200 45 -200 45 -200 45
3448702333.7223 -4.8267159 10.287472 -200 45 -200 45 -200 45
3449702450.4084 -4.8265481 10.275625 -200 45 -200 45 -200 45
3450702567.0945 -4.8272448 10.286513 -200 45 -200 45 -200 45
3451702683.7806 -4.8315377 10.320278 -200 45 -200 45 -200 45
3452702800.4667 -4.8398547 10.336919 -200 45 -200 45 -200 45
3453702917.1529 -4.8417025 10.359047 -200 45 -200 45 -200 45
3454703033.839 -4.8398085 10.360362 -200 45 -200 45 -200 45
3455703150.5251 -4.8358259 10.344584 -200 45 -200 45 -200 45
3456703267.2112 -4.8354845 10.343032 -200 45 -200 45 -200 45
3457703383.8973 -4.8373809 10.353518 -200 45 -200 45 -200 45
3458703500.5834 -4.8430061 10.365758 -200 45 -200 45 -200 45
3459703617.2695 -4.8447623 10.376156 -200 45 -200 45 -200 45
3460703733.9557 -4.8434377 10.391006 -200 45 -200 45 -200 45
3461703850.6418 -4.8453445 10.403818 -200 45 -200 45 -200 45
3462703967.3279 -4.8492761 10.438614 -200 45 -200 45 -200 45
3463704084.014 -4.8504944 10.427041 -200 45 -200 45 -200 45
3464704200.7001 -4.8495827 10.438726 -200 45 -200 45 -200 45
3465704317.3862 -4.849401 10.419065 -200 45 -200 45 -200 45
3466704434.0723 -4.8487267 10.414412 -200 45 -200 45 -200 45
3467704550.7585 -4.8566771 10.44838 -200 45 -200 45 -200 45
3468704667.4446 -4.8609171 10.506232 -200 45 -200 45 -200 45
3469704784.1307 -4.8654041 10.491246 -200 45 -200 45 -200 45
3470704900.8168 -4.8618336 10.496333 -200 45 -200 45 -200 45
3471705017.5029 -4.8590841 10.4846 -200 45 -200 45 -200 45
3472705134.189 -4.8564205 10.4922 -200 45 -200 45 -200 45
3473705250.8751 -4.8582826 10.493997 -200 45 -200 45 -200 45
3474705367.5613 -4.8658342 10.515227 -200 45 -200 45 -200 45
3475705484.2474 -4.8645229 10.516222 -200 45 -200 45 -200 45
3476705600.9335 -4.8681731 10.544311 -200 45 -200 45 -200 45
3477705717.6196 -4.8680286 10.556818 -200 45 -200 45 -200 45
3478705834.3057 -4.8713403 10.563328 -200 45 -200 45 -200 45
3479705950.9918 -4.8723907 10.572564 -200 45 -200 45 -200 45
3480706067.6779 -4.872108 10.565968 -200 45 -200 45 -200 45
3481706184.3641 -4.8698206 10.568185 -200 45 -200 45 -200 45
3482706301.0502 -4.8714666 10.580913 -200 45 -200 45 -200 45
3483706417.7363 -4.8776226 10.610647 -200 45 -200 45 -200 45
3484706534.4224 -4.8847551 10.631064 -200 45 -200 45 -200 45
3485706651.1085 -4.8876743 10.637235 -200 45 -200 45 -200 45
3486706767.7946 -4.8832841 10.650638 -200 45 -200 45 -200 45
3487706884.4807 -4.8787241 10.651167 -200 45 -200 45 -200 45
3488707001.1669 -4.8761601 10.639775 -200 45 -200 45 -200 45
3489707117.853 -4.880064 10.639503 -200 45 -200 45 -200 45
3490707234.5391 -4.8868117 10.666034 -200 45 -200 45 -200 45
3491707351.2252 -4.8869567 10.6775 -200 45 -200 45 -200 45
3492707467.9113 -4.8879595 10.687249 -200 45 -200 45 -200 45
3493707584.5974 -4.8901711 10.696554 -200 45 -200 45 -200 45
3494707701.2835 -4.8921561 10.712389 -200 45 -200 45 -200 45
3495707817.9697 -4.8911762 10.725155 -200 45 -200 45 -200 45
3496707934.6558 -4.8938537 10.705285 -200 45 -200 45 -200 45
3497708051.3419 -4.8897514 10.714914 -200 45 -200 45 -200 45
3498708168.028 -4.8925509 10.727002 -200 45 -200 45 -200 45
3499708284.7141 -4.8967385 10.747315 -200 45 -200 45 -200 45
3500708401.4002 -4.9040813 10.776279 -200 45 -200 45 -200 45
3501708518.0863 -4.9064531 10.799499 -200 45 -200 45 -200 45
3502708634.7725 -4.9010148 10.794193 -200 45 -200 45 -200 45
3503708751.4586 -4.8986554 10.78869 -200 45 -200 45 -200 45
3504708868.1447 -4.8961339 10.792938 -200 45 -200 45 -200 45
3505708984.8308 -4.9011569 10.805622 -200 45 -200 45 -200 45
3506709101.5169 -4.9058032 10.810877 -200 45 -200 45 -200 45
3507709218.203 -4.9077001 10.833308 -200 45 -200 45 -200 45
3508709334.8891 -4.9073577 10.836904 -200 45 -200 45 -200 45
3509709451.5753 -4.908648 10.842667 -200 45 -200 45 -200 45
3510709568.2614 -4.912394 10.867657 -200 45 -200 45 -200 45
3511709684.9475 -4.9117923 10.878334 -200 45 -200 45 -200 45
3512709801.6336 -4.9126697 10.857653 -200 45 -200 45 -200 45
3513709918.3197 -4.9102926 10.846004 -200 45 -200 45 -200 45
3514710035.0058 -4.9127703 10.877507 -200 45 -200 45 -200 45
3515710151.6919 -4.9182563 10.904989 -200 45 -200 45 -200 45
3516710268.3781 -4.9221678 10.943444 -200 45 -200 45 -200 45
3517710385.0642 -4.9248219 10.946876 -200 45 -200 45 -200 45
3518710501.7503 -4.9248533 10.935808 -200 45 -200 45 -200 45
3519710618.4364 -4.9193625 10.940712 -200 45 -200 45 -200 45
3520710735.1225 -4.9171634 10.930385 -200 45 -200 45 -200 45
3521710851.8086 -4.9227142 10.935707 -200 45 -200 45 -200 45
3522710968.4947 -4.9268079 10.970129 -200 45 -200 45 -200 45
3523711085.1809 -4.9289494 10.965351 -200 45 -200 45 -200 45
3524711201.867 -4.9276485 10.977671 -200 45 -200 45 -200 45
3525711318.5531 -4.9293652 10.988488 -200 45 -200 45 -200 45
3526711435.2392 -4.9301043 11.007305 -200 45 -200 45 -200 45
3527711551.9253 -4.9341345 11.022359 -200 45 -200 45 -200 45
3528711668.6114 -4.9306312 11.018375 -200 45 -200 45 -200 45
3529711785.2975 -4.9306636 11.007094 -200 45 -200 45 -200 45
3530711901.9837 -4.9341407 11.027879 -200 45 -200 45 -200 45
3531712018.6698 -4.9400177 11.044285 -200 45 -200 45 -200 45
3532712135.3559 -4.9449172 11.09093 -200 45 -200 45 -200 45
3533712252.042 -4.9479961 11.108365 -200 45 -200 45 -200 45
3534712368.7281 -4.9444652 11.085752 -200 45 -200 45 -200 45
3535712485.4142 -4.938355 11.098192 -200 45 -200 45 -200 45
3536712602.1004 -4.9387865 11.09446 -200 45 -200 45 -200 45
3537712718.7865 -4.9423037 11.110791 -200 45 -200 45 -200 45
3538712835.4726 -4.9470592 11.120375 -200 45 -200 45 -200 45
3539712952.1587 -4.948143 11.140288 -200 45 -200 45 -200 45
3540713068.8448 -4.9486384 11.140861 -200 45 -200 45 -200 45
3541713185.5309 -4.9495764 11.156011 -200 45 -200 45 -200 45
3542713302.217 -4.95468 11.173552 -200 45 -200 45 -200 45
3543713418.9032 -4.9534435 11.18883 -200 45 -200 45 -200 45
3544713535.5893 -4.9520836 11.168777 -200 45 -200 45 -200 45
3545713652.2754 -4.9497042 11.174315 -200 45 -200 45 -200 45
3546713768.9615 -4.9526572 11.183369 -200 45 -200 45 -200 45
3547713885.6476 -4.9604568 11.21811 -200 45 -200 45 -200 45
3548714002.3337 -4.9653282 11.256846 -200 45 -200 45 -200 45
3549714119.0198 -4.9656372 11.250051 -200 45 -200 45 -200 45
3550714235.706 -4.9623785 11.246431 -200 45 -200 45 -200 45
3551714352.3921 -4.9600706 11.243907 -200 45 -200 45 -200 45
3552714469.0782 -4.9604459 11.249061 -200 45 -200 45 -200 45
3553714585.7643 -4.9626374 11.252333 -200 45 -200 45 -200 45
3554714702.4504 -4.9649444 11.278209 -200 45 -200 45 -200 45
3555714819.1365 -4.968658 11.297844 -200 45 -200 45 -200 45
3556714935.8226 -4.9709201 11.297796 -200 45 -200 45 -200 45
3557715052.5088 -4.9709153 11.312568 -200 45 -200 45 -200 45
3558715169.1949 -4.9725213 11.316901 -200 45 -200 45 -200 45
3559715285.881 -4.9737172 11.324271 -200 45 -200 45 -200 45
3560715402.5671 -4.970118 11.309196 -200 45 -200 45 -200 45
3561715519.2532 -4.9713473 11.319655 -200 45 -200 45 -200 45
3562715635.9393 -4.9723401 11.326492 -200 45 -200 45 -200 45
3563715752.6254 -4.979373 11.364205 -200 45 -200 45 -200 45
3564715869.3116 -4.9874372 11.400064 -200 45 -200 45 -200 45
3565715985.9977 -4.9886642 11.411085 -200 45 -200 45 -200 45
3566716102.6838 -4.9825902 11.405507 -200 45 -200 45 -200 45
3567716219.3699 -4.9798431 11.390716 -200 45 -200 45 -200 45
3568716336.056 -4.9789743 11.382339 -200 45 -200 45 -200 45
3569716452.7421 -4.9834323 11.395396 -200 45 -200 45 -200 45
3570716569.4282 -4.9883552 11.404749 -200 45 -200 45 -200 45
3571716686.1144 -4.9888835 11.428086 -200 45 -200 45 -200 45
3572716802.8005 -4.9899135 11.444522 -200 45 -200 45 -200 45
3573716919.4866 -4.9899468 11.465745 -200 45 -200 45 -200 45
3574717036.1727 -4.9932284 11.471689 -200 45 -200 45 -200 45
3575717152.8588 -4.9938407 11.473311 -200 45 -200 45 -200 45
3576717269.5449 -4.9924974 11.452365 -200 45 -200 45 -200 45
3577717386.231 -4.9920316 11.460216 -200 45 -200 45 -200 45
3578717502.9172 -4.9962788 11.483505 -200 45 -200 45 -200 45
3579717619.6033 -5.0027199 11.509217 -200 45 -200 45 -200 45
3580717736.2894 -5.0059476 11.518819 -200 45 -200 45 -200 45
3581717852.9755 -5.0099888 11.53493 -200 45 -200 45 -200 45
3582717969.6616 -5.0037103 11.54066 -200 45 -200 45 -200 45
3583718086.3477 -5.0009494 11.530266 -200 45 -200 45 -200 45
3584718203.0338 -4.9999161 11.525808 -200 45 -200 45 -200 45
3585718319.72 -5.0066409 11.553326 -200 45 -200 45 -200 45
3586718436.4061 -5.009584 11.562671 -200 45 -200 45 -200 45
3587718553.0922 -5.0097117 11.577207 -200 45 -200 45 -200 45
3588718669.7783 -5.0127339 11.588122 -200 45 -200 45 -200 45
3589718786.4644 -5.0114698 11.604661 -200 45 -200 45 -200 45
3590718903.1505 -5.0164008 11.610765 -200 45 -200 45 -200 45
3591719019.8366 -5.0158634 11.614778 -200 45 -200 45 -200 45
3592719136.5228 -5.0137997 11.593793 -200 45 -200 45 -200 45
3593719253.2089 -5.0149636 11.603153 -200 45 -200 45 -200 45
3594719369.895 -5.019567 11.622261 -200 45 -200 45 -200 45
3595719486.5811 -5.023315 11.663249 -200 45 -200 45 -200 45
3596719603.2672 -5.0312109 11.683043 -200 45 -200 45 -200 45
3597719719.9533 -5.0307817 11.699301 -200 45 -200 45 -200 45
3598719836.6394 -5.0278759 11.679231 -200 45 -200 45 -200 45
3599719953.3256 -5.0250306 11.681756 -200 45 -200 45 -200 45
3600720070.0117 -5.0217142 11.650853 -200 45 -200 45 -200 45
3601720186.6978 -5.0272651 11.687796 -200 45 -200 45 -200 45
3602720303.3839 -5.0309339 11.704772 -200 45 -200 45 -200 45
3603720420.07 -5.0332189 11.72193 -200 45 -200 45 -200 45
3604720536.7561 -5.0333438 11.740355 -200 45 -200 45 -200 45
3605720653.4422 -5.035737 11.754228 -200 45 -200 45 -200 45
3606720770.1284 -5.0408039 11.761426 -200 45 -200 45 -200 45
3607720886.8145 -5.0384917 11.753156 -200 45 -200 45 -200 45
3608721003.5006 -5.0370555 11.757436 -200 45 -200 45 -200 45
3609721120.1867 -5.0373359 11.771004 -200 45 -200 45 -200 45
3610721236.8728 -5.0442324 11.791746 -200 45 -200 45 -200 45
3611721353.5589 -5.0510502 11.80755 -200 45 -200 45 -200 45
3612721470.245 -5.0540848 11.832919 -200 45 -200 45 -200 45
3613721586.9312 -5.0541143 11.840701 -200 45 -200 45 -200 45
3614721703.6173 -5.0523033 11.833001 -200 45 -200 45 -200 45
3615721820.3034 -5.0500398 11.825208 -200 45 -200 45 -200 45
3616721936.9895 -5.0508437 11.827858 -200 45 -200 45 -200 45
3617722053.6756 -5.0564647 11.850988 -200 45 -200 45 -200 45
3618722170.3617 -5.0587091 11.860701 -200 45 -200 45 -200 45
3619722287.0478 -5.0608969 11.88266 -200 45 -200 45 -200 45
3620722403.734 -5.0634279 11.905215 -200 45 -200 45 -200 45
3621722520.4201 -5.0652919 11.924523 -200 45 -200 45 -200 45
3622722637.1062 -5.0701566 11.941977 -200 45 -200 45 -200 45
3623722753.7923 -5.0722947 11.940642 -200 45 -200 45 -200 45
3624722870.4784 -5.0695953 11.919324 -200 45 -200 45 -200 45
3625722987.1645 -5.0722342 11.943279 -200 45 -200 45 -200 45
3626723103.8506 -5.0767961 11.960445 -200 45 -200 45 -200 45
3627723220.5368 -5.0844221 12.026255 -200 45 -200 45 -200 45
3628723337.2229 -5.0904589 12.036873 -200 45 -200 45 -200 45
3629723453.909 -5.0888453 12.060101 -200 45 -200 45 -200 45
3630723570.5951 -5.0883336 12.064185 -200 45 -200 45 -200 45
3631723687.2812 -5.0840063 12.072646 -200 45 -200 45 -200 45
3632723803.9673 -5.0835447 12.094855 -200 45 -200 45 -200 45
3633723920.6534 -5.0913963 12.130225 -200 45 -200 45 -200 45
3634724037.3396 -5.0928121 12.158314 -200 45 -200 45 -200 45
3635724154.0257 -5.0917892 12.19183 -200 45 -200 45 -200 45
3636724270.7118 -5.0909829 12.213958 -200 45 -200 45 -200 45
3637724387.3979 -5.0910149 12.225821 -200 45 -200 45 -200 45
3638724504.084 -5.0925455 12.241959 -200 45 -200 45 -200 45
3639724620.7701 -5.0896478 12.237324 -200 45 -200 45 -200 45
3640724737.4562 -5.0904016 12.237914 -200 45 -200 45 -200 45
3641724854.1424 -5.0890975 12.242495 -200 45 -200 45 -200 45
3642724970.8285 -5.0920072 12.261963 -200 45 -200 45 -200 45
3643725087.5146 -5.1011524 12.290805 -200 45 -200 45 -200 45
3644725204.2007 -5.1039062 12.306248 -200 45 -200 45 -200 45
3645725320.8868 -5.1045432 12.312946 -200 45 -200 45 -200 45
3646725437.5729 -5.0983858 12.314662 -200 45 -200 45 -200 45
3647725554.259 -5.0972195 12.313724 -200 45 -200 45 -200 45
3648725670.9452 -5.0969582 12.296091 -200 45 -200 45 -200 45
3649725787.6313 -5.1022668 12.32982 -200 45 -200 45 -200 45
3650725904.3174 -5.1067133 12.334932 -200 45 -200 45 -200 45
3651726021.0035 -5.1082587 12.359275 -200 45 -200 45 -200 45
3652726137.6896 -5.1103663 12.373804 -200 45 -200 45 -200 45
3653726254.3757 -5.1117692 12.383947 -200 45 -200 45 -200 45
3654726371.0618 -5.1154842 12.404043 -200 45 -200 45 -200 45
3655726487.748 -5.1156888 12.409692 -200 45 -200 45 -200 45
3656726604.4341 -5.1163621 12.39645 -200 45 -200 45 -200 45
3657726721.1202 -5.1169448 12.39959 -200 45 -200 45 -200 45
3658726837.8063 -5.1210332 12.43005 -200 45 -200 45 -200 45
3659726954.4924 -5.1286821 12.45225 -200 45 -200 45 -200 45
3660727071.1785 -5.1340075 12.484387 -200 45 -200 45 -200 45
3661727187.8646 -5.134213 12.488789 -200 45 -200 45 -200 45
3662727304.5508 -5.1303887 12.482409 -200 45 -200 45 -200 45
3663727421.2369 -5.1341352 12.479553 -200 45 -200 45 -200 45
3664727537.923 -5.135704 12.453835 -200 45 -200 45 -200 45
3665727654.6091 -5.1483822 12.497303 -200 45 -200 45 -200 45
3666727771.2952 -5.155118 12.540564 -200 45 -200 45 -200 45
3667727887.9813 -5.1590233 12.564059 -200 45 -200 45 -200 45
3668728004.6674 -5.1663752 12.599002 -200 45 -200 45 -200 45
3669728121.3536 -5.171247 12.655283 -200 45 -200 45 -200 45
3670728238.0397 -5.181272 12.681476 -200 45 -200 45 -200 45
3671728354.7258 -5.1887579 12.733986 -200 45 -200 45 -200 45
3672728471.4119 -5.1896992 12.788047 -200 45 -200 45 -200 45
3673728588.098 -5.191618 12.872322 -200 45 -200 45 -200 45
3674728704.7841 -5.1977353 12.972567 -200 45 -200 45 -200 45
3675728821.4702 -5.2036314 13.100741 -200 45 -200 45 -200 45
3676728938.1564 -5.1981959 13.18814 -200 45 -200 45 -200 45
3677729054.8425 -5.1920376 13.253754 -200 45 -200 45 -200 45
3678729171.5286 -5.1804204 13.298862 -200 45 -200 45 -200 45
3679729288.2147 -5.1667318 13.347417 -200 45 -200 45 -200 45
3680729404.9008 -5.1591096 13.374669 -200 45 -200 45 -200 45
3681729521.5869 -5.1530318 13.406087 -200 45 -200 45 -200 45
3682729638.273 -5.1480732 13.437069 -200 45 -200 45 -200 45
3683729754.9592 -5.1399932 13.455299 -200 45 -200 45 -200 45
3684729871.6453 -5.1340556 13.472861 -200 45 -200 45 -200 45
3685729988.3314 -5.1289606 13.478648 -200 45 -200 45 -200 45
3686730105.0175 -5.1230969 13.494458 -200 45 -200 45 -200 45
3687730221.7036 -5.1183562 13.467845 -200 45 -200 45 -200 45
3688730338.3897 -5.1091595 13.435117 -200 45 -200 45 -200 45
3689730455.0758 -5.1042705 13.452032 -200 45 -200 45 -200 45
3690730571.762 -5.1038914 13.474414 -200 45 -200 45 -200 45
3691730688.4481 -5.106482 13.508237 -200 45 -200 45 -200 45
3692730805.1342 -5.1046424 13.522511 -200 45 -200 45 -200 45
3693730921.8203 -5.1000776 13.506826 -200 45 -200 45 -200 45
3694731038.5064 -5.0892057 13.499366 -200 45 -200 45 -200 45
3695731155.1925 -5.0816536 13.476524 -200 45 -200 45 -200 45
3696731271.8786 -5.0771103 13.460815 -200 45 -200 45 -200 45
3697731388.5648 -5.0774379 13.451264 -200 45 -200 45 -200 45
3698731505.2509 -5.0761862 13.450457 -200 45 -200 45 -200 45
3699731621.937 -5.0716295 13.438425 -200 45 -200 45 -200 45
3700731738.6231 -5.0711756 13.444188 -200 45 -200 45 -200 45
3701731855.3092 -5.0701613 13.432038 -200 45 -200 45 -200 45
3702731971.9953 -5.0700769 13.416286 -200 45 -200 45 -200 45
3703732088.6814 -5.0658045 13.397986 -200 45 -200 45 -200 45
3704732205.3676 -5.0593452 13.360209 -200 45 -200 45 -200 45
3705732322.0537 -5.0573583 13.350564 -200 45 -200 45 -200 45
3706732438.7398 -5.0560827 13.370069 -200 45 -200 45 -200 45
3707732555.4259 -5.0623713 13.370834 -200 45 -200 45 -200 45
3708732672.112 -5.0602136 13.340243 -200 45 -200 45 -200 45
3709732788.7981 -5.0552588 13.300186 -200 45 -200 45 -200 45
3710732905.4842 -5.0499368 13.262191 -200 45 -200 45 -200 45
3711733022.1704 -5.0466199 13.221685 -200 45 -200 45 -200 45
3712733138.8565 -5.0477185 13.170042 -200 45 -200 45 -200 45
3713733255.5426 -5.0541644 13.168447 -200 45 -200 45 -200 45
3714733372.2287 -5.0579109 13.130069 -200 45 -200 45 -200 45
3715733488.9148 -5.0619345 13.130103 -200 45 -200 45 -200 45
3716733605.6009 -5.063592 13.106823 -200 45 -200 45 -200 45
3717733722.287 -5.0672688 13.094817 -200 45 -200 45 -200 45
3718733838.9732 -5.0712934 13.102195 -200 45 -200 45 -200 45
3719733955.6593 -5.073164 13.073265 -200 45 -200 45 -200 45
3720734072.3454 -5.0710936 13.056418 -200 45 -200 45 -200 45
3721734189.0315 -5.0788879 13.038859 -200 45 -200 45 -200 45
3722734305.7176 -5.0816851 13.057361 -200 45 -200 45 -200 45
3723734422.4037 -5.0917797 13.08636 -200 45 -200 45 -200 45
3724734539.0898 -5.0963287 13.098594 -200 45 -200 45 -200 45
3725734655.776 -5.0969839 13.08208 -200 45 -200 45 -200 45
3726734772.4621 -5.0940118 13.062908 -200 45 -200 45 -200 45
3727734889.1482 -5.0952578 13.060146 -200 45 -200 45 -200 45
3728735005.8343 -5.0963564 13.061463 -200 45 -200 45 -200 45
3729735122.5204 -5.1046538 13.068209 -200 45 -200 45 -200 45
3730735239.2065 -5.1076779 13.087129 -200 45 -200 45 -200 45
3731735355.8926 -5.1092291 13.102429 -200 45 -200 45 -200 45
3732735472.5788 -5.1125851 13.109137 -200 45 -200 45 -200 45
3733735589.2649 -5.1140213 13.121523 -200 45 -200 45 -200 45
3734735705.951 -5.1191211 13.121756 -200 45 -200 45 -200 45
3735735822.6371 -5.1163096 13.121422 -200 45 -200 45 -200 45
3736735939.3232 -5.1165833 13.09628 -200 45 -200 45 -200 45
3737736056.0093 -5.1185207 13.111404 -200 45 -200 45 -200 45
3738736172.6954 -5.1234326 13.14032 -200 45 -200 45 -200 45
3739736289.3816 -5.1313376 13.180242 -200 45 -200 45 -200 45
3740736406.0677 -5.1349802 13.18505 -200 45 -200 45 -200 45
3741736522.7538 -5.1353621 13.191216 -200 45 -200 45 -200 45
3742736639.4399 -5.1335211 13.177731 -200 45 -200 45 -200 45
3743736756.126 -5.130302 13.170671 -200 45 -200 45 -200 45
3744736872.8121 -5.1336026 13.167787 -200 45 -200 45 -200 45
3745736989.4983 -5.1386571 13.18811 -200 45 -200 45 -200 45
3746737106.1844 -5.1410861 13.204062 -200 45 -200 45 -200 45
3747737222.8705 -5.1404233 13.222799 -200 45 -200 45 -200 45
3748737339.5566 -5.1441727 13.224089 -200 45 -200 45 -200 45
3749737456.2427 -5.1472621 13.249751 -200 45 -200 45 -200 45
3750737572.9288 -5.1498647 13.256682 -200 45 -200 45 -200 45
3751737689.6149 -5.1487904 13.253706 -200 45 -200 45 -200 45
3752737806.3011 -5.1465116 13.229075 -200 45 -200 45 -200 45
3753737922.9872 -5.1482282 13.234917 -200 45 -200 45 -200 45
3754738039.6733 -5.1538815 13.281774 -200 45 -200 45 -200 45
3755738156.3594 -5.162756 13.29812 -200 45 -200 45 -200 45
3756738273.0455 -5.1655235 13.32872 -200 45 -200 45 -200 45
3757738389.7316 -5.1634078 13.313848 -200 45 -200 45 -200 45
3758738506.4177 -5.1608515 13.298165 -200 45 -200 45 -200 45
3759738623.1039 -5.1596217 13.315557 -200 45 -200 45 -200 45
3760738739.79 -5.1627779 13.31946 -200 45 -200 45 -200 45
3761738856.4761 -5.1667776 13.340569 -200 45 -200 45 -200 45
3762738973.1622 -5.1701803 13.343328 -200 45 -200 45 -200 45
3763739089.8483 -5.1702471 13.370836 -200 45 -200 45 -200 45
3764739206.5344 -5.172698 13.379196 -200 45 -200 45 -200 45
3765739323.2205 -5.1731973 13.390891 -200 45 -200 45 -200 45
3766739439.9067 -5.1763539 13.396033 -200 45 -200 45 -200 45
3767739556.5928 -5.1772656 13.373942 -200 45 -200 45 -200 45
3768739673.2789 -5.1741042 13.377036 -200 45 -200 45 -200 45
3769739789.965 -5.1781721 13.401178 -200 45 -200 45 -200 45
3770739906.6511 -5.1824989 13.408013 -200 45 -200 45 -200 45
3771740023.3372 -5.1904464 13.456057 -200 45 -200 45 -200 45
3772740140.0233 -5.1932435 13.460688 -200 45 -200 45 -200 45
3773740256.7095 -5.1899219 13.468406 -200 45 -200 45 -200 45
3774740373.3956 -5.1880474 13.457783 -200 45 -200 45 -200 45
3775740490.0817 -5.1856718 13.465877 -200 45 -200 45 -200 45
3776740606.7678 -5.1910715 13.462819 -200 45 -200 45 -200 45
3777740723.4539 -5.1969352 13.484206 -200 45 -200 45 -200 45
3778740840.14 -5.1965642 13.494001 -200 45 -200 45 -200 45
3779740956.8261 -5.1976495 13.511289 -200 45 -200 45 -200 45
3780741073.5123 -5.200666 13.524818 -200 45 -200 45 -200 45
3781741190.1984 -5.2029209 13.522055 -200 45 -200 45 -200 45
3782741306.8845 -5.2033124 13.53962 -200 45 -200 45 -200 45
3783741423.5706 -5.2031283 13.557214 -200 45 -200 45 -200 45
3784741540.2567 -5.201407 13.533957 -200 45 -200 45 -200 45
3785741656.9428 -5.2066536 13.54252 -200 45 -200 45 -200 45
3786741773.6289 -5.2101254 13.576715 -200 45 -200 45 -200 45
3787741890.3151 -5.2174621 13.593062 -200 45 -200 45 -200 45
3788742007.0012 -5.2203498 13.615949 -200 45 -200 45 -200 45
3789742123.6873 -5.2175407 13.615078 -200 45 -200 45 -200 45
3790742240.3734 -5.2137036 13.594781 -200 45 -200 45 -200 45
3791742357.0595 -5.2151093 13.601115 -200 45 -200 45 -200 45
3792742473.7456 -5.217937 13.597259 -200 45 -200 45 -200 45
3793742590.4317 -5.222261 13.622513 -200 45 -200 45 -200 45
3794742707.1179 -5.2245917 13.636584 -200 45 -200 45 -200 45
3795742823.804 -5.2280297 13.633581 -200 45 -200 45 -200 45
3796742940.4901 -5.2278938 13.664123 -200 45 -200 45 -200 45
3797743057.1762 -5.2321095 13.659724 -200 45 -200 45 -200 45
3798743173.8623 -5.2361846 13.673287 -200 45 -200 45 -200 45
3799743290.5484 -5.2338014 13.66851 -200 45 -200 45 -200 45
3800743407.2345 -5.2343907 13.66744 -200 45 -200 45 -200 45
3801743523.9207 -5.2360306 13.673506 -200 45 -200 45 -200 45
3802743640.6068 -5.2422247 13.718613 -200 45 -200 45 -200 45
3803743757.2929 -5.2482576 13.744529 -200 45 -200 45 -200 45
3804743873.979 -5.2485418 13.745988 -200 45 -200 45 -200 45
3805743990.6651 -5.248579 13.733038 -200 45 -200 45 -200 45
3806744107.3512 -5.2436285 13.741389 -200 45 -200 45 -200 45
3807744224.0373 -5.2468452 13.714606 -200 45 -200 45 -200 45
3808744340.7235 -5.2486138 13.735311 -200 45 -200 45 -200 45
3809744457.4096 -5.2540264 13.762975 -200 45 -200 45 -200 45
3810744574.0957 -5.2555985 13.769387 -200 45 -200 45 -200 45
3811744690.7818 -5.256206 13.781345 -200 45 -200 45 -200 45
3812744807.4679 -5.2588391 13.802226 -200 45 -200 45 -200 45
3813744924.154 -5.2614026 13.806629 -200 45 -200 45 -200 45
3814745040.8401 -5.2620664 13.814989 -200 45 -200 45 -200 45
3815745157.5263 -5.2626662 13.795621 -200 45 -200 45 -200 45
3816745274.2124 -5.2615023 13.79329 -200 45 -200 45 -200 45
3817745390.8985 -5.2655473 13.806485 -200 45 -200 45 -200 45
3818745507.5846 -5.271955 13.840273 -200 45 -200 45 -200 45
3819745624.2707 -5.279273 13.869083 -200 45 -200 45 -200 45
3820745740.9568 -5.2814002 13.863032 -200 45 -200 45 -200 45
3821745857.6429 -5.2787933 13.861856 -200 45 -200 45 -200 45
3822745974.3291 -5.2752032 13.853605 -200 45 -200 45 -200 45
3823746091.0152 -5.2762775 13.848477 -200 45 -200 45 -200 45
3824746207.7013 -5.2800102 13.855421 -200 45 -200 45 -200 45
3825746324.3874 -5.2863193 13.879405 -200 45 -200 45 -200 45
3826746441.0735 -5.2874103 13.896668 -200 45 -200 45 -200 45
3827746557.7596 -5.2892637 13.903082 -200 45 -200 45 -200 45
3828746674.4457 -5.2935791 13.91905 -200 45 -200 45 -200 45
3829746791.1319 -5.2949953 13.931729 -200 45 -200 45 -200 45
3830746907.818 -5.297617 13.93556 -200 45 -200 45 -200 45
3831747024.5041 -5.2949085 13.927357 -200 45 -200 45 -200 45
3832747141.1902 -5.2966342 13.932779 -200 45 -200 45 -200 45
3833747257.8763 -5.2996225 13.953592 -200 45 -200 45 -200 45
3834747374.5624 -5.3062558 13.966432 -200 45 -200 45 -200 45
3835747491.2485 -5.3106108 13.991459 -200 45 -200 45 -200 45
3836747607.9347 -5.3174748 13.999125 -200 45 -200 45 -200 45
3837747724.6208 -5.3147898 14.009746 -200 45 -200 45 -200 45
3838747841.3069 -5.3117576 13.997032 -200 45 -200 45 -200 45
3839747957.993 -5.3132329 13.986403 -200 45 -200 45 -200 45
3840748074.6791 -5.3174663 14.00378 -200 45 -200 45 -200 45
3841748191.3652 -5.3234553 14.015003 -200 45 -200 45 -200 45
3842748308.0513 -5.3249359 14.036057 -200 45 -200 45 -200 45
3843748424.7375 -5.3265796 14.03655 -200 45 -200 45 -200 45
3844748541.4236 -5.3278675 14.059083 -200 45 -200 45 -200 45
3845748658.1097 -5.3334703 14.053967 -200 45 -200 45 -200 45
3846748774.7958 -5.3347855 14.072353 -200 45 -200 45 -200 45
3847748891.4819 -5.3356271 14.042323 -200 45 -200 45 -200 45
3848749008.168 -5.3350573 14.057988 -200 45 -200 45 -200 45
3849749124.8541 -5.3390818 14.070488 -200 45 -200 45 -200 45
3850749241.5403 -5.3468618 14.106987 -200 45 -200 45 -200 45
3851749358.2264 -5.3529568 14.132019 -200 45 -200 45 -200 45
3852749474.9125 -5.3576531 14.128968 -200 45 -200 45 -200 45
3853749591.5986 -5.3547816 14.130839 -200 45 -200 45 -200 45
3854749708.2847 -5.3523655 14.103842 -200 45 -200 45 -200 45
3855749824.9708 -5.3545122 14.104473 -200 45 -200 45 -200 45
3856749941.6569 -5.3613529 14.129649 -200 45 -200 45 -200 45
3857750058.3431 -5.3681116 14.149117 -200 45 -200 45 -200 45
3858750175.0292 -5.3716607 14.162484 -200 45 -200 45 -200 45
3859750291.7153 -5.3740845 14.174468 -200 45 -200 45 -200 45
3860750408.4014 -5.3781648 14.179959 -200 45 -200 45 -200 45
3861750525.0875 -5.3828864 14.201861 -200 45 -200 45 -200 45
3862750641.7736 -5.3871031 14.203203 -200 45 -200 45 -200 45
3863750758.4597 -5.3865776 14.182247 -200 45 -200 45 -200 45
3864750875.1459 -5.389111 14.179637 -200 45 -200 45 -200 45
3865750991.832 -5.3932934 14.207231 -200 45 -200 45 -200 45
3866751108.5181 -5.4014649 14.243905 -200 45 -200 45 -200 45
3867751225.2042 -5.4086142 14.276267 -200 45 -200 45 -200 45
3868751341.8903 -5.4129305 14.291691 -200 45 -200 45 -200 45
3869751458.5764 -5.4119296 14.279422 -200 45 -200 45 -200 45
3870751575.2625 -5.4085488 14.266173 -200 45 -200 45 -200 45
3871751691.9487 -5.4107018 14.251123 -200 45 -200 45 -200 45
3872751808.6348 -5.4187713 14.284063 -200 45 -200 45 -200 45
3873751925.3209 -5.4238744 14.293804 -200 45 -200 45 -200 45
3874752042.007 -5.4319811 14.326706 -200 45 -200 45 -200 45
3875752158.6931 -5.4327579 14.324642 -200 45 -200 45 -200 45
3876752275.3792 -5.4400349 14.335889 -200 45 -200 45 -200 45
3877752392.0653 -5.4430552 14.337113 -200 45 -200 45 -200 45
3878752508.7515 -5.4503713 14.331134 -200 45 -200 45 -200 45
3879752625.4376 -5.4522247 14.32492 -200 45 -200 45 -200 45
3880752742.1237 -5.453793 14.325466 -200 45 -200 45 -200 45
3881752858.8098 -5.4636989 14.345263 -200 45 -200 45 -200 45
3882752975.4959 -5.4726233 14.38208 -200 45 -200 45 -200 45
3883753092.182 -5.4865637 14.399231 -200 45 -200 45 -200 45
3884753208.8681 -5.4896264 14.403752 -200 45 -200 45 -200 45
3885753325.5543 -5.4913464 14.406472 -200 45 -200 45 -200 45
3886753442.2404 -5.4938817 14.391979 -200 45 -200 45 -200 45
3887753558.9265 -5.4992375 14.388891 -200 45 -200 45 -200 45
3888753675.6126 -5.5103555 14.417456 -200 45 -200 45 -200 45
3889753792.2987 -5.5184932 14.44653 -200 45 -200 45 -200 45
3890753908.9848 -5.5267196 14.462788 -200 45 -200 45 -200 45
3891754025.6709 -5.5322924 14.498146 -200 45 -200 45 -200 45
3892754142.3571 -5.5417905 14.508621 -200 45 -200 45 -200 45
3893754259.0432 -5.5499911 14.523303 -200 45 -200 45 -200 45
3894754375.7293 -5.55651 14.529769 -200 45 -200 45 -200 45
3895754492.4154 -5.5616293 14.525865 -200 45 -200 45 -200 45
3896754609.1015 -5.5698814 14.539007 -200 45 -200 45 -200 45
3897754725.7876 -5.5822244 14.576647 -200 45 -200 45 -200 45
3898754842.4737 -5.5946765 14.599957 -200 45 -200 45 -200 45
3899754959.1599 -5.6085386 14.63133 -200 45 -200 45 -200 45
3900755075.846 -5.6129994 14.644506 -200 45 -200 45 -200 45
3901755192.5321 -5.6192861 14.632287 -200 45 -200 45 -200 45
3902755309.2182 -5.6249981 14.620932 -200 45 -200 45 -200 45
3903755425.9043 -5.6343069 14.616961 -200 45 -200 45 -200 45
3904755542.5904 -5.6501107 14.632397 -200 45 -200 45 -200 45
3905755659.2765 -5.6703248 14.6316 -200 45 -200 45 -200 45
3906755775.9627 -5.6825533 14.635045 -200 45 -200 45 -200 45
3907755892.6488 -5.699728 14.638339 -200 45 -200 45 -200 45
3908756009.3349 -5.7198629 14.656599 -200 45 -200 45 -200 45
3909756126.021 -5.7453103 14.657378 -200 45 -200 45 -200 45
3910756242.7071 -5.7696824 14.665318 -200 45 -200 45 -200 45
3911756359.3932 -5.7941298 14.675507 -200 45 -200 45 -200 45
3912756476.0793 -5.8251781 14.722545 -200 45 -200 45 -200 45
3913756592.7655 -5.8596253 14.800425 -200 45 -200 45 -200 45
3914756709.4516 -5.9048977 14.913322 -200 45 -200 45 -200 45
3915756826.1377 -5.9501147 15.054888 -200 45 -200 45 -200 45
3916756942.8238 -5.9921632 15.250982 -200 45 -200 45 -200 45
3917757059.5099 -6.0308771 15.476494 -200 45 -200 45 -200 45
3918757176.196 -6.0693436 15.764799 -200 45 -200 45 -200 45
3919757292.8821 -6.1009822 16.169985 -200 45 -200 45 -200 45
3920757409.5683 -6.1301918 16.633028 -200 45 -200 45 -200 45
3921757526.2544 -6.1462231 17.116789 -200 45 -200 45 -200 45
3922757642.9405 -6.1425433 17.603268 -200 45 -200 45 -200 45
3923757759.6266 -6.1281128 18.08057 -200 45 -200 45 -200 45
3924757876.3127 -6.1054354 18.496437 -200 45 -200 45 -200 45
3925757992.9988 -6.0785608 18.873777 -200 45 -200 45 -200 45
3926758109.6849 -6.0459952 19.206503 -200 45 -200 45 -200 45
3927758226.3711 -6.008625 19.470518 -200 45 -200 45 -200 45
3928758343.0572 -5.9729319 19.729145 -200 45 -200 45 -200 45
3929758459.7433 -5.9390931 19.988701 -200 45 -200 45 -200 45
3930758576.4294 -5.9069076 20.238092 -200 45 -200 45 -200 45
3931758693.1155 -5.8742638 20.471306 -200 45 -200 45 -200 45
3932758809.8016 -5.8311048 20.626522 -200 45 -200 45 -200 45
3933758926.4877 -5.7826481 20.768593 -200 45 -200 45 -200 45
3934759043.1739 -5.7355804 20.887154 -200 45 -200 45 -200 45
3935759159.86 -5.6940408 20.973055 -200 45 -200 45 -200 45
3936759276.5461 -5.6534257 21.054167 -200 45 -200 45 -200 45
3937759393.2322 -5.6138573 21.092125 -200 45 -200 45 -200 45
3938759509.9183 -5.5781894 21.117779 -200 45 -200 45 -200 45
3939759626.6044 -5.5439959 21.123909 -200 45 -200 45 -200 45
3940759743.2905 -5.5114279 21.133673 -200 45 -200 45 -200 45
3941759859.9767 -5.4881673 21.131552 -200 45 -200 45 -200 45
3942759976.6628 -5.46031 21.14393 -200 45 -200 45 -200 45
3943760093.3489 -5.4274836 21.176905 -200 45 -200 45 -200 45
3944760210.035 -5.3968024 21.211281 -200 45 -200 45 -200 45
3945760326.7211 -5.3617544 21.246498 -200 45 -200 45 -200 45
3946760443.4072 -5.3298178 21.296532 -200 45 -200 45 -200 45
3947760560.0933 -5.2921972 21.269777 -200 45 -200 45 -200 45
3948760676.7795 -5.2540679 21.204638 -200 45 -200 45 -200 45
3949760793.4656 -5.2146225 21.081812 -200 45 -200 45 -200 45
3950760910.1517 -5.1810164 20.971973 -200 45 -200 45 -200 45
3951761026.8378 -5.1506162 20.826475 -200 45 -200 45 -200 45
3952761143.5239 -5.1322064 20.712067 -200 45 -200 45 -200 45
3953761260.21 -5.1126885 20.612213 -200 45 -200 45 -200 45
3954761376.8961 -5.0954604 20.505926 -200 45 -200 45 -200 45
3955761493.5823 -5.0770798 20.418175 -200 45 -200 45 -200 45
3956761610.2684 -5.063087 20.326612 -200 45 -200 45 -200 45
3957761726.9545 -5.0472889 20.260843 -200 45 -200 45 -200 45
3958761843.6406 -5.0295053 20.169481 -200 45 -200 45 -200 45
3959761960.3267 -5.0090837 20.082117 -200 45 -200 45 -200 45
3960762077.0128 -4.987884 19.980129 -200 45 -200 45 -200 45
3961762193.6989 -4.9699473 19.920954 -200 45 -200 45 -200 45
3962762310.3851 -4.9547577 19.853006 -200 45 -200 45 -200 45
3963762427.0712 -4.9365005 19.735611 -200 45 -200 45 -200 45
3964762543.7573 -4.91399 19.605755 -200 45 -200 45 -200 45
3965762660.4434 -4.8886399 19.425537 -200 45 -200 45 -200 45
3966762777.1295 -4.8675523 19.260611 -200 45 -200 45 -200 45
3967762893.8156 -4.8534436 19.070671 -200 45 -200 45 -200 45
3968763010.5018 -4.8450422 18.879807 -200 45 -200 45 -200 45
3969763127.1879 -4.835546 18.698893 -200 45 -200 45 -200 45
3970763243.874 -4.8303566 18.491789 -200 45 -200 45 -200 45
3971763360.5601 -4.831306 18.318533 -200 45 -200 45 -200 45
3972763477.2462 -4.8316121 18.120394 -200 45 -200 45 -200 45
3973763593.9323 -4.8396783 17.939283 -200 45 -200 45 -200 45
3974763710.6184 -4.8434606 17.76866 -200 45 -200 45 -200 45
3975763827.3046 -4.8478475 17.611065 -200 45 -200 45 -200 45
3976763943.9907 -4.851635 17.466129 -200 45 -200 45 -200 45
3977764060.6768 -4.8624239 17.350121 -200 45 -200 45 -200 45
3978764177.3629 -4.878541 17.241318 -200 45 -200 45 -200 45
3979764294.049 -4.8901076 17.135166 -200 45 -200 45 -200 45
3980764410.7351 -4.8977919 17.000233 -200 45 -200 45 -200 45
3981764527.4212 -4.9029937 16.877256 -200 45 -200 45 -200 45
3982764644.1074 -4.9119911 16.789627 -200 45 -200 45 -200 45
3983764760.7935 -4.9252005 16.692934 -200 45 -200 45 -200 45
3984764877.4796 -4.9416065 16.649719 -200 45 -200 45 -200 45
3985764994.1657 -4.9558969 16.579107 -200 45 -200 45 -200 45
3986765110.8518 -4.9667392 16.515005 -200 45 -200 45 -200 45
3987765227.5379 -4.9821949 16.487495 -200 45 -200 45 -200 45
3988765344.224 -4.9930091 16.431284 -200 45 -200 45 -200 45
3989765460.9102 -5.0079732 16.388702 -200 45 -200 45 -200 45
3990765577.5963 -5.0155611 16.343267 -200 45 -200 45 -200 45
3991765694.2824 -5.0249734 16.291399 -200 45 -200 45 -200 45
3992765810.9685 -5.0347071 16.275034 -200 45 -200 45 -200 45
3993765927.6546 -5.0458808 16.265491 -200 45 -200 45 -200 45
3994766044.3407 -5.0621386 16.26095 -200 45 -200 45 -200 45
3995766161.0268 -5.0731955 16.278566 -200 45 -200 45 -200 45
3996766277.713 -5.0803413 16.240889 -200 45 -200 45 -200 45
3997766394.3991 -5.0857687 16.222662 -200 45 -200 45 -200 45
3998766511.0852 -5.0901384 16.196253 -200 45 -200 45 -200 45
3999766627.7713 -5.0961018 16.172316 -200 45 -200 45 -200 45
4000766744.4574 -5.1105623 16.173183 -200 45 -200 45 -200 45
4001766861.1435 -5.1208587 16.176653 -200 45 -200 45 -200 45
4002766977.8296 -5.1293817 16.176718 -200 45 -200 45 -200 45
4003767094.5158 -5.1354661 16.159815 -200 45 -200 45 -200 45
4004767211.2019 -5.141705 16.174156 -200 45 -200 45 -200 45
4005767327.888 -5.1515355 16.16971 -200 45 -200 45 -200 45
4006767444.5741 -5.1567016 16.149933 -200 45 -200 45 -200 45
4007767561.2602 -5.1605649 16.129654 -200 45 -200 45 -200 45
4008767677.9463 -5.1663518 16.133499 -200 45 -200 45 -200 45
4009767794.6324 -5.1774945 16.157177 -200 45 -200 45 -200 45
4010767911.3186 -5.1893225 16.185421 -200 45 -200 45 -200 45
4011768028.0047 -5.1993546 16.173584 -200 45 -200 45 -200 45
4012768144.6908 -5.205719 16.17275 -200 45 -200 45 -200 45
4013768261.3769 -5.2050443 16.151051 -200 45 -200 45 -200 45
4014768378.063 -5.2078047 16.149193 -200 45 -200 45 -200 45
4015768494.7491 -5.2158947 16.131712 -200 45 -200 45 -200 45
4016768611.4352 -5.2243476 16.167107 -200 45 -200 45 -200 45
4017768728.1214 -5.2305827 16.155062 -200 45 -200 45 -200 45
4018768844.8075 -5.2385526 16.175484 -200 45 -200 45 -200 45
4019768961.4936 -5.246758 16.197941 -200 45 -200 45 -200 45
4020769078.1797 -5.2495084 16.193342 -200 45 -200 45 -200 45
4021769194.8658 -5.2584124 16.199909 -200 45 -200 45 -200 45
4022769311.5519 -5.2620397 16.178814 -200 45 -200 45 -200 45
4023769428.238 -5.2637181 16.17082 -200 45 -200 45 -200 45
4024769544.9242 -5.2714772 16.191244 -200 45 -200 45 -200 45
4025769661.6103 -5.2802572 16.194408 -200 45 -200 45 -200 45
4026769778.2964 -5.2914085 16.229841 -200 45 -200 45 -200 45
4027769894.9825 -5.2996106 16.243452 -200 45 -200 45 -200 45
4028770011.6686 -5.3058329 16.234957 -200 45 -200 45 -200 45
4029770128.3547 -5.3052692 16.208824 -200 45 -200 45 -200 45
4030770245.0408 -5.310617 16.205732 -200 45 -200 45 -200 45
4031770361.727 -5.3174706 16.225344 -200 45 -200 45 -200 45
4032770478.4131 -5.3314786 16.250015 -200 45 -200 45 -200 45
4033770595.0992 -5.3391943 16.257141 -200 45 -200 45 -200 45
4034770711.7853 -5.3456554 16.275675 -200 45 -200 45 -200 45
4035770828.4714 -5.3547363 16.291946 -200 45 -200 45 -200 45
4036770945.1575 -5.3635964 16.300745 -200 45 -200 45 -200 45
4037771061.8436 -5.3740768 16.324816 -200 45 -200 45 -200 45
4038771178.5298 -5.3786726 16.319017 -200 45 -200 45 -200 45
4039771295.2159 -5.38696 16.324289 -200 45 -200 45 -200 45
4040771411.902 -5.3989744 16.366953 -200 45 -200 45 -200 45
4041771528.5881 -5.4102459 16.409512 -200 45 -200 45 -200 45
4042771645.2742 -5.4289446 16.470776 -200 45 -200 45 -200 45
4043771761.9603 -5.4420633 16.533806 -200 45 -200 45 -200 45
4044771878.6464 -5.4489779 16.565317 -200 45 -200 45 -200 45
4045771995.3326 -5.4572902 16.613104 -200 45 -200 45 -200 45
4046772112.0187 -5.4632964 16.701286 -200 45 -200 45 -200 45
4047772228.7048 -5.475409 16.795771 -200 45 -200 45 -200 45
4048772345.3909 -5.4887099 16.920565 -200 45 -200 45 -200 45
4049772462.077 -5.4937944 17.044535 -200 45 -200 45 -200 45
4050772578.7631 -5.4923944 17.192316 -200 45 -200 45 -200 45
4051772695.4492 -5.4921432 17.31679 -200 45 -200 45 -200 45
4052772812.1354 -5.4874554 17.422525 -200 45 -200 45 -200 45
4053772928.8215 -5.4784937 17.517071 -200 45 -200 45 -200 45
4054773045.5076 -5.4703679 17.575115 -200 45 -200 45 -200 45
4055773162.1937 -5.4583435 17.633499 -200 45 -200 45 -200 45
4056773278.8798 -5.4486861 17.697586 -200 45 -200 45 -200 45
4057773395.5659 -5.4446464 17.77417 -200 45 -200 45 -200 45
4058773512.252 -5.4399185 17.801115 -200 45 -200 45 -200 45
4059773628.9382 -5.4346237 17.847647 -200 45 -200 45 -200 45
4060773745.6243 -5.4212646 17.856056 -200 45 -200 45 -200 45
4061773862.3104 -5.4096813 17.842154 -200 45 -200 45 -200 45
4062773978.9965 -5.3986473 17.856527 -200 45 -200 45 -200 45
4063774095.6826 -5.393249 17.846205 -200 45 -200 45 -200 45
4064774212.3687 -5.3907561 17.853615 -200 45 -200 45 -200 45
4065774329.0548 -5.3860297 17.830475 -200 45 -200 45 -200 45
4066774445.741 -5.3789487 17.841331 -200 45 -200 45 -200 45
4067774562.4271 -5.3769507 17.810034 -200 45 -200 45 -200 45
4068774679.1132 -5.3732381 17.81929 -200 45 -200 45 -200 45
4069774795.7993 -5.3718696 17.773005 -200 45 -200 45 -200 45
4070774912.4854 -5.3683677 17.751968 -200 45 -200 45 -200 45
4071775029.1715 -5.3647909 17.695591 -200 45 -200 45 -200 45
4072775145.8576 -5.3661528 17.6898 -200 45 -200 45 -200 45
4073775262.5438 -5.3720832 17.677946 -200 45 -200 45 -200 45
4074775379.2299 -5.3779988 17.692587 -200 45 -200 45 -200 45
4075775495.916 -5.3794541 17.674744 -200 45 -200 45 -200 45
4076775612.6021 -5.3820133 17.66802 -200 45 -200 45 -200 45
4077775729.2882 -5.377265 17.645267 -200 45 -200 45 -200 45
4078775845.9743 -5.3768244 17.654043 -200 45 -200 45 -200 45
4079775962.6604 -5.3834043 17.65732 -200 45 -200 45 -200 45
4080776079.3466 -5.3867016 17.664373 -200 45 -200 45 -200 45
4081776196.0327 -5.3865333 17.682333 -200 45 -200 45 -200 45
4082776312.7188 -5.3832512 17.680126 -200 45 -200 45 -200 45
4083776429.4049 -5.3824291 17.682657 -200 45 -200 45 -200 45
4084776546.091 -5.3853045 17.653265 -200 45 -200 45 -200 45
4085776662.7771 -5.3866749 17.638393 -200 45 -200 45 -200 45
4086776779.4632 -5.3864069 17.601948 -200 45 -200 45 -200 45
4087776896.1494 -5.3851185 17.569256 -200 45 -200 45 -200 45
4088777012.8355 -5.3875108 17.554323 -200 45 -200 45 -200 45
4089777129.5216 -5.3960323 17.5331 -200 45 -200 45 -200 45
4090777246.2077 -5.4082308 17.550188 -200 45 -200 45 -200 45
4091777362.8938 -5.4138074 17.514973 -200 45 -200 45 -200 45
4092777479.5799 -5.417531 17.465729 -200 45 -200 45 -200 45
4093777596.266 -5.4185362 17.425272 -200 45 -200 45 -200 45
4094777712.9522 -5.4215603 17.410442 -200 45 -200 45 -200 45
4095777829.6383 -5.433373 17.365681 -200 45 -200 45 -200 45
4096777946.3244 -5.4458656 17.332569 -200 45 -200 45 -200 45
4097778063.0105 -5.4571815 17.290815 -200 45 -200 45 -200 45
4098778179.6966 -5.4719706 17.273901 -200 45 -200 45 -200 45
4099778296.3827 -5.4905524 17.265783 -200 45 -200 45 -200 45
4100778413.0688 -5.5084867 17.250837 -200 45 -200 45 -200 45
4101778529.755 -5.5308676 17.218801 -200 45 -200 45 -200 45
4102778646.4411 -5.5530639 17.234926 -200 45 -200 45 -200 45
4103778763.1272 -5.5797672 17.237696 -200 45 -200 45 -200 45
4104778879.8133 -5.6063948 17.290974 -200 45 -200 45 -200 45
4105778996.4994 -5.6452913 17.423412 -200 45 -200 45 -200 45
4106779113.1855 -5.6784859 17.586807 -200 45 -200 45 -200 45
4107779229.8716 -5.7105227 17.792431 -200 45 -200 45 -200 45
4108779346.5578 -5.7348452 18.008736 -200 45 -200 45 -200 45
4109779463.2439 -5.7482643 18.266182 -200 45 -200 45 -200 45
4110779579.93 -5.7574625 18.56374 -200 45 -200 45 -200 45
4111779696.6161 -5.7634974 18.881956 -200 45 -200 45 -200 45
4112779813.3022 -5.7602077 19.231535 -200 45 -200 45 -200 45
4113779929.9883 -5.7493629 19.508139 -200 45 -200 45 -200 45
4114780046.6744 -5.7307887 19.795301 -200 45 -200 45 -200 45
4115780163.3606 -5.7045188 20.013121 -200 45 -200 45 -200 45
4116780280.0467 -5.6775613 20.226625 -200 45 -200 45 -200 45
4117780396.7328 -5.6457424 20.373117 -200 45 -200 45 -200 45
4118780513.4189 -5.611587 20.469635 -200 45 -200 45 -200 45
4119780630.105 -5.5811014 20.559462 -200 45 -200 45 -200 45
4120780746.7911 -5.5524507 20.603125 -200 45 -200 45 -200 45
4121780863.4772 -5.5306325 20.662567 -200 45 -200 45 -200 45
4122780980.1634 -5.5131497 20.697779 -200 45 -200 45 -200 45
4123781096.8495 -5.4929514 20.685057 -200 45 -200 45 -200 45
4124781213.5356 -5.4698477 20.679972 -200 45 -200 45 -200 45
4125781330.2217 -5.4475389 20.675531 -200 45 -200 45 -200 45
4126781446.9078 -5.4288111 20.658567 -200 45 -200 45 -200 45
4127781563.5939 -5.4149842 20.655592 -200 45 -200 45 -200 45
4128781680.28 -5.4049187 20.642365 -200 45 -200 45 -200 45
4129781796.9662 -5.3937049 20.650131 -200 45 -200 45 -200 45
4130781913.6523 -5.3775854 20.647459 -200 45 -200 45 -200 45
4131782030.3384 -5.365644 20.632135 -200 45 -200 45 -200 45
4132782147.0245 -5.3524151 20.602459 -200 45 -200 45 -200 45
4133782263.7106 -5.3418489 20.58779 -200 45 -200 45 -200 45
4134782380.3967 -5.3304796 20.527374 -200 45 -200 45 -200 45
4135782497.0828 -5.3217607 20.460537 -200 45 -200 45 -200 45
4136782613.769 -5.3155613 20.458534 -200 45 -200 45 -200 45
4137782730.4551 -5.3176084 20.450335 -200 45 -200 45 -200 45
4138782847.1412 -5.3205552 20.453331 -200 45 -200 45 -200 45
4139782963.8273 -5.3201356 20.46356 -200 45 -200 45 -200 45
4140783080.5134 -5.318059 20.459488 -200 45 -200 45 -200 45
4141783197.1995 -5.31249 20.482466 -200 45 -200 45 -200 45
4142783313.8856 -5.3067422 20.561499 -200 45 -200 45 -200 45
4143783430.5718 -5.2989893 20.647921 -200 45 -200 45 -200 45
4144783547.2579 -5.2888412 20.745285 -200 45 -200 45 -200 45
4145783663.944 -5.2731524 20.825682 -200 45 -200 45 -200 45
4146783780.6301 -5.2488508 20.874813 -200 45 -200 45 -200 45
4147783897.3162 -5.2222557 20.889755 -200 45 -200 45 -200 45
4148784014.0023 -5.2001534 20.860434 -200 45 -200 45 -200 45
4149784130.6884 -5.1777782 20.810358 -200 45 -200 45 -200 45
4150784247.3746 -5.156075 20.738119 -200 45 -200 45 -200 45
4151784364.0607 -5.1346326 20.644613 -200 45 -200 45 -200 45
4152784480.7468 -5.1194768 20.563929 -200 45 -200 45 -200 45
4153784597.4329 -5.1134005 20.48127 -200 45 -200 45 -200 45
4154784714.119 -5.1083493 20.405056 -200 45 -200 45 -200 45
4155784830.8051 -5.101099 20.31522 -200 45 -200 45 -200 45
4156784947.4912 -5.0904078 20.221756 -200 45 -200 45 -200 45
4157785064.1774 -5.0761108 20.14085 -200 45 -200 45 -200 45
4158785180.8635 -5.06844 20.062969 -200 45 -200 45 -200 45
4159785297.5496 -5.0646973 20.003868 -200 45 -200 45 -200 45
4160785414.2357 -5.0582352 19.948021 -200 45 -200 45 -200 45
4161785530.9218 -5.0482631 19.873552 -200 45 -200 45 -200 45
4162785647.6079 -5.0428314 19.800674 -200 45 -200 45 -200 45
4163785764.294 -5.0306277 19.702471 -200 45 -200 45 -200 45
4164785880.9802 -5.0282598 19.580736 -200 45 -200 45 -200 45
4165785997.6663 -5.0183091 19.463562 -200 45 -200 45 -200 45
4166786114.3524 -5.015317 19.317152 -200 45 -200 45 -200 45
4167786231.0385 -5.0134702 19.182089 -200 45 -200 45 -200 45
4168786347.7246 -5.0188417 19.064367 -200 45 -200 45 -200 45
4169786464.4107 -5.0267048 18.968212 -200 45 -200 45 -200 45
4170786581.0968 -5.0388937 18.878334 -200 45 -200 45 -200 45
4171786697.783 -5.0488772 18.772633 -200 45 -200 45 -200 45
4172786814.4691 -5.0547981 18.662842 -200 45 -200 45 -200 45
4173786931.1552 -5.0587516 18.595602 -200 45 -200 45 -200 45
4174787047.8413 -5.0651388 18.508318 -200 45 -200 45 -200 45
4175787164.5274 -5.0796885 18.462406 -200 45 -200 45 -200 45
4176787281.2135 -5.0905128 18.429323 -200 45 -200 45 -200 45
4177787397.8997 -5.1027126 18.377857 -200 45 -200 45 -200 45
4178787514.5858 -5.1108356 18.351162 -200 45 -200 45 -200 45
4179787631.2719 -5.1195188 18.31835 -200 45 -200 45 -200 45
4180787747.958 -5.1321502 18.294453 -200 45 -200 45 -200 45
4181787864.6441 -5.1410723 18.267216 -200 45 -200 45 -200 45
4182787981.3302 -5.1464901 18.24164 -200 45 -200 45 -200 45
4183788098.0163 -5.1510787 18.226778 -200 45 -200 45 -200 45
4184788214.7025 -5.1599278 18.220123 -200 45 -200 45 -200 45
4185788331.3886 -5.1718745 18.245907 -200 45 -200 45 -200 45
4186788448.0747 -5.1843724 18.255144 -200 45 -200 45 -200 45
4187788564.7608 -5.1889224 18.213423 -200 45 -200 45 -200 45
4188788681.4469 -5.1935096 18.203808 -200 45 -200 45 -200 45
4189788798.133 -5.1938195 18.20919 -200 45 -200 45 -200 45
4190788914.8191 -5.198288 18.196783 -200 45 -200 45 -200 45
4191789031.5053 -5.206934 18.203299 -200 45 -200 45 -200 45
4192789148.1914 -5.2158899 18.227964 -200 45 -200 45 -200 45
4193789264.8775 -5.2215791 18.210537 -200 45 -200 45 -200 45
4194789381.5636 -5.223619 18.236753 -200 45 -200 45 -200 45
4195789498.2497 -5.2287421 18.229193 -200 45 -200 45 -200 45
4196789614.9358 -5.2331204 18.250704 -200 45 -200 45 -200 45
4197789731.6219 -5.2380152 18.243423 -200 45 -200 45 -200 45
4198789848.3081 -5.2376943 18.231125 -200 45 -200 45 -200 45
4199789964.9942 -5.2421789 18.236399 -200 45 -200 45 -200 45
4200790081.6803 -5.2502389 18.253223 -200 45 -200 45 -200 45
4201790198.3664 -5.2570119 18.287769 -200 45 -200 45 -200 45
4202790315.0525 -5.2663774 18.300989 -200 45 -200 45 -200 45
4203790431.7386 -5.2674489 18.304193 -200 45 -200 45 -200 45
4204790548.4247 -5.2668052 18.29459 -200 45 -200 45 -200 45
4205790665.1109 -5.2671428 18.298805 -200 45 -200 45 -200 45
4206790781.797 -5.2681975 18.301952 -200 45 -200 45 -200 45
4207790898.4831 -5.2752767 18.318678 -200 45 -200 45 -200 45
4208791015.1692 -5.2811337 18.337948 -200 45 -200 45 -200 45
4209791131.8553 -5.2829475 18.35181 -200 45 -200 45 -200 45
4210791248.5414 -5.2834888 18.342369 -200 45 -200 45 -200 45
4211791365.2275 -5.2859626 18.353426 -200 45 -200 45 -200 45
4212791481.9137 -5.291122 18.366192 -200 45 -200 45 -200 45
4213791598.5998 -5.2941732 18.380432 -200 45 -200 45 -200 45
4214791715.2859 -5.2946539 18.375305 -200 45 -200 45 -200 45
4215791831.972 -5.2979121 18.37706 -200 45 -200 45 -200 45
4216791948.6581 -5.299686 18.39749 -200 45 -200 45 -200 45
4217792065.3442 -5.3059955 18.429258 -200 45 -200 45 -200 45
4218792182.0303 -5.3119993 18.445696 -200 45 -200 45 -200 45
4219792298.7165 -5.3157196 18.451902 -200 45 -200 45 -200 45
4220792415.4026 -5.3117261 18.453003 -200 45 -200 45 -200 45
4221792532.0887 -5.3123536 18.44112 -200 45 -200 45 -200 45
4222792648.7748 -5.3119869 18.450638 -200 45 -200 45 -200 45
4223792765.4609 -5.3178973 18.475861 -200 45 -200 45 -200 45
4224792882.147 -5.3222218 18.487827 -200 45 -200 45 -200 45
4225792998.8331 -5.325386 18.497461 -200 45 -200 45 -200 45
4226793115.5193 -5.327508 18.506371 -200 45 -200 45 -200 45
4227793232.2054 -5.3258815 18.521088 -200 45 -200 45 -200 45
4228793348.8915 -5.3304372 18.526789 -200 45 -200 45 -200 45
4229793465.5776 -5.3345494 18.542297 -200 45 -200 45 -200 45
4230793582.2637 -5.331759 18.536386 -200 45 -200 45 -200 45
4231793698.9498 -5.3360887 18.527117 -200 45 -200 45 -200 45
4232793815.6359 -5.3388071 18.549421 -200 45 -200 45 -200 45
4233793932.3221 -5.3450384 18.58205 -200 45 -200 45 -200 45
4234794049.0082 -5.3518944 18.601191 -200 45 -200 45 -200 45
4235794165.6943 -5.350771 18.606932 -200 45 -200 45 -200 45
4236794282.3804 -5.3492723 18.59269 -200 45 -200 45 -200 45
4237794399.0665 -5.3474054 18.607594 -200 45 -200 45 -200 45
4238794515.7526 -5.3474164 18.610664 -200 45 -200 45 -200 45
4239794632.4387 -5.3567176 18.631029 -200 45 -200 45 -200 45
4240794749.1249 -5.359211 18.660793 -200 45 -200 45 -200 45
4241794865.811 -5.3595853 18.668274 -200 45 -200 45 -200 45
4242794982.4971 -5.3623796 18.677877 -200 45 -200 45 -200 45
4243795099.1832 -5.3638148 18.675022 -200 45 -200 45 -200 45
4244795215.8693 -5.3680878 18.682928 -200 45 -200 45 -200 45
4245795332.5554 -5.368156 18.710155 -200 45 -200 45 -200 45
4246795449.2415 -5.3695216 18.690657 -200 45 -200 45 -200 45
4247795565.9277 -5.3682237 18.716986 -200 45 -200 45 -200 45
4248795682.6138 -5.3714852 18.744022 -200 45 -200 45 -200 45
4249795799.2999 -5.3806891 18.772226 -200 45 -200 45 -200 45
4250795915.986 -5.3845501 18.791914 -200 45 -200 45 -200 45
4251796032.6721 -5.3854985 18.783754 -200 45 -200 45 -200 45
4252796149.3582 -5.38273 18.787767 -200 45 -200 45 -200 45
4253796266.0443 -5.3797789 18.794968 -200 45 -200 45 -200 45
4254796382.7305 -5.3804526 18.812761 -200 45 -200 45 -200 45
4255796499.4166 -5.3875456 18.816235 -200 45 -200 45 -200 45
4256796616.1027 -5.3941302 18.83433 -200 45 -200 45 -200 45
4257796732.7888 -5.3917446 18.844809 -200 45 -200 45 -200 45
4258796849.4749 -5.3946342 18.857567 -200 45 -200 45 -200 45
4259796966.161 -5.3962622 18.86525 -200 45 -200 45 -200 45
4260797082.8471 -5.3994737 18.882296 -200 45 -200 45 -200 45
4261797199.5333 -5.4012675 18.89201 -200 45 -200 45 -200 45
4262797316.2194 -5.4006314 18.882246 -200 45 -200 45 -200 45
4263797432.9055 -5.4011245 18.910189 -200 45 -200 45 -200 45
4264797549.5916 -5.4080949 18.930861 -200 45 -200 45 -200 45
4265797666.2777 -5.413774 18.959446 -200 45 -200 45 -200 45
4266797782.9638 -5.4169712 18.961632 -200 45 -200 45 -200 45
4267797899.6499 -5.4178939 18.970737 -200 45 -200 45 -200 45
4268798016.3361 -5.4159045 18.968464 -200 45 -200 45 -200 45
4269798133.0222 -5.4148884 18.978264 -200 45 -200 45 -200 45
4270798249.7083 -5.4158154 19.002485 -200 45 -200 45 -200 45
4271798366.3944 -5.4193187 19.033503 -200 45 -200 45 -200 45
4272798483.0805 -5.4217854 19.052103 -200 45 -200 45 -200 45
4273798599.7666 -5.4256244 19.052221 -200 45 -200 45 -200 45
4274798716.4527 -5.4264393 19.078669 -200 45 -200 45 -200 45
4275798833.1389 -5.4256921 19.081539 -200 45 -200 45 -200 45
4276798949.825 -5.4303174 19.101667 -200 45 -200 45 -200 45
4277799066.5111 -5.4297581 19.114204 -200 45 -200 45 -200 45
4278799183.1972 -5.428638 19.104015 -200 45 -200 45 -200 45
4279799299.8833 -5.4255891 19.126394 -200 45 -200 45 -200 45
4280799416.5694 -5.4300537 19.173409 -200 45 -200 45 -200 45
4281799533.2555 -5.4364476 19.188999 -200 45 -200 45 -200 45
4282799649.9417 -5.4390225 19.206411 -200 45 -200 45 -200 45
4283799766.6278 -5.4355197 19.212431 -200 45 -200 45 -200 45
4284799883.3139 -5.4324703 19.203318 -200 45 -200 45 -200 45
4285800000 -5.4304738 19.202007 -200 45 -200 45 -200 45
4286800116.6861 -5.4300642 19.220543 -200 45 -200 45 -200 45
4287800233.3722 -5.4344139 19.245436 -200 45 -200 45 -200 45
4288800350.0583 -5.4364481 19.255228 -200 45 -200 45 -200 45
4289800466.7445 -5.4360261 19.261045 -200 45 -200 45 -200 45
4290800583.4306 -5.4363303 19.273813 -200 45 -200 45 -200 45
4291800700.1167 -5.435266 19.273129 -200 45 -200 45 -200 45
4292800816.8028 -5.4403877 19.294291 -200 45 -200 45 -200 45
4293800933.4889 -5.4397583 19.298275 -200 45 -200 45 -200 45
4294801050.175 -5.4378619 19.290373 -200 45 -200 45 -200 45
4295801166.8611 -5.4350648 19.298086 -200 45 -200 45 -200 45
4296801283.5473 -5.4394436 19.323463 -200 45 -200 45 -200 45
4297801400.2334 -5.4457784 19.354359 -200 45 -200 45 -200 45
4298801516.9195 -5.4477878 19.35611 -200 45 -200 45 -200 45
4299801633.6056 -5.4483004 19.353609 -200 45 -200 45 -200 45
4300801750.2917 -5.4418292 19.344706 -200 45 -200 45 -200 45
4301801866.9778 -5.4411345 19.364983 -200 45 -200 45 -200 45
4302801983.6639 -5.4403 19.358664 -200 45 -200 45 -200 45
4303802100.3501 -5.4465747 19.379156 -200 45 -200 45 -200 45
4304802217.0362 -5.4494557 19.389637 -200 45 -200 45 -200 45
4305802333.7223 -5.4489803 19.416275 -200 45 -200 45 -200 45
4306802450.4084 -5.4504995 19.401726 -200 45 -200 45 -200 45
4307802567.0945 -5.449894 19.402956 -200 45 -200 45 -200 45
4308802683.7806 -5.4524574 19.414093 -200 45 -200 45 -200 45
4309802800.4667 -5.4541645 19.413893 -200 45 -200 45 -200 45
4310802917.1529 -5.4502287 19.415037 -200 45 -200 45 -200 45
4311803033.839 -5.4531255 19.423615 -200 45 -200 45 -200 45
4312803150.5251 -5.4541988 19.469767 -200 45 -200 45 -200 45
4313803267.2112 -5.4606671 19.484383 -200 45 -200 45 -200 45
4314803383.8973 -5.463109 19.483086 -200 45 -200 45 -200 45
4315803500.5834 -5.4619789 19.48502 -200 45 -200 45 -200 45
4316803617.2695 -5.4577169 19.476475 -200 45 -200 45 -200 45
4317803733.9557 -5.457355 19.49748 -200 45 -200 45 -200 45
4318803850.6418 -5.4564958 19.497137 -200 45 -200 45 -200 45
4319803967.3279 -5.4625592 19.53447 -200 45 -200 45 -200 45
4320804084.014 -5.4651046 19.540163 -200 45 -200 45 -200 45
4321804200.7001 -5.4667544 19.540932 -200 45 -200 45 -200 45
4322804317.3862 -5.4670591 19.54603 -200 45 -200 45 -200 45
4323804434.0723 -5.4672499 19.55159 -200 45 -200 45 -200 45
4324804550.7585 -5.4681168 19.566645 -200 45 -200 45 -200 45
4325804667.4446 -5.4698606 19.572472 -200 45 -200 45 -200 45
4326804784.1307 -5.4694428 19.555801 -200 45 -200 45 -200 45
4327804900.8168 -5.4695272 19.575438 -200 45 -200 45 -200 45
4328805017.5029 -5.472373 19.612223 -200 45 -200 45 -200 45
4329805134.189 -5.4751859 19.621876 -200 45 -200 45 -200 45
4330805250.8751 -5.4789963 19.643021 -200 45 -200 45 -200 45
4331805367.5613 -5.4786825 19.634937 -200 45 -200 45 -200 45
4332805484.2474 -5.4730096 19.630184 -200 45 -200 45 -200 45
4333805600.9335 -5.4717526 19.630451 -200 45 -200 45 -200 45
4334805717.6196 -5.4726176 19.644905 -200 45 -200 45 -200 45
4335805834.3057 -5.4804683 19.662695 -200 45 -200 45 -200 45
4336805950.9918 -5.4818587 19.684973 -200 45 -200 45 -200 45
4337806067.6779 -5.4820733 19.692608 -200 45 -200 45 -200 45
4338806184.3641 -5.4812832 19.706606 -200 45 -200 45 -200 45
4339806301.0502 -5.4848251 19.713949 -200 45 -200 45 -200 45
4340806417.7363 -5.4835763 19.720407 -200 45 -200 45 -200 45
4341806534.4224 -5.4851279 19.728613 -200 45 -200 45 -200 45
4342806651.1085 -5.4840798 19.717245 -200 45 -200 45 -200 45
4343806767.7946 -5.483952 19.728697 -200 45 -200 45 -200 45
4344806884.4807 -5.4869695 19.761459 -200 45 -200 45 -200 45
4345807001.1669 -5.4966693 19.795094 -200 45 -200 45 -200 45
4346807117.853 -5.4992132 19.787367 -200 45 -200 45 -200 45
4347807234.5391 -5.4960761 19.780684 -200 45 -200 45 -200 45
4348807351.2252 -5.4950991 19.7708 -200 45 -200 45 -200 45
4349807467.9113 -5.4934659 19.793486 -200 45 -200 45 -200 45
4350807584.5974 -5.4936237 19.794233 -200 45 -200 45 -200 45
4351807701.2835 -5.5013442 19.807335 -200 45 -200 45 -200 45
4352807817.9697 -5.502296 19.829323 -200 45 -200 45 -200 45
4353807934.6558 -5.5052328 19.850721 -200 45 -200 45 -200 45
4354808051.3419 -5.5061359 19.865034 -200 45 -200 45 -200 45
4355808168.028 -5.5051455 19.861097 -200 45 -200 45 -200 45
4356808284.7141 -5.5095911 19.865803 -200 45 -200 45 -200 45
4357808401.4002 -5.5078082 19.858885 -200 45 -200 45 -200 45
4358808518.0863 -5.5083103 19.879908 -200 45 -200 45 -200 45
4359808634.7725 -5.5104747 19.890659 -200 45 -200 45 -200 45
4360808751.4586 -5.5146384 19.912861 -200 45 -200 45 -200 45
4361808868.1447 -5.5215197 19.932276 -200 45 -200 45 -200 45
4362808984.8308 -5.5202117 19.956322 -200 45 -200 45 -200 45
4363809101.5169 -5.5205879 19.944735 -200 45 -200 45 -200 45
4364809218.203 -5.5171804 19.925829 -200 45 -200 45 -200 45
4365809334.8891 -5.517705 19.925964 -200 45 -200 45 -200 45
4366809451.5753 -5.5176015 19.941025 -200 45 -200 45 -200 45
4367809568.2614 -5.5248456 19.975655 -200 45 -200 45 -200 45
4368809684.9475 -5.5268269 19.984177 -200 45 -200 45 -200 45
4369809801.6336 -5.5308366 19.998896 -200 45 -200 45 -200 45
4370809918.3197 -5.5314946 20.019592 -200 45 -200 45 -200 45
4371810035.0058 -5.5327473 20.011944 -200 45 -200 45 -200 45
4372810151.6919 -5.5392365 20.027708 -200 45 -200 45 -200 45
4373810268.3781 -5.536787 20.024029 -200 45 -200 45 -200 45
4374810385.0642 -5.5378499 20.02507 -200 45 -200 45 -200 45
4375810501.7503 -5.5393343 20.031574 -200 45 -200 45 -200 45
4376810618.4364 -5.5454268 20.070148 -200 45 -200 45 -200 45
4377810735.1225 -5.5527039 20.100832 -200 45 -200 45 -200 45
4378810851.8086 -5.5550604 20.103251 -200 45 -200 45 -200 45
4379810968.4947 -5.5537176 20.088657 -200 45 -200 45 -200 45
4380811085.1809 -5.5518622 20.089756 -200 45 -200 45 -200 45
4381811201.867 -5.5506792 20.098558 -200 45 -200 45 -200 45
4382811318.5531 -5.5580273 20.092667 -200 45 -200 45 -200 45
4383811435.2392 -5.563158 20.133326 -200 45 -200 45 -200 45
4384811551.9253 -5.566772 20.152725 -200 45 -200 45 -200 45
4385811668.6114 -5.5680971 20.159351 -200 45 -200 45 -200 45
4386811785.2976 -5.5722198 20.180696 -200 45 -200 45 -200 45
4387811901.9837 -5.5742793 20.180521 -200 45 -200 45 -200 45
4388812018.6698 -5.5793986 20.191362 -200 45 -200 45 -200 45
4389812135.3559 -5.5834599 20.208359 -200 45 -200 45 -200 45
4390812252.042 -5.5808644 20.192627 -200 45 -200 45 -200 45
4391812368.7281 -5.5841994 20.231098 -200 45 -200 45 -200 45
4392812485.4142 -5.5928941 20.262459 -200 45 -200 45 -200 45
4393812602.1004 -5.6045389 20.275429 -200 45 -200 45 -200 45
4394812718.7865 -5.6070242 20.310656 -200 45 -200 45 -200 45
4395812835.4726 -5.60818 20.321856 -200 45 -200 45 -200 45
4396812952.1587 -5.6111903 20.330534 -200 45 -200 45 -200 45
4397813068.8448 -5.6125927 20.3353 -200 45 -200 45 -200 45
4398813185.5309 -5.6191602 20.390116 -200 45 -200 45 -200 45
4399813302.217 -5.6298285 20.429188 -200 45 -200 45 -200 45
4400813418.9032 -5.6342945 20.498728 -200 45 -200 45 -200 45
4401813535.5893 -5.6391344 20.529188 -200 45 -200 45 -200 45
4402813652.2754 -5.6450248 20.593895 -200 45 -200 45 -200 45
4403813768.9615 -5.6479697 20.655325 -200 45 -200 45 -200 45
4404813885.6476 -5.6539044 20.716949 -200 45 -200 45 -200 45
4405814002.3337 -5.6529374 20.79277 -200 45 -200 45 -200 45
4406814119.0198 -5.6523886 20.873646 -200 45 -200 45 -200 45
4407814235.706 -5.6505804 20.949932 -200 45 -200 45 -200 45
4408814352.3921 -5.6527605 21.048824 -200 45 -200 45 -200 45
4409814469.0782 -5.6530151 21.158928 -200 45 -200 45 -200 45
4410814585.7643 -5.6499915 21.251328 -200 45 -200 45 -200 45
4411814702.4504 -5.6409154 21.307003 -200 45 -200 45 -200 45
4412814819.1365 -5.6257429 21.348507 -200 45 -200 45 -200 45
4413814935.8226 -5.6149225 21.40115 -200 45 -200 45 -200 45
4414815052.5088 -5.6030483 21.461601 -200 45 -200 45 -200 45
4415815169.1949 -5.5953708 21.497265 -200 45 -200 45 -200 45
4416815285.881 -5.5833025 21.520203 -200 45 -200 45 -200 45
4417815402.5671 -5.5727139 21.541199 -200 45 -200 45 -200 45
4418815519.2532 -5.5609188 21.532463 -200 45 -200 45 -200 45
4419815635.9393 -5.5531139 21.528791 -200 45 -200 45 -200 45
4420815752.6254 -5.5435386 21.519974 -200 45 -200 45 -200 45
4421815869.3116 -5.5372419 21.484867 -200 45 -200 45 -200 45
4422815985.9977 -5.5267458 21.449228 -200 45 -200 45 -200 45
4423816102.6838 -5.5207863 21.426924 -200 45 -200 45 -200 45
4424816219.3699 -5.5199366 21.431332 -200 45 -200 45 -200 45
4425816336.056 -5.5223241 21.417534 -200 45 -200 45 -200 45
4426816452.7421 -5.5173125 21.400181 -200 45 -200 45 -200 45
4427816569.4282 -5.5104322 21.357294 -200 45 -200 45 -200 45
4428816686.1144 -5.5057969 21.318367 -200 45 -200 45 -200 45
4429816802.8005 -5.498168 21.313683 -200 45 -200 45 -200 45
4430816919.4866 -5.4975977 21.292105 -200 45 -200 45 -200 45
4431817036.1727 -5.5016994 21.271135 -200 45 -200 45 -200 45
4432817152.8588 -5.4982285 21.259319 -200 45 -200 45 -200 45
4433817269.5449 -5.4981341 21.247736 -200 45 -200 45 -200 45
4434817386.231 -5.4957671 21.228701 -200 45 -200 45 -200 45
4435817502.9172 -5.4962144 21.225769 -200 45 -200 45 -200 45
4436817619.6033 -5.4963779 21.201668 -200 45 -200 45 -200 45
4437817736.2894 -5.4935231 21.179346 -200 45 -200 45 -200 45
4438817852.9755 -5.4900212 21.142729 -200 45 -200 45 -200 45
4439817969.6616 -5.4922328 21.140558 -200 45 -200 45 -200 45
4440818086.3477 -5.4958339 21.15704 -200 45 -200 45 -200 45
4441818203.0338 -5.5022202 21.1464 -200 45 -200 45 -200 45
4442818319.72 -5.5030999 21.138592 -200 45 -200 45 -200 45
4443818436.4061 -5.4988074 21.102102 -200 45 -200 45 -200 45
4444818553.0922 -5.4959598 21.068495 -200 45 -200 45 -200 45
4445818669.7783 -5.4942684 21.06542 -200 45 -200 45 -200 45
4446818786.4644 -5.4977913 21.054348 -200 45 -200 45 -200 45
4447818903.1505 -5.5015059 21.055508 -200 45 -200 45 -200 45
4448819019.8366 -5.5031786 21.055725 -200 45 -200 45 -200 45
4449819136.5228 -5.5016322 21.033997 -200 45 -200 45 -200 45
4450819253.2089 -5.5032806 21.031071 -200 45 -200 45 -200 45
4451819369.895 -5.5045571 21.021858 -200 45 -200 45 -200 45
4452819486.5811 -5.5079598 21.020098 -200 45 -200 45 -200 45
4453819603.2672 -5.5064831 20.999411 -200 45 -200 45 -200 45
4454819719.9533 -5.508491 20.981155 -200 45 -200 45 -200 45
4455819836.6394 -5.5098753 20.979971 -200 45 -200 45 -200 45
4456819953.3256 -5.5160513 20.991667 -200 45 -200 45 -200 45
4457820070.0117 -5.5252876 21.00034 -200 45 -200 45 -200 45
4458820186.6978 -5.5265703 20.990509 -200 45 -200 45 -200 45
4459820303.3839 -5.528595 20.978788 -200 45 -200 45 -200 45
4460820420.07 -5.5235052 20.968473 -200 45 -200 45 -200 45
4461820536.7561 -5.5288935 20.967686 -200 45 -200 45 -200 45
4462820653.4422 -5.5298734 20.968933 -200 45 -200 45 -200 45
4463820770.1284 -5.5377197 20.988237 -200 45 -200 45 -200 45
4464820886.8145 -5.5402622 20.998453 -200 45 -200 45 -200 45
4465821003.5006 -5.5391173 21.006014 -200 45 -200 45 -200 45
4466821120.1867 -5.5437312 21.011978 -200 45 -200 45 -200 45
4467821236.8728 -5.5492759 21.01816 -200 45 -200 45 -200 45
4468821353.5589 -5.5503802 21.029829 -200 45 -200 45 -200 45
4469821470.245 -5.5492687 21.014059 -200 45 -200 45 -200 45
4470821586.9312 -5.5514264 21.006145 -200 45 -200 45 -200 45
4471821703.6173 -5.5543466 21.022617 -200 45 -200 45 -200 45
4472821820.3034 -5.5612483 21.0487 -200 45 -200 45 -200 45
4473821936.9895 -5.5661507 21.093092 -200 45 -200 45 -200 45
4474822053.6756 -5.5721583 21.084768 -200 45 -200 45 -200 45
4475822170.3617 -5.5685587 21.088322 -200 45 -200 45 -200 45
4476822287.0478 -5.566308 21.088762 -200 45 -200 45 -200 45
4477822403.734 -5.5665069 21.093086 -200 45 -200 45 -200 45
4478822520.4201 -5.5722036 21.123631 -200 45 -200 45 -200 45
4479822637.1062 -5.5777531 21.136389 -200 45 -200 45 -200 45
4480822753.7923 -5.5799026 21.156157 -200 45 -200 45 -200 45
4481822870.4784 -5.5823097 21.170933 -200 45 -200 45 -200 45
4482822987.1645 -5.5855513 21.201584 -200 45 -200 45 -200 45
4483823103.8506 -5.586061 21.219358 -200 45 -200 45 -200 45
4484823220.5368 -5.5875888 21.241312 -200 45 -200 45 -200 45
4485823337.2229 -5.5873718 21.228891 -200 45 -200 45 -200 45
4486823453.909 -5.585012 21.255255 -200 45 -200 45 -200 45
4487823570.5951 -5.5878015 21.268074 -200 45 -200 45 -200 45
4488823687.2812 -5.5925035 21.286673 -200 45 -200 45 -200 45
4489823803.9673 -5.5980773 21.321335 -200 45 -200 45 -200 45
4490823920.6534 -5.6002917 21.332287 -200 45 -200 45 -200 45
4491824037.3396 -5.594707 21.33149 -200 45 -200 45 -200 45
4492824154.0257 -5.5915804 21.345682 -200 45 -200 45 -200 45
4493824270.7118 -5.5894513 21.356174 -200 45 -200 45 -200 45
4494824387.3979 -5.5941195 21.366604 -200 45 -200 45 -200 45
4495824504.084 -5.5949507 21.378292 -200 45 -200 45 -200 45
4496824620.7701 -5.598156 21.376928 -200 45 -200 45 -200 45
4497824737.4562 -5.5952129 21.408108 -200 45 -200 45 -200 45
4498824854.1424 -5.5956674 21.41577 -200 45 -200 45 -200 45
4499824970.8285 -5.598362 21.426962 -200 45 -200 45 -200 45
4500825087.5146 -5.5984945 21.434649 -200 45 -200 45 -200 45
4501825204.2007 -5.5965762 21.435944 -200 45 -200 45 -200 45
4502825320.8868 -5.594841 21.420141 -200 45 -200 45 -200 45
4503825437.5729 -5.5978589 21.434065 -200 45 -200 45 -200 45
4504825554.259 -5.6016917 21.458014 -200 45 -200 45 -200 45
4505825670.9452 -5.6087651 21.462395 -200 45 -200 45 -200 45
4506825787.6313 -5.6074224 21.487421 -200 45 -200 45 -200 45
4507825904.3174 -5.6043701 21.459669 -200 45 -200 45 -200 45
4508826021.0035 -5.6030135 21.466362 -200 45 -200 45 -200 45
4509826137.6896 -5.6020794 21.48027 -200 45 -200 45 -200 45
4510826254.3757 -5.6061168 21.475193 -200 45 -200 45 -200 45
4511826371.0618 -5.6098304 21.489346 -200 45 -200 45 -200 45
4512826487.748 -5.6112413 21.50873 -200 45 -200 45 -200 45
4513826604.4341 -5.612442 21.489466 -200 45 -200 45 -200 45
4514826721.1202 -5.6132221 21.512175 -200 45 -200 45 -200 45
4515826837.8063 -5.6156578 21.537838 -200 45 -200 45 -200 45
4516826954.4924 -5.6165662 21.544851 -200 45 -200 45 -200 45
4517827071.1785 -5.6153479 21.527227 -200 45 -200 45 -200 45
4518827187.8646 -5.6159115 21.521097 -200 45 -200 45 -200 45
4519827304.5508 -5.6172314 21.551392 -200 45 -200 45 -200 45
4520827421.2369 -5.6224289 21.572071 -200 45 -200 45 -200 45
4521827537.923 -5.6285071 21.597858 -200 45 -200 45 -200 45
4522827654.6091 -5.6302414 21.596586 -200 45 -200 45 -200 45
4523827771.2952 -5.6250339 21.591387 -200 45 -200 45 -200 45
4524827887.9813 -5.6235199 21.599985 -200 45 -200 45 -200 45
4525828004.6674 -5.6212564 21.620266 -200 45 -200 45 -200 45
4526828121.3536 -5.6257877 21.634218 -200 45 -200 45 -200 45
4527828238.0397 -5.6290646 21.626574 -200 45 -200 45 -200 45
4528828354.7258 -5.6298385 21.649632 -200 45 -200 45 -200 45
4529828471.4119 -5.6304436 21.670942 -200 45 -200 45 -200 45
4530828588.098 -5.6288776 21.691465 -200 45 -200 45 -200 45
4531828704.7841 -5.6330118 21.693184 -200 45 -200 45 -200 45
4532828821.4702 -5.6320481 21.698668 -200 45 -200 45 -200 45
4533828938.1564 -5.6290398 21.69607 -200 45 -200 45 -200 45
4534829054.8425 -5.627408 21.701479 -200 45 -200 45 -200 45
4535829171.5286 -5.6284842 21.717943 -200 45 -200 45 -200 45
4536829288.2147 -5.6370325 21.740133 -200 45 -200 45 -200 45
4537829404.9008 -5.6367893 21.749506 -200 45 -200 45 -200 45
4538829521.5869 -5.6365972 21.755379 -200 45 -200 45 -200 45
4539829638.273 -5.6336918 21.758968 -200 45 -200 45 -200 45
4540829754.9592 -5.6306009 21.745823 -200 45 -200 45 -200 45
4541829871.6453 -5.6308923 21.769726 -200 45 -200 45 -200 45
4542829988.3314 -5.6340194 21.776449 -200 45 -200 45 -200 45
4543830105.0175 -5.6378961 21.786678 -200 45 -200 45 -200 45
4544830221.7036 -5.6394172 21.784752 -200 45 -200 45 -200 45
4545830338.3897 -5.638299 21.782957 -200 45 -200 45 -200 45
4546830455.0758 -5.6390724 21.787262 -200 45 -200 45 -200 45
4547830571.762 -5.6433907 21.823862 -200 45 -200 45 -200 45
4548830688.4481 -5.6408553 21.814281 -200 45 -200 45 -200 45
4549830805.1342 -5.640522 21.792042 -200 45 -200 45 -200 45
4550830921.8203 -5.6388388 21.817131 -200 45 -200 45 -200 45
4551831038.5064 -5.6403985 21.825607 -200 45 -200 45 -200 45
4552831155.1925 -5.6479354 21.851362 -200 45 -200 45 -200 45
4553831271.8786 -5.6512222 21.85461 -200 45 -200 45 -200 45
4554831388.5648 -5.6490397 21.876711 -200 45 -200 45 -200 45
4555831505.2509 -5.6470847 21.8668 -200 45 -200 45 -200 45
4556831621.937 -5.6455483 21.866415 -200 45 -200 45 -200 45
4557831738.6231 -5.645864 21.855179 -200 45 -200 45 -200 45
4558831855.3092 -5.6478415 21.884544 -200 45 -200 45 -200 45
4559831971.9953 -5.650146 21.890793 -200 45 -200 45 -200 45
4560832088.6814 -5.6484871 21.886648 -200 45 -200 45 -200 45
4561832205.3676 -5.6508155 21.915552 -200 45 -200 45 -200 45
4562832322.0537 -5.6526961 21.913012 -200 45 -200 45 -200 45
4563832438.7398 -5.6576791 21.934006 -200 45 -200 45 -200 45
4564832555.4259 -5.6556797 21.92691 -200 45 -200 45 -200 45
4565832672.112 -5.6556454 21.922613 -200 45 -200 45 -200 45
4566832788.7981 -5.6551623 21.920288 -200 45 -200 45 -200 45
4567832905.4842 -5.6569905 21.943312 -200 45 -200 45 -200 45
4568833022.1704 -5.6619654 21.967295 -200 45 -200 45 -200 45
4569833138.8565 -5.6688757 21.993889 -200 45 -200 45 -200 45
4570833255.5426 -5.6686802 21.976896 -200 45 -200 45 -200 45
4571833372.2287 -5.6637201 21.996933 -200 45 -200 45 -200 45
4572833488.9148 -5.6619344 22.00156 -200 45 -200 45 -200 45
4573833605.6009 -5.6611671 21.99781 -200 45 -200 45 -200 45
4574833722.287 -5.667439 22.030878 -200 45 -200 45 -200 45
4575833838.9732 -5.6686711 22.033655 -200 45 -200 45 -200 45
4576833955.6593 -5.6719084 22.04178 -200 45 -200 45 -200 45
4577834072.3454 -5.6705422 22.056105 -200 45 -200 45 -200 45
4578834189.0315 -5.6729045 22.064871 -200 45 -200 45 -200 45
4579834305.7176 -5.6739764 22.076317 -200 45 -200 45 -200 45
4580834422.4037 -5.6789927 22.078285 -200 45 -200 45 -200 45
4581834539.0898 -5.6729383 22.089994 -200 45 -200 45 -200 45
4582834655.776 -5.6739764 22.092289 -200 45 -200 45 -200 45
4583834772.4621 -5.6774507 22.091223 -200 45 -200 45 -200 45
4584834889.1482 -5.6821723 22.133705 -200 45 -200 45 -200 45
4585835005.8343 -5.688303 22.147785 -200 45 -200 45 -200 45
4586835122.5204 -5.6872373 22.15591 -200 45 -200 45 -200 45
4587835239.2065 -5.6865044 22.148813 -200 45 -200 45 -200 45
4588835355.8926 -5.6829677 22.153137 -200 45 -200 45 -200 45
4589835472.5788 -5.6813941 22.150034 -200 45 -200 45 -200 45
4590835589.2649 -5.687582 22.165848 -200 45 -200 45 -200 45
4591835705.951 -5.6899385 22.184649 -200 45 -200 45 -200 45
4592835822.6371 -5.6930571 22.210602 -200 45 -200 45 -200 45
4593835939.3232 -5.6902003 22.205858 -200 45 -200 45 -200 45
4594836056.0093 -5.6925035 22.234549 -200 45 -200 45 -200 45
4595836172.6954 -5.6959028 22.249081 -200 45 -200 45 -200 45
4596836289.3816 -5.6992459 22.244015 -200 45 -200 45 -200 45
4597836406.0677 -5.6978769 22.232426 -200 45 -200 45 -200 45
4598836522.7538 -5.6972089 22.256927 -200 45 -200 45 -200 45
4599836639.4399 -5.6993728 22.250446 -200 45 -200 45 -200 45
4600836756.126 -5.7079582 22.302448 -200 45 -200 45 -200 45
4601836872.8121 -5.7116337 22.313156 -200 45 -200 45 -200 45
4602836989.4983 -5.7111244 22.308987 -200 45 -200 45 -200 45
4603837106.1844 -5.707972 22.297415 -200 45 -200 45 -200 45
4604837222.8705 -5.7066736 22.322327 -200 45 -200 45 -200 45
4605837339.5566 -5.7066803 22.328421 -200 45 -200 45 -200 45
4606837456.2427 -5.7161894 22.341526 -200 45 -200 45 -200 45
4607837572.9288 -5.7169485 22.347042 -200 45 -200 45 -200 45
4608837689.6149 -5.7190475 22.36338 -200 45 -200 45 -200 45
4609837806.3011 -5.7180305 22.353975 -200 45 -200 45 -200 45
4610837922.9872 -5.7185407 22.367086 -200 45 -200 45 -200 45
4611838039.6733 -5.7232103 22.385807 -200 45 -200 45 -200 45
4612838156.3594 -5.7232523 22.390322 -200 45 -200 45 -200 45
4613838273.0455 -5.7226329 22.391516 -200 45 -200 45 -200 45
4614838389.7316 -5.7228866 22.389872 -200 45 -200 45 -200 45
4615838506.4177 -5.7255898 22.398251 -200 45 -200 45 -200 45
4616838623.1039 -5.7316003 22.424809 -200 45 -200 45 -200 45
4617838739.79 -5.7360244 22.439444 -200 45 -200 45 -200 45
4618838856.4761 -5.736999 22.426243 -200 45 -200 45 -200 45
4619838973.1622 -5.73421 22.436565 -200 45 -200 45 -200 45
4620839089.8483 -5.7327099 22.453176 -200 45 -200 45 -200 45
4621839206.5344 -5.7303643 22.462015 -200 45 -200 45 -200 45
4622839323.2205 -5.7388883 22.478607 -200 45 -200 45 -200 45
4623839439.9067 -5.743834 22.499527 -200 45 -200 45 -200 45
4624839556.5928 -5.7431889 22.503853 -200 45 -200 45 -200 45
4625839673.2789 -5.74368 22.508966 -200 45 -200 45 -200 45
4626839789.965 -5.7465658 22.517912 -200 45 -200 45 -200 45
4627839906.6511 -5.7522888 22.529434 -200 45 -200 45 -200 45
4628840023.3372 -5.7517128 22.542351 -200 45 -200 45 -200 45
4629840140.0233 -5.7501101 22.532211 -200 45 -200 45 -200 45
4630840256.7095 -5.750011 22.539755 -200 45 -200 45 -200 45
4631840373.3956 -5.7562947 22.550831 -200 45 -200 45 -200 45
4632840490.0817 -5.7623835 22.594156 -200 45 -200 45 -200 45
4633840606.7678 -5.7676196 22.600807 -200 45 -200 45 -200 45
4634840723.4539 -5.7701378 22.606245 -200 45 -200 45 -200 45
4635840840.14 -5.7667398 22.605743 -200 45 -200 45 -200 45
4636840956.8261 -5.7672777 22.612736 -200 45 -200 45 -200 45
4637841073.5123 -5.7656403 22.615469 -200 45 -200 45 -200 45
4638841190.1984 -5.7719588 22.64082 -200 45 -200 45 -200 45
4639841306.8845 -5.7734437 22.66785 -200 45 -200 45 -200 45
4640841423.5706 -5.7751374 22.66773 -200 45 -200 45 -200 45
4641841540.2567 -5.7768598 22.690498 -200 45 -200 45 -200 45
4642841656.9428 -5.7788568 22.693546 -200 45 -200 45 -200 45
4643841773.6289 -5.7817335 22.718351 -200 45 -200 45 -200 45
4644841890.3151 -5.78374 22.734324 -200 45 -200 45 -200 45
4645842007.0012 -5.7827692 22.747917 -200 45 -200 45 -200 45
4646842123.6873 -5.7822571 22.746271 -200 45 -200 45 -200 45
4647842240.3734 -5.7833776 22.772322 -200 45 -200 45 -200 45
4648842357.0595 -5.7914414 22.804064 -200 45 -200 45 -200 45
4649842473.7456 -5.7948265 22.824602 -200 45 -200 45 -200 45
4650842590.4317 -5.7933211 22.841129 -200 45 -200 45 -200 45
4651842707.1179 -5.7901173 22.837862 -200 45 -200 45 -200 45
4652842823.804 -5.7885218 22.837631 -200 45 -200 45 -200 45
4653842940.4901 -5.7908392 22.850849 -200 45 -200 45 -200 45
4654843057.1762 -5.7956352 22.869368 -200 45 -200 45 -200 45
4655843173.8623 -5.7971568 22.883352 -200 45 -200 45 -200 45
4656843290.5484 -5.7963066 22.895899 -200 45 -200 45 -200 45
4657843407.2345 -5.7962937 22.903324 -200 45 -200 45 -200 45
4658843523.9207 -5.799592 22.904449 -200 45 -200 45 -200 45
4659843640.6068 -5.8030081 22.926331 -200 45 -200 45 -200 45
4660843757.2929 -5.7990227 22.920191 -200 45 -200 45 -200 45
4661843873.979 -5.8003917 22.927275 -200 45 -200 45 -200 45
4662843990.6651 -5.8030181 22.931971 -200 45 -200 45 -200 45
4663844107.3512 -5.8056402 22.951042 -200 45 -200 45 -200 45
4664844224.0373 -5.813374 22.979721 -200 45 -200 45 -200 45
4665844340.7235 -5.8177257 22.990265 -200 45 -200 45 -200 45
4666844457.4096 -5.8221817 22.981045 -200 45 -200 45 -200 45
4667844574.0957 -5.8176064 22.983532 -200 45 -200 45 -200 45
4668844690.7818 -5.8161283 22.997919 -200 45 -200 45 -200 45
4669844807.4679 -5.820796 23.00519 -200 45 -200 45 -200 45
4670844924.154 -5.8269782 23.021393 -200 45 -200 45 -200 45
4671845040.8401 -5.8314886 23.040035 -200 45 -200 45 -200 45
4672845157.5263 -5.8338957 23.032078 -200 45 -200 45 -200 45
4673845274.2124 -5.8377299 23.057699 -200 45 -200 45 -200 45
4674845390.8985 -5.8437276 23.072817 -200 45 -200 45 -200 45
4675845507.5846 -5.847682 23.081249 -200 45 -200 45 -200 45
4676845624.2707 -5.8538132 23.110067 -200 45 -200 45 -200 45
4677845740.9568 -5.8543921 23.102043 -200 45 -200 45 -200 45
4678845857.6429 -5.8576717 23.139256 -200 45 -200 45 -200 45
4679845974.3291 -5.8654785 23.166801 -200 45 -200 45 -200 45
4680846091.0152 -5.8752713 23.226093 -200 45 -200 45 -200 45
4681846207.7013 -5.8850102 23.251865 -200 45 -200 45 -200 45
4682846324.3874 -5.8858685 23.263681 -200 45 -200 45 -200 45
4683846441.0735 -5.8880506 23.298443 -200 45 -200 45 -200 45
4684846557.7596 -5.8925014 23.350019 -200 45 -200 45 -200 45
4685846674.4457 -5.9000816 23.39439 -200 45 -200 45 -200 45
4686846791.1319 -5.9125638 23.465708 -200 45 -200 45 -200 45
4687846907.818 -5.9179864 23.54039 -200 45 -200 45 -200 45
4688847024.5041 -5.9274416 23.600971 -200 45 -200 45 -200 45
4689847141.1902 -5.9285398 23.691818 -200 45 -200 45 -200 45
4690847257.8763 -5.931334 23.823881 -200 45 -200 45 -200 45
4691847374.5624 -5.9345179 23.918587 -200 45 -200 45 -200 45
4692847491.2485 -5.9282789 24.049034 -200 45 -200 45 -200 45
4693847607.9347 -5.9230852 24.126659 -200 45 -200 45 -200 45
4694847724.6208 -5.9174581 24.234003 -200 45 -200 45 -200 45
4695847841.3069 -5.9091902 24.321054 -200 45 -200 45 -200 45
4696847957.993 -5.9044929 24.423035 -200 45 -200 45 -200 45
4697848074.6791 -5.8935351 24.484505 -200 45 -200 45 -200 45
4698848191.3652 -5.8795276 24.503267 -200 45 -200 45 -200 45
4699848308.0513 -5.8632779 24.53529 -200 45 -200 45 -200 45
4700848424.7375 -5.8486781 24.572586 -200 45 -200 45 -200 45
4701848541.4236 -5.8410387 24.58112 -200 45 -200 45 -200 45
4702848658.1097 -5.8362551 24.600634 -200 45 -200 45 -200 45
4703848774.7958 -5.8252411 24.600607 -200 45 -200 45 -200 45
4704848891.4819 -5.8197298 24.605183 -200 45 -200 45 -200 45
4705849008.168 -5.8133154 24.600332 -200 45 -200 45 -200 45
4706849124.8541 -5.8079753 24.591232 -200 45 -200 45 -200 45
4707849241.5403 -5.802422 24.595802 -200 45 -200 45 -200 45
4708849358.2264 -5.7966466 24.588486 -200 45 -200 45 -200 45
4709849474.9125 -5.7886953 24.579075 -200 45 -200 45 -200 45
4710849591.5986 -5.7855735 24.601465 -200 45 -200 45 -200 45
4711849708.2847 -5.7820787 24.602121 -200 45 -200 45 -200 45
4712849824.9708 -5.7862678 24.597532 -200 45 -200 45 -200 45
4713849941.6569 -5.7797623 24.592161 -200 45 -200 45 -200 45
4714850058.3431 -5.773622 24.585526 -200 45 -200 45 -200 45
4715850175.0292 -5.7642732 24.563395 -200 45 -200 45 -200 45
4716850291.7153 -5.7598052 24.542957 -200 45 -200 45 -200 45
4717850408.4014 -5.7593107 24.523365 -200 45 -200 45 -200 45
4718850525.0875 -5.7592249 24.52705 -200 45 -200 45 -200 45
4719850641.7736 -5.7610555 24.504137 -200 45 -200 45 -200 45
4720850758.4597 -5.7581401 24.478205 -200 45 -200 45 -200 45
4721850875.1459 -5.7575474 24.469154 -200 45 -200 45 -200 45
4722850991.832 -5.759407 24.464869 -200 45 -200 45 -200 45
4723851108.5181 -5.761569 24.462063 -200 45 -200 45 -200 45
4724851225.2042 -5.7608972 24.452475 -200 45 -200 45 -200 45
4725851341.8903 -5.7588153 24.438688 -200 45 -200 45 -200 45
4726851458.5764 -5.7590103 24.435892 -200 45 -200 45 -200 45
4727851575.2625 -5.761004 24.437809 -200 45 -200 45 -200 45
4728851691.9487 -5.7682605 24.466497 -200 45 -200 45 -200 45
4729851808.6348 -5.769352 24.465139 -200 45 -200 45 -200 45
4730851925.3209 -5.7658534 24.468704 -200 45 -200 45 -200 45
4731852042.007 -5.7605181 24.45941 -200 45 -200 45 -200 45
4732852158.6931 -5.7593207 24.477545 -200 45 -200 45 -200 45
4733852275.3792 -5.7604613 24.488241 -200 45 -200 45 -200 45
4734852392.0653 -5.7636137 24.504578 -200 45 -200 45 -200 45
4735852508.7515 -5.7621531 24.52883 -200 45 -200 45 -200 45
4736852625.4376 -5.7592416 24.552208 -200 45 -200 45 -200 45
4737852742.1237 -5.7570877 24.547688 -200 45 -200 45 -200 45
4738852858.8098 -5.7562914 24.557384 -200 45 -200 45 -200 45
4739852975.4959 -5.7525721 24.576893 -200 45 -200 45 -200 45
4740853092.182 -5.748436 24.559294 -200 45 -200 45 -200 45
4741853208.8681 -5.7439852 24.5522 -200 45 -200 45 -200 45
4742853325.5543 -5.7430596 24.558702 -200 45 -200 45 -200 45
4743853442.2404 -5.7449756 24.555756 -200 45 -200 45 -200 45
4744853558.9265 -5.749506 24.576914 -200 45 -200 45 -200 45
4745853675.6126 -5.7482338 24.56776 -200 45 -200 45 -200 45
4746853792.2987 -5.7432299 24.544783 -200 45 -200 45 -200 45
4747853908.9848 -5.7366538 24.536886 -200 45 -200 45 -200 45
4748854025.6709 -5.7331786 24.527617 -200 45 -200 45 -200 45
4749854142.3571 -5.7348447 24.528549 -200 45 -200 45 -200 45
4750854259.0432 -5.736259 24.551888 -200 45 -200 45 -200 45
4751854375.7293 -5.7326975 24.547884 -200 45 -200 45 -200 45
4752854492.4154 -5.7302704 24.529121 -200 45 -200 45 -200 45
4753854609.1015 -5.7298579 24.523001 -200 45 -200 45 -200 45
4754854725.7876 -5.7298689 24.512283 -200 45 -200 45 -200 45
4755854842.4737 -5.7265949 24.505617 -200 45 -200 45 -200 45
4756854959.1599 -5.7253728 24.462189 -200 45 -200 45 -200 45
4757855075.846 -5.7185049 24.452559 -200 45 -200 45 -200 45
4758855192.5321 -5.7183485 24.431782 -200 45 -200 45 -200 45
4759855309.2182 -5.7222414 24.425566 -200 45 -200 45 -200 45
4760855425.9043 -5.725986 24.418291 -200 45 -200 45 -200 45
4761855542.5904 -5.7246151 24.393744 -200 45 -200 45 -200 45
4762855659.2765 -5.7235518 24.35713 -200 45 -200 45 -200 45
4763855775.9627 -5.7192545 24.321115 -200 45 -200 45 -200 45
4764855892.6488 -5.718576 24.297218 -200 45 -200 45 -200 45
4765856009.3349 -5.7222571 24.28293 -200 45 -200 45 -200 45
4766856126.021 -5.7275739 24.270243 -200 45 -200 45 -200 45
4767856242.7071 -5.728548 24.25786 -200 45 -200 45 -200 45
4768856359.3932 -5.7326016 24.24247 -200 45 -200 45 -200 45
4769856476.0793 -5.7335482 24.225008 -200 45 -200 45 -200 45
4770856592.7655 -5.7362018 24.225107 -200 45 -200 45 -200 45
4771856709.4516 -5.7414875 24.217291 -200 45 -200 45 -200 45
4772856826.1377 -5.7414165 24.19994 -200 45 -200 45 -200 45
4773856942.8238 -5.7430291 24.17156 -200 45 -200 45 -200 45
4774857059.5099 -5.7473297 24.167767 -200 45 -200 45 -200 45
4775857176.196 -5.7525549 24.202351 -200 45 -200 45 -200 45
4776857292.8821 -5.7595615 24.214924 -200 45 -200 45 -200 45
4777857409.5683 -5.7615619 24.194906 -200 45 -200 45 -200 45
4778857526.2544 -5.7591615 24.182945 -200 45 -200 45 -200 45
4779857642.9405 -5.7583466 24.167751 -200 45 -200 45 -200 45
4780857759.6266 -5.7604418 24.17556 -200 45 -200 45 -200 45
4781857876.3127 -5.7657118 24.180845 -200 45 -200 45 -200 45
4782857992.9988 -5.7701073 24.196554 -200 45 -200 45 -200 45
4783858109.6849 -5.7745295 24.181692 -200 45 -200 45 -200 45
4784858226.3711 -5.7770605 24.19795 -200 45 -200 45 -200 45
4785858343.0572 -5.7775879 24.192619 -200 45 -200 45 -200 45
4786858459.7433 -5.7815337 24.186186 -200 45 -200 45 -200 45
4787858576.4294 -5.7845812 24.197617 -200 45 -200 45 -200 45
4788858693.1155 -5.7835174 24.197016 -200 45 -200 45 -200 45
4789858809.8016 -5.7849584 24.192192 -200 45 -200 45 -200 45
4790858926.4877 -5.7880034 24.209154 -200 45 -200 45 -200 45
4791859043.1739 -5.7945004 24.228405 -200 45 -200 45 -200 45
4792859159.86 -5.7974405 24.249268 -200 45 -200 45 -200 45
4793859276.5461 -5.8000336 24.251259 -200 45 -200 45 -200 45
4794859393.2322 -5.7991371 24.244915 -200 45 -200 45 -200 45
4795859509.9183 -5.7966585 24.247616 -200 45 -200 45 -200 45
4796859626.6044 -5.7982888 24.250505 -200 45 -200 45 -200 45
4797859743.2905 -5.8009315 24.271378 -200 45 -200 45 -200 45
4798859859.9767 -5.8051043 24.299458 -200 45 -200 45 -200 45
4799859976.6628 -5.8078113 24.307693 -200 45 -200 45 -200 45
4800860093.3489 -5.8083129 24.313755 -200 45 -200 45 -200 45
4801860210.035 -5.8084869 24.318253 -200 45 -200 45 -200 45
4802860326.7211 -5.8138566 24.346264 -200 45 -200 45 -200 45
4803860443.4072 -5.8150349 24.34889 -200 45 -200 45 -200 45
4804860560.0933 -5.8154387 24.341745 -200 45 -200 45 -200 45
4805860676.7795 -5.8142362 24.348585 -200 45 -200 45 -200 45
4806860793.4656 -5.8185439 24.360945 -200 45 -200 45 -200 45
4807860910.1517 -5.8226132 24.387575 -200 45 -200 45 -200 45
4808861026.8378 -5.8299184 24.409767 -200 45 -200 45 -200 45
4809861143.5239 -5.8297181 24.420479 -200 45 -200 45 -200 45
4810861260.21 -5.8282971 24.40859 -200 45 -200 45 -200 45
4811861376.8961 -5.8231492 24.426682 -200 45 -200 45 -200 45
4812861493.5823 -5.8261428 24.421385 -200 45 -200 45 -200 45
4813861610.2684 -5.8302507 24.442942 -200 45 -200 45 -200 45
4814861726.9545 -5.8322082 24.458513 -200 45 -200 45 -200 45
4815861843.6406 -5.8364525 24.476969 -200 45 -200 45 -200 45
4816861960.3267 -5.8376789 24.488581 -200 45 -200 45 -200 45
4817862077.0128 -5.8387485 24.473879 -200 45 -200 45 -200 45
4818862193.6989 -5.8411775 24.505411 -200 45 -200 45 -200 45
4819862310.3851 -5.8387065 24.523252 -200 45 -200 45 -200 45
4820862427.0712 -5.8416252 24.521687 -200 45 -200 45 -200 45
4821862543.7573 -5.8427086 24.513018 -200 45 -200 45 -200 45
4822862660.4434 -5.8446827 24.544645 -200 45 -200 45 -200 45
4823862777.1295 -5.8509979 24.571844 -200 45 -200 45 -200 45
4824862893.8156 -5.8563957 24.597511 -200 45 -200 45 -200 45
4825863010.5018 -5.8571262 24.595032 -200 45 -200 45 -200 45
4826863127.1879 -5.8560076 24.602934 -200 45 -200 45 -200 45
4827863243.874 -5.8534541 24.621834 -200 45 -200 45 -200 45
4828863360.5601 -5.8514771 24.625572 -200 45 -200 45 -200 45
4829863477.2462 -5.8576012 24.648636 -200 45 -200 45 -200 45
4830863593.9323 -5.8624382 24.679537 -200 45 -200 45 -200 45
4831863710.6184 -5.8607311 24.679596 -200 45 -200 45 -200 45
4832863827.3046 -5.8644433 24.673641 -200 45 -200 45 -200 45
4833863943.9907 -5.8675618 24.703833 -200 45 -200 45 -200 45
4834864060.6768 -5.8688178 24.722429 -200 45 -200 45 -200 45
4835864177.3629 -5.8692341 24.743496 -200 45 -200 45 -200 45
4836864294.049 -5.8676262 24.735092 -200 45 -200 45 -200 45
4837864410.7351 -5.8647857 24.742287 -200 45 -200 45 -200 45
4838864527.4212 -5.871048 24.763447 -200 45 -200 45 -200 45
4839864644.1074 -5.8752847 24.80471 -200 45 -200 45 -200 45
4840864760.7935 -5.8815942 24.818281 -200 45 -200 45 -200 45
4841864877.4796 -5.8823156 24.822392 -200 45 -200 45 -200 45
4842864994.1657 -5.8779202 24.821918 -200 45 -200 45 -200 45
4843865110.8518 -5.8725753 24.816147 -200 45 -200 45 -200 45
4844865227.5379 -5.874392 24.822922 -200 45 -200 45 -200 45
4845865344.224 -5.8797917 24.826168 -200 45 -200 45 -200 45
4846865460.9102 -5.8807082 24.848318 -200 45 -200 45 -200 45
4847865577.5963 -5.8812981 24.860683 -200 45 -200 45 -200 45
4848865694.2824 -5.8815436 24.881092 -200 45 -200 45 -200 45
4849865810.9685 -5.8848963 24.880642 -200 45 -200 45 -200 45
4850865927.6546 -5.8853464 24.903179 -200 45 -200 45 -200 45
4851866044.3407 -5.8875084 24.89596 -200 45 -200 45 -200 45
4852866161.0268 -5.8849659 24.895792 -200 45 -200 45 -200 45
4853866277.713 -5.8855329 24.881338 -200 45 -200 45 -200 45
4854866394.3991 -5.8895001 24.921751 -200 45 -200 45 -200 45
4855866511.0852 -5.8962498 24.937653 -200 45 -200 45 -200 45
4856866627.7713 -5.8994722 24.954773 -200 45 -200 45 -200 45
4857866744.4574 -5.9024878 24.973915 -200 45 -200 45 -200 45
4858866861.1435 -5.8991351 24.967117 -200 45 -200 45 -200 45
4859866977.8296 -5.8953676 24.965487 -200 45 -200 45 -200 45
4860867094.5158 -5.8964415 24.95356 -200 45 -200 45 -200 45
4861867211.2019 -5.9013453 24.963642 -200 45 -200 45 -200 45
4862867327.888 -5.9041004 24.983078 -200 45 -200 45 -200 45
4863867444.5741 -5.9059262 25.003721 -200 45 -200 45 -200 45
4864867561.2602 -5.9065881 24.990473 -200 45 -200 45 -200 45
4865867677.9463 -5.9078999 25.028515 -200 45 -200 45 -200 45
4866867794.6324 -5.9131918 25.043245 -200 45 -200 45 -200 45
4867867911.3186 -5.9137383 25.040707 -200 45 -200 45 -200 45
4868868028.0047 -5.9132538 25.024021 -200 45 -200 45 -200 45
4869868144.6908 -5.9086576 25.02696 -200 45 -200 45 -200 45
4870868261.3769 -5.9136682 25.039286 -200 45 -200 45 -200 45
4871868378.063 -5.9214644 25.076311 -200 45 -200 45 -200 45
4872868494.7491 -5.9259071 25.100025 -200 45 -200 45 -200 45
4873868611.4352 -5.9285603 25.107595 -200 45 -200 45 -200 45
4874868728.1214 -5.9249063 25.098543 -200 45 -200 45 -200 45
4875868844.8075 -5.9222093 25.115519 -200 45 -200 45 -200 45
4876868961.4936 -5.923924 25.123953 -200 45 -200 45 -200 45
4877869078.1797 -5.9280272 25.113686 -200 45 -200 45 -200 45
4878869194.8658 -5.9337983 25.138693 -200 45 -200 45 -200 45
4879869311.5519 -5.9335704 25.147074 -200 45 -200 45 -200 45
4880869428.238 -5.9338374 25.170523 -200 45 -200 45 -200 45
4881869544.9242 -5.9370956 25.178989 -200 45 -200 45 -200 45
4882869661.6103 -5.940268 25.198065 -200 45 -200 45 -200 45
4883869778.2964 -5.9408894 25.201262 -200 45 -200 45 -200 45
4884869894.9825 -5.9400387 25.196423 -200 45 -200 45 -200 45
4885870011.6686 -5.939249 25.206654 -200 45 -200 45 -200 45
4886870128.3547 -5.9448853 25.24118 -200 45 -200 45 -200 45
4887870245.0408 -5.9483886 25.269005 -200 45 -200 45 -200 45
4888870361.727 -5.9561634 25.297529 -200 45 -200 45 -200 45
4889870478.4131 -5.9590306 25.327307 -200 45 -200 45 -200 45
4890870595.0992 -5.9525547 25.309093 -200 45 -200 45 -200 45
4891870711.7853 -5.9523211 25.347923 -200 45 -200 45 -200 45
4892870828.4714 -5.9513278 25.34062 -200 45 -200 45 -200 45
4893870945.1575 -5.9577022 25.384333 -200 45 -200 45 -200 45
4894871061.8436 -5.95997 25.404465 -200 45 -200 45 -200 45
4895871178.5298 -5.9607129 25.425051 -200 45 -200 45 -200 45
4896871295.2159 -5.9572349 25.47109 -200 45 -200 45 -200 45
4897871411.902 -5.9597206 25.503328 -200 45 -200 45 -200 45
4898871528.5881 -5.9601293 25.527826 -200 45 -200 45 -200 45
4899871645.2742 -5.9612498 25.539694 -200 45 -200 45 -200 45
4900871761.9603 -5.9569268 25.542089 -200 45 -200 45 -200 45
4901871878.6464 -5.954072 25.564392 -200 45 -200 45 -200 45
4902871995.3326 -5.9536686 25.571789 -200 45 -200 45 -200 45
4903872112.0187 -5.9608917 25.598587 -200 45 -200 45 -200 45
4904872228.7048 -5.9605761 25.631136 -200 45 -200 45 -200 45
4905872345.3909 -5.9591751 25.621925 -200 45 -200 45 -200 45
4906872462.077 -5.9528341 25.614262 -200 45 -200 45 -200 45
4907872578.7631 -5.9506788 25.637304 -200 45 -200 45 -200 45
4908872695.4492 -5.9480615 25.623156 -200 45 -200 45 -200 45
4909872812.1354 -5.9513869 25.641432 -200 45 -200 45 -200 45
4910872928.8215 -5.953887 25.649572 -200 45 -200 45 -200 45
4911873045.5076 -5.952013 25.67284 -200 45 -200 45 -200 45
4912873162.1937 -5.9540057 25.678373 -200 45 -200 45 -200 45
4913873278.8798 -5.9550395 25.697578 -200 45 -200 45 -200 45
4914873395.5659 -5.9566541 25.703333 -200 45 -200 45 -200 45
4915873512.252 -5.9538412 25.707745 -200 45 -200 45 -200 45
4916873628.9382 -5.95222 25.698978 -200 45 -200 45 -200 45
4917873745.6243 -5.9531274 25.712606 -200 45 -200 45 -200 45
4918873862.3104 -5.9565134 25.742376 -200 45 -200 45 -200 45
4919873978.9965 -5.9624157 25.783434 -200 45 -200 45 -200 45
4920874095.6826 -5.9663754 25.795439 -200 45 -200 45 -200 45
4921874212.3687 -5.9679646 25.803928 -200 45 -200 45 -200 45
4922874329.0548 -5.9615335 25.819475 -200 45 -200 45 -200 45
4923874445.741 -5.9596624 25.845039 -200 45 -200 45 -200 45
4924874562.4271 -5.9587216 25.843079 -200 45 -200 45 -200 45
4925874679.1132 -5.9637451 25.902077 -200 45 -200 45 -200 45
4926874795.7993 -5.9626789 25.922894 -200 45 -200 45 -200 45
4927874912.4854 -5.9616399 25.933165 -200 45 -200 45 -200 45
4928875029.1715 -5.9613786 25.953619 -200 45 -200 45 -200 45
4929875145.8576 -5.9597082 25.991446 -200 45 -200 45 -200 45
4930875262.5438 -5.9609642 26.015961 -200 45 -200 45 -200 45
4931875379.2299 -5.9536142 26.002825 -200 45 -200 45 -200 45
4932875495.916 -5.9512911 25.98481 -200 45 -200 45 -200 45
4933875612.6021 -5.9484348 25.997152 -200 45 -200 45 -200 45
4934875729.2882 -5.9474492 26.021881 -200 45 -200 45 -200 45
4935875845.9743 -5.9510465 26.052919 -200 45 -200 45 -200 45
4936875962.6604 -5.9535398 26.050364 -200 45 -200 45 -200 45
4937876079.3466 -5.9504967 26.044806 -200 45 -200 45 -200 45
4938876196.0327 -5.946032 26.031496 -200 45 -200 45 -200 45
4939876312.7188 -5.9441929 26.018812 -200 45 -200 45 -200 45
4940876429.4049 -5.9424825 26.011021 -200 45 -200 45 -200 45
4941876546.091 -5.9461222 26.032606 -200 45 -200 45 -200 45
4942876662.7771 -5.9459362 26.026106 -200 45 -200 45 -200 45
4943876779.4632 -5.9477234 26.010361 -200 45 -200 45 -200 45
4944876896.1494 -5.9465508 26.030693 -200 45 -200 45 -200 45
4945877012.8355 -5.9479237 26.022043 -200 45 -200 45 -200 45
4946877129.5216 -5.9545689 26.02054 -200 45 -200 45 -200 45
4947877246.2077 -5.9510603 26.011776 -200 45 -200 45 -200 45
4948877362.8938 -5.9504905 25.998291 -200 45 -200 45 -200 45
4949877479.5799 -5.945735 25.99226 -200 45 -200 45 -200 45
4950877596.266 -5.9478521 25.996548 -200 45 -200 45 -200 45
4951877712.9522 -5.9561825 26.040724 -200 45 -200 45 -200 45
4952877829.6383 -5.9596939 26.031584 -200 45 -200 45 -200 45
4953877946.3244 -5.9620805 26.024418 -200 45 -200 45 -200 45
4954878063.0105 -5.960978 26.003611 -200 45 -200 45 -200 45
4955878179.6966 -5.9593258 26.000725 -200 45 -200 45 -200 45
4956878296.3827 -5.9580803 26.010588 -200 45 -200 45 -200 45
4957878413.0688 -5.9652672 26.002771 -200 45 -200 45 -200 45
4958878529.755 -5.966558 26.015574 -200 45 -200 45 -200 45
4959878646.4411 -5.9711227 26.033154 -200 45 -200 45 -200 45
4960878763.1272 -5.9714408 26.02355 -200 45 -200 45 -200 45
4961878879.8133 -5.9735575 26.026794 -200 45 -200 45 -200 45
4962878996.4994 -5.9771681 26.051449 -200 45 -200 45 -200 45
4963879113.1855 -5.9799786 26.039019 -200 45 -200 45 -200 45
4964879229.8716 -5.9770675 26.014452 -200 45 -200 45 -200 45
4965879346.5578 -5.980576 26.028988 -200 45 -200 45 -200 45
4966879463.2439 -5.9838557 26.048006 -200 45 -200 45 -200 45
4967879579.93 -5.9925342 26.089201 -200 45 -200 45 -200 45
4968879696.6161 -5.9971042 26.10409 -200 45 -200 45 -200 45
4969879813.3022 -5.9982958 26.097143 -200 45 -200 45 -200 45
4970879929.9883 -5.9923058 26.094824 -200 45 -200 45 -200 45
4971880046.6744 -5.9937563 26.082916 -200 45 -200 45 -200 45
4972880163.3606 -5.9953189 26.093449 -200 45 -200 45 -200 45
4973880280.0467 -6.0016594 26.113373 -200 45 -200 45 -200 45
4974880396.7328 -6.0047159 26.125895 -200 45 -200 45 -200 45
4975880513.4189 -6.0074439 26.121876 -200 45 -200 45 -200 45
4976880630.105 -6.0083709 26.1397 -200 45 -200 45 -200 45
4977880746.7911 -6.0127974 26.164804 -200 45 -200 45 -200 45
4978880863.4772 -6.0178332 26.185638 -200 45 -200 45 -200 45
4979880980.1634 -6.0183849 26.163542 -200 45 -200 45 -200 45
4980881096.8495 -6.0181327 26.176594 -200 45 -200 45 -200 45
4981881213.5356 -6.0186639 26.188671 -200 45 -200 45 -200 45
4982881330.2217 -6.0225658 26.201719 -200 45 -200 45 -200 45
4983881446.9078 -6.0331655 26.252487 -200 45 -200 45 -200 45
4984881563.5939 -6.0382719 26.264933 -200 45 -200 45 -200 45
4985881680.28 -6.0377426 26.275526 -200 45 -200 45 -200 45
4986881796.9662 -6.0351992 26.269928 -200 45 -200 45 -200 45
4987881913.6523 -6.0354438 26.279091 -200 45 -200 45 -200 45
4988882030.3384 -6.0377874 26.289295 -200 45 -200 45 -200 45
4989882147.0245 -6.042799 26.31332 -200 45 -200 45 -200 45
4990882263.7106 -6.0454006 26.348009 -200 45 -200 45 -200 45
4991882380.3967 -6.0467815 26.349939 -200 45 -200 45 -200 45
4992882497.0828 -6.0480561 26.391598 -200 45 -200 45 -200 45
4993882613.769 -6.0504251 26.403667 -200 45 -200 45 -200 45
4994882730.4551 -6.0564256 26.438822 -200 45 -200 45 -200 45
4995882847.1412 -6.0550618 26.435829 -200 45 -200 45 -200 45
4996882963.8273 -6.0548091 26.4303 -200 45 -200 45 -200 45
4997883080.5134 -6.0525746 26.476175 -200 45 -200 45 -200 45
4998883197.1995 -6.0576148 26.50993 -200 45 -200 45 -200 45
4999883313.8856 -6.0683737 26.553343 -200 45 -200 45 -200 45
5000883430.5718 -6.0677013 26.584824 -200 45 -200 45 -200 45
5001883547.2579 -6.0637813 26.599443 -200 45 -200 45 -200 45
5002883663.944 -6.0593843 26.610397 -200 45 -200 45 -200 45
5003883780.6301 -6.0591507 26.640669 -200 45 -200 45 -200 45
5004883897.3162 -6.0613937 26.66431 -200 45 -200 45 -200 45
5005884014.0023 -6.0617867 26.686724 -200 45 -200 45 -200 45
5006884130.6884 -6.0611162 26.728937 -200 45 -200 45 -200 45
5007884247.3746 -6.05936 26.748131 -200 45 -200 45 -200 45
5008884364.0607 -6.0585203 26.773638 -200 45 -200 45 -200 45
5009884480.7468 -6.0584331 26.794432 -200 45 -200 45 -200 45
5010884597.4329 -6.0566225 26.814238 -200 45 -200 45 -200 45
5011884714.119 -6.0498838 26.807772 -200 45 -200 45 -200 45
5012884830.8051 -6.0492802 26.813477 -200 45 -200 45 -200 45
5013884947.4912 -6.0480413 26.838533 -200 45 -200 45 -200 45
5014885064.1774 -6.0504484 26.858864 -200 45 -200 45 -200 45
5015885180.8635 -6.0476923 26.877422 -200 45 -200 45 -200 45
5016885297.5496 -6.0480056 26.864744 -200 45 -200 45 -200 45
5017885414.2357 -6.0401635 26.860184 -200 45 -200 45 -200 45
5018885530.9218 -6.0368176 26.875465 -200 45 -200 45 -200 45
5019885647.6079 -6.0365415 26.848503 -200 45 -200 45 -200 45
5020885764.294 -6.0386634 26.871454 -200 45 -200 45 -200 45
5021885880.9802 -6.0361691 26.882622 -200 45 -200 45 -200 45
5022885997.6663 -6.0366082 26.857388 -200 45 -200 45 -200 45
5023886114.3524 -6.0370917 26.879036 -200 45 -200 45 -200 45
5024886231.0385 -6.0371876 26.879971 -200 45 -200 45 -200 45
5025886347.7246 -6.0384073 26.88796 -200 45 -200 45 -200 45
5026886464.4107 -6.0341148 26.87265 -200 45 -200 45 -200 45
5027886581.0968 -6.032279 26.84951 -200 45 -200 45 -200 45
5028886697.783 -6.0314956 26.870605 -200 45 -200 45 -200 45
5029886814.4691 -6.034966 26.874651 -200 45 -200 45 -200 45
5030886931.1552 -6.039691 26.870024 -200 45 -200 45 -200 45
5031887047.8413 -6.0432458 26.892197 -200 45 -200 45 -200 45
5032887164.5274 -6.0408845 26.888947 -200 45 -200 45 -200 45
5033887281.2135 -6.0389557 26.860903 -200 45 -200 45 -200 45
5034887397.8997 -6.0392432 26.891516 -200 45 -200 45 -200 45
5035887514.5858 -6.039619 26.878786 -200 45 -200 45 -200 45
5036887631.2719 -6.0450106 26.895752 -200 45 -200 45 -200 45
5037887747.958 -6.0450544 26.895079 -200 45 -200 45 -200 45
5038887864.6441 -6.0462236 26.899035 -200 45 -200 45 -200 45
5039887981.3302 -6.0491991 26.922482 -200 45 -200 45 -200 45
5040888098.0163 -6.0533042 26.928997 -200 45 -200 45 -200 45
5041888214.7025 -6.0542469 26.922865 -200 45 -200 45 -200 45
5042888331.3886 -6.0524979 26.924633 -200 45 -200 45 -200 45
5043888448.0747 -6.0489712 26.927582 -200 45 -200 45 -200 45
5044888564.7608 -6.0513644 26.92873 -200 45 -200 45 -200 45
5045888681.4469 -6.05935 26.941837 -200 45 -200 45 -200 45
5046888798.133 -6.0643649 26.971977 -200 45 -200 45 -200 45
5047888914.8191 -6.0645442 26.991545 -200 45 -200 45 -200 45
5048889031.5053 -6.0625734 26.98955 -200 45 -200 45 -200 45
5049889148.1914 -6.0594468 26.995943 -200 45 -200 45 -200 45
5050889264.8775 -6.0590458 26.985907 -200 45 -200 45 -200 45
5051889381.5636 -6.0634665 27.001179 -200 45 -200 45 -200 45
5052889498.2497 -6.0673618 27.024996 -200 45 -200 45 -200 45
5053889614.9358 -6.0684719 27.046478 -200 45 -200 45 -200 45
5054889731.6219 -6.0706458 27.049831 -200 45 -200 45 -200 45
5055889848.3081 -6.0699344 27.06402 -200 45 -200 45 -200 45
5056889964.9942 -6.073503 27.079473 -200 45 -200 45 -200 45
5057890081.6803 -6.0748835 27.084566 -200 45 -200 45 -200 45
5058890198.3664 -6.0708704 27.084204 -200 45 -200 45 -200 45
5059890315.0525 -6.0699105 27.083277 -200 45 -200 45 -200 45
5060890431.7386 -6.071938 27.107414 -200 45 -200 45 -200 45
5061890548.4247 -6.0800042 27.118439 -200 45 -200 45 -200 45
5062890665.1109 -6.0845499 27.138245 -200 45 -200 45 -200 45
5063890781.797 -6.0818338 27.148973 -200 45 -200 45 -200 45
5064890898.4831 -6.0838909 27.139444 -200 45 -200 45 -200 45
5065891015.1692 -6.0793619 27.144791 -200 45 -200 45 -200 45
5066891131.8553 -6.0814648 27.142363 -200 45 -200 45 -200 45
5067891248.5414 -6.0852194 27.162046 -200 45 -200 45 -200 45
5068891365.2275 -6.0894804 27.144291 -200 45 -200 45 -200 45
5069891481.9137 -6.0876994 27.161217 -200 45 -200 45 -200 45
5070891598.5998 -6.0922899 27.168501 -200 45 -200 45 -200 45
5071891715.2859 -6.094975 27.178467 -200 45 -200 45 -200 45
5072891831.972 -6.09905 27.198193 -200 45 -200 45 -200 45
5073891948.6581 -6.098455 27.189241 -200 45 -200 45 -200 45
5074892065.3442 -6.097611 27.178432 -200 45 -200 45 -200 45
5075892182.0303 -6.1026301 27.186073 -200 45 -200 45 -200 45
5076892298.7165 -6.1030278 27.213659 -200 45 -200 45 -200 45
5077892415.4026 -6.1128812 27.221325 -200 45 -200 45 -200 45
5078892532.0887 -6.1152015 27.230961 -200 45 -200 45 -200 45
5079892648.7748 -6.1159544 27.260855 -200 45 -200 45 -200 45
5080892765.4609 -6.1160507 27.244413 -200 45 -200 45 -200 45
5081892882.147 -6.1151948 27.260738 -200 45 -200 45 -200 45
5082892998.8331 -6.1194363 27.266663 -200 45 -200 45 -200 45
5083893115.5193 -6.1271706 27.287081 -200 45 -200 45 -200 45
5084893232.2054 -6.1286306 27.296249 -200 45 -200 45 -200 45
5085893348.8915 -6.1307254 27.322275 -200 45 -200 45 -200 45
5086893465.5776 -6.1339631 27.34931 -200 45 -200 45 -200 45
5087893582.2637 -6.1386957 27.359186 -200 45 -200 45 -200 45
5088893698.9498 -6.1419172 27.387465 -200 45 -200 45 -200 45
5089893815.6359 -6.1415949 27.383249 -200 45 -200 45 -200 45
5090893932.3221 -6.1381392 27.410912 -200 45 -200 45 -200 45
5091894049.0082 -6.1438069 27.422544 -200 45 -200 45 -200 45
5092894165.6943 -6.1510897 27.458588 -200 45 -200 45 -200 45
5093894282.3804 -6.1550736 27.493492 -200 45 -200 45 -200 45
5094894399.0665 -6.1560383 27.534704 -200 45 -200 45 -200 45
5095894515.7526 -6.153419 27.531975 -200 45 -200 45 -200 45
5096894632.4387 -6.1507044 27.556635 -200 45 -200 45 -200 45
5097894749.1249 -6.1506395 27.58066 -200 45 -200 45 -200 45
5098894865.811 -6.1529117 27.610767 -200 45 -200 45 -200 45
5099894982.4971 -6.1540866 27.617094 -200 45 -200 45 -200 45
5100895099.1832 -6.1532311 27.641233 -200 45 -200 45 -200 45
5101895215.8693 -6.1499004 27.634581 -200 45 -200 45 -200 45
5102895332.5554 -6.1536832 27.664497 -200 45 -200 45 -200 45
5103895449.2415 -6.1560831 27.669571 -200 45 -200 45 -200 45
5104895565.9277 -6.1534257 27.693199 -200 45 -200 45 -200 45
5105895682.6138 -6.1524034 27.669769 -200 45 -200 45 -200 45
5106895799.2999 -6.1493058 27.676704 -200 45 -200 45 -200 45
5107895915.986 -6.1488137 27.700912 -200 45 -200 45 -200 45
5108896032.6721 -6.1547546 27.717358 -200 45 -200 45 -200 45
5109896149.3582 -6.1579995 27.714663 -200 45 -200 45 -200 45
5110896266.0443 -6.1591492 27.710911 -200 45 -200 45 -200 45
5111896382.7305 -6.1543922 27.701246 -200 45 -200 45 -200 45
5112896499.4166 -6.1545939 27.700945 -200 45 -200 45 -200 45
5113896616.1027 -6.1526327 27.696632 -200 45 -200 45 -200 45
5114896732.7888 -6.1593585 27.700159 -200 45 -200 45 -200 45
5115896849.4749 -6.1606884 27.689508 -200 45 -200 45 -200 45
5116896966.161 -6.1622624 27.701729 -200 45 -200 45 -200 45
5117897082.8471 -6.1641283 27.698317 -200 45 -200 45 -200 45
5118897199.5333 -6.1672201 27.712624 -200 45 -200 45 -200 45
5119897316.2194 -6.171979 27.720282 -200 45 -200 45 -200 45
5120897432.9055 -6.1715865 27.705944 -200 45 -200 45 -200 45
5121897549.5916 -6.1712036 27.689211 -200 45 -200 45 -200 45
5122897666.2777 -6.171454 27.697874 -200 45 -200 45 -200 45
5123897782.9638 -6.1770682 27.717392 -200 45 -200 45 -200 45
5124897899.6499 -6.1847115 27.733873 -200 45 -200 45 -200 45
5125898016.3361 -6.1913133 27.743587 -200 45 -200 45 -200 45
5126898133.0222 -6.1944046 27.746307 -200 45 -200 45 -200 45
5127898249.7083 -6.1905365 27.736008 -200 45 -200 45 -200 45
5128898366.3944 -6.1896477 27.741598 -200 45 -200 45 -200 45
5129898483.0805 -6.1965933 27.758261 -200 45 -200 45 -200 45
5130898599.7666 -6.2050419 27.754608 -200 45 -200 45 -200 45
5131898716.4527 -6.2076178 27.778654 -200 45 -200 45 -200 45
5132898833.1389 -6.2093372 27.770723 -200 45 -200 45 -200 45
5133898949.825 -6.2141647 27.793013 -200 45 -200 45 -200 45
5134899066.5111 -6.2181692 27.805908 -200 45 -200 45 -200 45
5135899183.1972 -6.2209406 27.818661 -200 45 -200 45 -200 45
5136899299.8833 -6.2212601 27.806316 -200 45 -200 45 -200 45
5137899416.5694 -6.2218103 27.804041 -200 45 -200 45 -200 45
5138899533.2555 -6.2269745 27.829309 -200 45 -200 45 -200 45
5139899649.9417 -6.2365746 27.851028 -200 45 -200 45 -200 45
5140899766.6278 -6.2432523 27.885735 -200 45 -200 45 -200 45
5141899883.3139 -6.2492657 27.880476 -200 45 -200 45 -200 45
5142900000 -6.2507033 27.879704 -200 45 -200 45 -200 45
5143900116.6861 -6.2520723 27.907375 -200 45 -200 45 -200 45
5144900233.3722 -6.2539496 27.927574 -200 45 -200 45 -200 45
5145900350.0583 -6.2638721 27.948339 -200 45 -200 45 -200 45
5146900466.7445 -6.2717023 27.963305 -200 45 -200 45 -200 45
5147900583.4306 -6.2761345 27.982035 -200 45 -200 45 -200 45
5148900700.1167 -6.2833562 28.004591 -200 45 -200 45 -200 45
5149900816.8028 -6.2892222 28.026117 -200 45 -200 45 -200 45
5150900933.4889 -6.300096 28.081377 -200 45 -200 45 -200 45
5151901050.175 -6.30688 28.09009 -200 45 -200 45 -200 45
5152901166.8611 -6.3102412 28.117966 -200 45 -200 45 -200 45
5153901283.5473 -6.3180089 28.169371 -200 45 -200 45 -200 45
5154901400.2334 -6.3283591 28.211802 -200 45 -200 45 -200 45
5155901516.9195 -6.3388281 28.287626 -200 45 -200 45 -200 45
5156901633.6056 -6.3502936 28.366514 -200 45 -200 45 -200 45
5157901750.2917 -6.3594751 28.436468 -200 45 -200 45 -200 45
5158901866.9778 -6.3629313 28.501007 -200 45 -200 45 -200 45
5159901983.6639 -6.3663406 28.609303 -200 45 -200 45 -200 45
5160902100.3501 -6.3659024 28.691568 -200 45 -200 45 -200 45
5161902217.0362 -6.3761778 28.806719 -200 45 -200 45 -200 45
5162902333.7223 -6.377902 28.925028 -200 45 -200 45 -200 45
5163902450.4084 -6.3787179 29.039568 -200 45 -200 45 -200 45
5164902567.0945 -6.375844 29.151272 -200 45 -200 45 -200 45
5165902683.7806 -6.3692999 29.263205 -200 45 -200 45 -200 45
5166902800.4667 -6.3663793 29.366047 -200 45 -200 45 -200 45
5167902917.1529 -6.357408 29.46459 -200 45 -200 45 -200 45
5168903033.839 -6.3493876 29.53689 -200 45 -200 45 -200 45
5169903150.5251 -6.3349433 29.628521 -200 45 -200 45 -200 45
5170903267.2112 -6.3281813 29.687742 -200 45 -200 45 -200 45
5171903383.8973 -6.3217511 29.782797 -200 45 -200 45 -200 45
5172903500.5834 -6.3104849 29.840717 -200 45 -200 45 -200 45
5173903617.2695 -6.2985268 29.870802 -200 45 -200 45 -200 45
5174903733.9557 -6.2786889 29.875412 -200 45 -200 45 -200 45
5175903850.6418 -6.2668777 29.912531 -200 45 -200 45 -200 45
5176903967.3279 -6.254807 29.929712 -200 45 -200 45 -200 45
5177904084.014 -6.2496991 29.927778 -200 45 -200 45 -200 45
5178904200.7001 -6.239675 29.940685 -200 45 -200 45 -200 45
5179904317.3862 -6.2296553 29.946295 -200 45 -200 45 -200 45
5180904434.0723 -6.220685 29.935762 -200 45 -200 45 -200 45
5181904550.7585 -6.2146707 29.930214 -200 45 -200 45 -200 45
5182904667.4446 -6.2073007 29.907732 -200 45 -200 45 -200 45
5183904784.1307 -6.2015052 29.892771 -200 45 -200 45 -200 45
5184904900.8168 -6.1913185 29.870838 -200 45 -200 45 -200 45
5185905017.5029 -6.1895504 29.863865 -200 45 -200 45 -200 45
5186905134.189 -6.1855102 29.841244 -200 45 -200 45 -200 45
5187905250.8751 -6.1875081 29.836729 -200 45 -200 45 -200 45
5188905367.5613 -6.1848459 29.829393 -200 45 -200 45 -200 45
5189905484.2474 -6.1803026 29.795628 -200 45 -200 45 -200 45
5190905600.9335 -6.1706553 29.755501 -200 45 -200 45 -200 45
5191905717.6196 -6.1653671 29.735611 -200 45 -200 45 -200 45
5192905834.3057 -6.1691971 29.714407 -200 45 -200 45 -200 45
5193905950.9918 -6.1706481 29.694214 -200 45 -200 45 -200 45
5194906067.6779 -6.1726575 29.67181 -200 45 -200 45 -200 45
5195906184.3641 -6.1688657 29.679176 -200 45 -200 45 -200 45
5196906301.0502 -6.1687865 29.654425 -200 45 -200 45 -200 45
5197906417.7363 -6.1717043 29.624409 -200 45 -200 45 -200 45
5198906534.4224 -6.1726894 29.633368 -200 45 -200 45 -200 45
5199906651.1085 -6.1726837 29.597277 -200 45 -200 45 -200 45
5200906767.7946 -6.1691546 29.58782 -200 45 -200 45 -200 45
5201906884.4807 -6.1701803 29.568819 -200 45 -200 45 -200 45
5202907001.1669 -6.1761827 29.574522 -200 45 -200 45 -200 45
5203907117.853 -6.1860037 29.587141 -200 45 -200 45 -200 45
5204907234.5391 -6.1871262 29.585358 -200 45 -200 45 -200 45
5205907351.2252 -6.1836782 29.564928 -200 45 -200 45 -200 45
5206907467.9113 -6.1818318 29.551264 -200 45 -200 45 -200 45
5207907584.5974 -6.1845255 29.545168 -200 45 -200 45 -200 45
5208907701.2835 -6.1917019 29.5508 -200 45 -200 45 -200 45
5209907817.9697 -6.1970105 29.554502 -200 45 -200 45 -200 45
5210907934.6558 -6.2021275 29.571533 -200 45 -200 45 -200 45
5211908051.3419 -6.2045202 29.580217 -200 45 -200 45 -200 45
5212908168.028 -6.2085843 29.610353 -200 45 -200 45 -200 45
5213908284.7141 -6.215508 29.642014 -200 45 -200 45 -200 45
5214908401.4002 -6.2163119 29.646557 -200 45 -200 45 -200 45
5215908518.0863 -6.2186756 29.672432 -200 45 -200 45 -200 45
5216908634.7725 -6.2200007 29.713879 -200 45 -200 45 -200 45
5217908751.4586 -6.223002 29.75494 -200 45 -200 45 -200 45
5218908868.1447 -6.2295065 29.822914 -200 45 -200 45 -200 45
5219908984.8308 -6.232729 29.865078 -200 45 -200 45 -200 45
5220909101.5169 -6.229661 29.916576 -200 45 -200 45 -200 45
5221909218.203 -6.2248244 29.951427 -200 45 -200 45 -200 45
5222909334.8891 -6.2169356 29.975683 -200 45 -200 45 -200 45
5223909451.5753 -6.2107687 30.021841 -200 45 -200 45 -200 45
5224909568.2614 -6.2101984 30.062016 -200 45 -200 45 -200 45
5225909684.9475 -6.2047272 30.080687 -200 45 -200 45 -200 45
5226909801.6336 -6.1966534 30.108093 -200 45 -200 45 -200 45
5227909918.3197 -6.1905065 30.11194 -200 45 -200 45 -200 45
5228910035.0058 -6.1864681 30.116035 -200 45 -200 45 -200 45
5229910151.6919 -6.1813188 30.124277 -200 45 -200 45 -200 45
5230910268.3781 -6.1774435 30.0944 -200 45 -200 45 -200 45
5231910385.0642 -6.1693239 30.064106 -200 45 -200 45 -200 45
5232910501.7503 -6.161232 30.097246 -200 45 -200 45 -200 45
5233910618.4364 -6.160223 30.053328 -200 45 -200 45 -200 45
5234910735.1225 -6.161612 30.070629 -200 45 -200 45 -200 45
5235910851.8086 -6.1625633 30.034094 -200 45 -200 45 -200 45
5236910968.4947 -6.1580667 30.014559 -200 45 -200 45 -200 45
5237911085.1809 -6.1540704 29.984623 -200 45 -200 45 -200 45
5238911201.867 -6.1487241 29.959562 -200 45 -200 45 -200 45
5239911318.5531 -6.1483974 29.932871 -200 45 -200 45 -200 45
5240911435.2392 -6.1520824 29.922089 -200 45 -200 45 -200 45
5241911551.9253 -6.1502881 29.907612 -200 45 -200 45 -200 45
5242911668.6114 -6.1493564 29.889626 -200 45 -200 45 -200 45
5243911785.2976 -6.1505847 29.855026 -200 45 -200 45 -200 45
5244911901.9837 -6.1485076 29.84124 -200 45 -200 45 -200 45
5245912018.6698 -6.1536441 29.807196 -200 45 -200 45 -200 45
5246912135.3559 -6.1508656 29.780403 -200 45 -200 45 -200 45
5247912252.042 -6.1517301 29.750702 -200 45 -200 45 -200 45
5248912368.7281 -6.1521831 29.724813 -200 45 -200 45 -200 45
5249912485.4142 -6.1608052 29.724836 -200 45 -200 45 -200 45
5250912602.1004 -6.1671796 29.698565 -200 45 -200 45 -200 45
5251912718.7865 -6.1728749 29.669912 -200 45 -200 45 -200 45
5252912835.4726 -6.1725354 29.646864 -200 45 -200 45 -200 45
5253912952.1587 -6.1706491 29.624413 -200 45 -200 45 -200 45
5254913068.8448 -6.1745877 29.609983 -200 45 -200 45 -200 45
5255913185.5309 -6.1804514 29.582273 -200 45 -200 45 -200 45
5256913302.217 -6.1915503 29.56848 -200 45 -200 45 -200 45
5257913418.9032 -6.1995649 29.573183 -200 45 -200 45 -200 45
5258913535.5893 -6.2022166 29.583366 -200 45 -200 45 -200 45
5259913652.2754 -6.2070689 29.58353 -200 45 -200 45 -200 45
5260913768.9615 -6.2155805 29.58252 -200 45 -200 45 -200 45
5261913885.6476 -6.2236681 29.592339 -200 45 -200 45 -200 45
5262914002.3337 -6.227046 29.572834 -200 45 -200 45 -200 45
5263914119.0198 -6.2361002 29.577768 -200 45 -200 45 -200 45
5264914235.706 -6.2441483 29.571762 -200 45 -200 45 -200 45
5265914352.3921 -6.256125 29.614515 -200 45 -200 45 -200 45
5266914469.0782 -6.2693453 29.657511 -200 45 -200 45 -200 45
5267914585.7643 -6.2801952 29.656494 -200 45 -200 45 -200 45
5268914702.4504 -6.2841678 29.674526 -200 45 -200 45 -200 45
5269914819.1365 -6.2888222 29.708256 -200 45 -200 45 -200 45
5270914935.8226 -6.2963753 29.749214 -200 45 -200 45 -200 45
5271915052.5088 -6.3138599 29.829842 -200 45 -200 45 -200 45
5272915169.1949 -6.3262339 29.917042 -200 45 -200 45 -200 45
5273915285.881 -6.334136 29.987566 -200 45 -200 45 -200 45
5274915402.5671 -6.3430882 30.08477 -200 45 -200 45 -200 45
5275915519.2532 -6.3469415 30.189236 -200 45 -200 45 -200 45
5276915635.9393 -6.3509526 30.324961 -200 45 -200 45 -200 45
5277915752.6254 -6.3524213 30.413942 -200 45 -200 45 -200 45
5278915869.3116 -6.3455281 30.515005 -200 45 -200 45 -200 45
5279915985.9977 -6.3418293 30.614824 -200 45 -200 45 -200 45
5280916102.6838 -6.3353157 30.740404 -200 45 -200 45 -200 45
5281916219.3699 -6.3337421 30.830402 -200 45 -200 45 -200 45
5282916336.056 -6.3250165 30.915545 -200 45 -200 45 -200 45
5283916452.7421 -6.3171453 30.973444 -200 45 -200 45 -200 45
5284916569.4282 -6.3023796 31.033491 -200 45 -200 45 -200 45
5285916686.1144 -6.2882905 31.069134 -200 45 -200 45 -200 45
5286916802.8005 -6.2781315 31.077358 -200 45 -200 45 -200 45
5287916919.4866 -6.2763577 31.108957 -200 45 -200 45 -200 45
5288917036.1727 -6.2694111 31.143085 -200 45 -200 45 -200 45
5289917152.8588 -6.25985 31.149683 -200 45 -200 45 -200 45
5290917269.5449 -6.2508559 31.155195 -200 45 -200 45 -200 45
5291917386.231 -6.2435174 31.164705 -200 45 -200 45 -200 45
5292917502.9172 -6.2420292 31.151896 -200 45 -200 45 -200 45
5293917619.6033 -6.235673 31.150642 -200 45 -200 45 -200 45
5294917736.2894 -6.2286234 31.132631 -200 45 -200 45 -200 45
5295917852.9755 -6.2264771 31.145973 -200 45 -200 45 -200 45
5296917969.6616 -6.2262254 31.186388 -200 45 -200 45 -200 45
5297918086.3477 -6.2306485 31.211479 -200 45 -200 45 -200 45
5298918203.0338 -6.2263756 31.237812 -200 45 -200 45 -200 45
5299918319.72 -6.2219758 31.243925 -200 45 -200 45 -200 45
5300918436.4061 -6.2122741 31.250996 -200 45 -200 45 -200 45
5301918553.0922 -6.2059608 31.282427 -200 45 -200 45 -200 45
5302918669.7783 -6.1996684 31.281805 -200 45 -200 45 -200 45
5303918786.4644 -6.1972375 31.304054 -200 45 -200 45 -200 45
5304918903.1505 -6.1947079 31.321571 -200 45 -200 45 -200 45
5305919019.8366 -6.1851201 31.323252 -200 45 -200 45 -200 45
5306919136.5228 -6.1830263 31.326933 -200 45 -200 45 -200 45
5307919253.2089 -6.1755509 31.325317 -200 45 -200 45 -200 45
5308919369.895 -6.1704445 31.323009 -200 45 -200 45 -200 45
5309919486.5811 -6.1638951 31.302135 -200 45 -200 45 -200 45
5310919603.2672 -6.1561832 31.283861 -200 45 -200 45 -200 45
5311919719.9533 -6.1515346 31.266222 -200 45 -200 45 -200 45
5312919836.6394 -6.1531625 31.263447 -200 45 -200 45 -200 45
5313919953.3256 -6.1550646 31.255503 -200 45 -200 45 -200 45
5314920070.0117 -6.1519542 31.221102 -200 45 -200 45 -200 45
5315920186.6978 -6.1459374 31.196562 -200 45 -200 45 -200 45
5316920303.3839 -6.1395521 31.16894 -200 45 -200 45 -200 45
5317920420.07 -6.1342025 31.157249 -200 45 -200 45 -200 45
5318920536.7561 -6.135766 31.141609 -200 45 -200 45 -200 45
5319920653.4422 -6.1412644 31.114893 -200 45 -200 45 -200 45
5320920770.1284 -6.1402946 31.121292 -200 45 -200 45 -200 45
5321920886.8145 -6.136323 31.107574 -200 45 -200 45 -200 45
5322921003.5006 -6.1371317 31.09203 -200 45 -200 45 -200 45
5323921120.1867 -6.1384587 31.07917 -200 45 -200 45 -200 45
5324921236.8728 -6.1396379 31.061682 -200 45 -200 45 -200 45
5325921353.5589 -6.1380019 31.034136 -200 45 -200 45 -200 45
5326921470.245 -6.1344557 31.017618 -200 45 -200 45 -200 45
5327921586.9312 -6.1385546 31.002594 -200 45 -200 45 -200 45
5328921703.6173 -6.145453 31.017239 -200 45 -200 45 -200 45
5329921820.3034 -6.146111 31.021856 -200 45 -200 45 -200 45
5330921936.9895 -6.149498 30.990095 -200 45 -200 45 -200 45
5331922053.6756 -6.1445317 30.980093 -200 45 -200 45 -200 45
5332922170.3617 -6.1453414 30.963484 -200 45 -200 45 -200 45
5333922287.0478 -6.1447554 30.955603 -200 45 -200 45 -200 45
5334922403.734 -6.1505876 30.967293 -200 45 -200 45 -200 45
5335922520.4201 -6.1562924 30.971294 -200 45 -200 45 -200 45
5336922637.1062 -6.1571441 30.97662 -200 45 -200 45 -200 45
5337922753.7923 -6.1606421 30.988138 -200 45 -200 45 -200 45
5338922870.4784 -6.1621041 31.01663 -200 45 -200 45 -200 45
5339922987.1645 -6.165277 31.031328 -200 45 -200 45 -200 45
5340923103.8506 -6.1663289 31.035833 -200 45 -200 45 -200 45
5341923220.5368 -6.1590466 31.047298 -200 45 -200 45 -200 45
5342923337.2229 -6.1601396 31.066 -200 45 -200 45 -200 45
5343923453.909 -6.1607647 31.113028 -200 45 -200 45 -200 45
5344923570.5951 -6.1623178 31.155668 -200 45 -200 45 -200 45
5345923687.2812 -6.1614118 31.171419 -200 45 -200 45 -200 45
5346923803.9673 -6.1521521 31.18993 -200 45 -200 45 -200 45
5347923920.6534 -6.1437693 31.182573 -200 45 -200 45 -200 45
5348924037.3396 -6.1356072 31.166378 -200 45 -200 45 -200 45
5349924154.0257 -6.1308379 31.153763 -200 45 -200 45 -200 45
5350924270.7118 -6.1290216 31.165043 -200 45 -200 45 -200 45
5351924387.3979 -6.1278749 31.117321 -200 45 -200 45 -200 45
5352924504.084 -6.1237569 31.101048 -200 45 -200 45 -200 45
5353924620.7701 -6.1153059 31.075531 -200 45 -200 45 -200 45
5354924737.4562 -6.1191821 31.057577 -200 45 -200 45 -200 45
5355924854.1424 -6.1196499 31.009666 -200 45 -200 45 -200 45
5356924970.8285 -6.1179419 30.984583 -200 45 -200 45 -200 45
5357925087.5146 -6.112227 30.933384 -200 45 -200 45 -200 45
5358925204.2007 -6.1120176 30.904999 -200 45 -200 45 -200 45
5359925320.8868 -6.1168766 30.903946 -200 45 -200 45 -200 45
5360925437.5729 -6.1227818 30.903168 -200 45 -200 45 -200 45
5361925554.259 -6.1231151 30.862446 -200 45 -200 45 -200 45
5362925670.9452 -6.1208048 30.831457 -200 45 -200 45 -200 45
5363925787.6313 -6.1161647 30.807014 -200 45 -200 45 -200 45
5364925904.3174 -6.1160169 30.779455 -200 45 -200 45 -200 45
5365926021.0035 -6.1186061 30.744314 -200 45 -200 45 -200 45
5366926137.6896 -6.1236963 30.737463 -200 45 -200 45 -200 45
5367926254.3757 -6.1267538 30.715273 -200 45 -200 45 -200 45
5368926371.0618 -6.127995 30.697647 -200 45 -200 45 -200 45
5369926487.748 -6.126482 30.678816 -200 45 -200 45 -200 45
5370926604.4341 -6.1322556 30.662607 -200 45 -200 45 -200 45
5371926721.1202 -6.1331315 30.603697 -200 45 -200 45 -200 45
5372926837.8063 -6.1352267 30.600327 -200 45 -200 45 -200 45
5373926954.4924 -6.1334801 30.543779 -200 45 -200 45 -200 45
5374927071.1785 -6.1373062 30.534313 -200 45 -200 45 -200 45
5375927187.8646 -6.1480999 30.534668 -200 45 -200 45 -200 45
5376927304.5508 -6.1547203 30.522449 -200 45 -200 45 -200 45
5377927421.2369 -6.155004 30.511208 -200 45 -200 45 -200 45
5378927537.923 -6.1576686 30.472422 -200 45 -200 45 -200 45
5379927654.6091 -6.1619821 30.465294 -200 45 -200 45 -200 45
5380927771.2952 -6.1621914 30.438168 -200 45 -200 45 -200 45
5381927887.9813 -6.1741061 30.414856 -200 45 -200 45 -200 45
5382928004.6674 -6.1804209 30.421114 -200 45 -200 45 -200 45
5383928121.3536 -6.1833568 30.429289 -200 45 -200 45 -200 45
5384928238.0397 -6.1887932 30.425406 -200 45 -200 45 -200 45
5385928354.7258 -6.1938252 30.430372 -200 45 -200 45 -200 45
5386928471.4119 -6.1993747 30.417118 -200 45 -200 45 -200 45
5387928588.098 -6.206203 30.417248 -200 45 -200 45 -200 45
5388928704.7841 -6.2087798 30.387249 -200 45 -200 45 -200 45
5389928821.4702 -6.2099495 30.390697 -200 45 -200 45 -200 45
5390928938.1564 -6.2179632 30.412237 -200 45 -200 45 -200 45
5391929054.8425 -6.2269764 30.420462 -200 45 -200 45 -200 45
5392929171.5286 -6.2377653 30.435484 -200 45 -200 45 -200 45
5393929288.2147 -6.2401381 30.440022 -200 45 -200 45 -200 45
5394929404.9008 -6.2395387 30.426281 -200 45 -200 45 -200 45
5395929521.5869 -6.2400661 30.440012 -200 45 -200 45 -200 45
5396929638.273 -6.2487187 30.440552 -200 45 -200 45 -200 45
5397929754.9592 -6.2580738 30.465055 -200 45 -200 45 -200 45
5398929871.6453 -6.2636104 30.467207 -200 45 -200 45 -200 45
5399929988.3314 -6.2663131 30.486757 -200 45 -200 45 -200 45
5400930105.0175 -6.2714839 30.485273 -200 45 -200 45 -200 45
5401930221.7036 -6.2793746 30.511702 -200 45 -200 45 -200 45
5402930338.3897 -6.2883596 30.516893 -200 45 -200 45 -200 45
5403930455.0758 -6.2870002 30.520008 -200 45 -200 45 -200 45
5404930571.762 -6.2903266 30.502533 -200 45 -200 45 -200 45
5405930688.4481 -6.2947345 30.524986 -200 45 -200 45 -200 45
5406930805.1342 -6.3044982 30.563501 -200 45 -200 45 -200 45
5407930921.8203 -6.3160253 30.584726 -200 45 -200 45 -200 45
5408931038.5064 -6.3203926 30.60047 -200 45 -200 45 -200 45
5409931155.1925 -6.3229842 30.610186 -200 45 -200 45 -200 45
5410931271.8786 -6.3251987 30.631329 -200 45 -200 45 -200 45
5411931388.5648 -6.329689 30.612747 -200 45 -200 45 -200 45
5412931505.2509 -6.3355117 30.639912 -200 45 -200 45 -200 45
5413931621.937 -6.3463011 30.648552 -200 45 -200 45 -200 45
5414931738.6231 -6.3512678 30.685595 -200 45 -200 45 -200 45
5415931855.3092 -6.3596983 30.703527 -200 45 -200 45 -200 45
5416931971.9953 -6.3651752 30.722198 -200 45 -200 45 -200 45
5417932088.6814 -6.3712349 30.753139 -200 45 -200 45 -200 45
5418932205.3676 -6.3835602 30.773212 -200 45 -200 45 -200 45
5419932322.0537 -6.3860221 30.784483 -200 45 -200 45 -200 45
5420932438.7398 -6.3917766 30.804604 -200 45 -200 45 -200 45
5421932555.4259 -6.4027386 30.841064 -200 45 -200 45 -200 45
5422932672.112 -6.4144969 30.877274 -200 45 -200 45 -200 45
5423932788.7981 -6.4246902 30.936516 -200 45 -200 45 -200 45
5424932905.4842 -6.437252 30.979368 -200 45 -200 45 -200 45
5425933022.1704 -6.4426665 31.026838 -200 45 -200 45 -200 45
5426933138.8565 -6.4460058 31.070723 -200 45 -200 45 -200 45
5427933255.5426 -6.4521375 31.11825 -200 45 -200 45 -200 45
5428933372.2287 -6.4640265 31.205858 -200 45 -200 45 -200 45
5429933488.9148 -6.4769244 31.290897 -200 45 -200 45 -200 45
5430933605.6009 -6.4836826 31.380327 -200 45 -200 45 -200 45
5431933722.287 -6.4900422 31.471655 -200 45 -200 45 -200 45
5432933838.9732 -6.4938884 31.582542 -200 45 -200 45 -200 45
5433933955.6593 -6.5007215 31.702866 -200 45 -200 45 -200 45
5434934072.3454 -6.503243 31.80769 -200 45 -200 45 -200 45
5435934189.0315 -6.5002856 31.918831 -200 45 -200 45 -200 45
5436934305.7176 -6.4985843 32.020077 -200 45 -200 45 -200 45
5437934422.4037 -6.4995613 32.150501 -200 45 -200 45 -200 45
5438934539.0898 -6.4940109 32.282986 -200 45 -200 45 -200 45
5439934655.776 -6.4906468 32.388294 -200 45 -200 45 -200 45
5440934772.4621 -6.4809427 32.499763 -200 45 -200 45 -200 45
5441934889.1482 -6.4659252 32.539108 -200 45 -200 45 -200 45
5442935005.8343 -6.4574409 32.644619 -200 45 -200 45 -200 45
5443935122.5204 -6.4412694 32.701271 -200 45 -200 45 -200 45
5444935239.2065 -6.4337893 32.743446 -200 45 -200 45 -200 45
5445935355.8926 -6.4238734 32.797794 -200 45 -200 45 -200 45
5446935472.5788 -6.412559 32.836143 -200 45 -200 45 -200 45
5447935589.2649 -6.4001031 32.846706 -200 45 -200 45 -200 45
5448935705.951 -6.3931208 32.865665 -200 45 -200 45 -200 45
5449935822.6371 -6.3837371 32.883312 -200 45 -200 45 -200 45
5450935939.3232 -6.3741655 32.88475 -200 45 -200 45 -200 45
5451936056.0093 -6.3627353 32.860851 -200 45 -200 45 -200 45
5452936172.6954 -6.3542933 32.85041 -200 45 -200 45 -200 45
5453936289.3816 -6.3483148 32.881687 -200 45 -200 45 -200 45
5454936406.0677 -6.3479962 32.889786 -200 45 -200 45 -200 45
5455936522.7538 -6.3429213 32.873306 -200 45 -200 45 -200 45
5456936639.4399 -6.3347926 32.861137 -200 45 -200 45 -200 45
5457936756.126 -6.3254399 32.840805 -200 45 -200 45 -200 45
5458936872.8121 -6.3182545 32.828796 -200 45 -200 45 -200 45
5459936989.4983 -6.3127999 32.83144 -200 45 -200 45 -200 45
5460937106.1844 -6.313437 32.811764 -200 45 -200 45 -200 45
5461937222.8705 -6.3115849 32.769962 -200 45 -200 45 -200 45
5462937339.5566 -6.3077474 32.796055 -200 45 -200 45 -200 45
5463937456.2427 -6.3067508 32.768559 -200 45 -200 45 -200 45
5464937572.9288 -6.3052282 32.759758 -200 45 -200 45 -200 45
5465937689.6149 -6.3037057 32.741039 -200 45 -200 45 -200 45
5466937806.3011 -6.3023529 32.724586 -200 45 -200 45 -200 45
5467937922.9872 -6.2992578 32.681473 -200 45 -200 45 -200 45
5468938039.6733 -6.2958746 32.669502 -200 45 -200 45 -200 45
5469938156.3594 -6.299221 32.664566 -200 45 -200 45 -200 45
5470938273.0455 -6.3040819 32.685696 -200 45 -200 45 -200 45
5471938389.7316 -6.3096509 32.650986 -200 45 -200 45 -200 45
5472938506.4177 -6.3085032 32.648167 -200 45 -200 45 -200 45
5473938623.1039 -6.3048172 32.627167 -200 45 -200 45 -200 45
5474938739.79 -6.3033109 32.621334 -200 45 -200 45 -200 45
5475938856.4761 -6.3100562 32.625473 -200 45 -200 45 -200 45
5476938973.1622 -6.3173928 32.631828 -200 45 -200 45 -200 45
5477939089.8483 -6.3197322 32.648563 -200 45 -200 45 -200 45
5478939206.5344 -6.325892 32.663727 -200 45 -200 45 -200 45
5479939323.2205 -6.3285098 32.68211 -200 45 -200 45 -200 45
5480939439.9067 -6.3338838 32.714367 -200 45 -200 45 -200 45
5481939556.5928 -6.3364353 32.742912 -200 45 -200 45 -200 45
5482939673.2789 -6.3341331 32.772247 -200 45 -200 45 -200 45
5483939789.965 -6.3341255 32.817841 -200 45 -200 45 -200 45
5484939906.6511 -6.3356447 32.860153 -200 45 -200 45 -200 45
5485940023.3372 -6.3388424 32.934547 -200 45 -200 45 -200 45
5486940140.0233 -6.3413625 32.96912 -200 45 -200 45 -200 45
5487940256.7095 -6.3375154 33.025517 -200 45 -200 45 -200 45
5488940373.3956 -6.330493 33.048161 -200 45 -200 45 -200 45
5489940490.0817 -6.3212972 33.097874 -200 45 -200 45 -200 45
5490940606.7678 -6.3128633 33.125755 -200 45 -200 45 -200 45
5491940723.4539 -6.3100772 33.164047 -200 45 -200 45 -200 45
5492940840.14 -6.3076653 33.186726 -200 45 -200 45 -200 45
5493940956.8261 -6.3013735 33.202114 -200 45 -200 45 -200 45
5494941073.5123 -6.2943525 33.218315 -200 45 -200 45 -200 45
5495941190.1984 -6.2871571 33.228672 -200 45 -200 45 -200 45
5496941306.8845 -6.285996 33.241936 -200 45 -200 45 -200 45
5497941423.5706 -6.2795191 33.243591 -200 45 -200 45 -200 45
5498941540.2567 -6.2714081 33.226711 -200 45 -200 45 -200 45
5499941656.9428 -6.2644634 33.229168 -200 45 -200 45 -200 45
5500941773.6289 -6.2618327 33.2313 -200 45 -200 45 -200 45
5501941890.3151 -6.2608786 33.248241 -200 45 -200 45 -200 45
5502942007.0012 -6.259449 33.263172 -200 45 -200 45 -200 45
5503942123.6873 -6.2557545 33.239017 -200 45 -200 45 -200 45
5504942240.3734 -6.2464981 33.211586 -200 45 -200 45 -200 45
5505942357.0595 -6.2404056 33.203133 -200 45 -200 45 -200 45
5506942473.7456 -6.2353339 33.179779 -200 45 -200 45 -200 45
5507942590.4317 -6.2415428 33.185722 -200 45 -200 45 -200 45
5508942707.1179 -6.2370715 33.175446 -200 45 -200 45 -200 45
5509942823.804 -6.2337403 33.149338 -200 45 -200 45 -200 45
5510942940.4901 -6.2317309 33.158321 -200 45 -200 45 -200 45
5511943057.1762 -6.2306032 33.170815 -200 45 -200 45 -200 45
5512943173.8623 -6.2313747 33.149384 -200 45 -200 45 -200 45
5513943290.5484 -6.2288127 33.13715 -200 45 -200 45 -200 45
5514943407.2345 -6.228014 33.130196 -200 45 -200 45 -200 45
5515943523.9207 -6.222085 33.111328 -200 45 -200 45 -200 45
5516943640.6068 -6.2238765 33.134621 -200 45 -200 45 -200 45
5517943757.2929 -6.2246375 33.145176 -200 45 -200 45 -200 45
5518943873.979 -6.2257814 33.149284 -200 45 -200 45 -200 45
5519943990.6651 -6.2218304 33.126736 -200 45 -200 45 -200 45
5520944107.3512 -6.2171621 33.10923 -200 45 -200 45 -200 45
5521944224.0373 -6.2105494 33.113434 -200 45 -200 45 -200 45
5522944340.7235 -6.206502 33.083942 -200 45 -200 45 -200 45
5523944457.4096 -6.2090364 33.095192 -200 45 -200 45 -200 45
5524944574.0957 -6.2062469 33.067257 -200 45 -200 45 -200 45
5525944690.7818 -6.2059469 33.045376 -200 45 -200 45 -200 45
5526944807.4679 -6.201529 33.040607 -200 45 -200 45 -200 45
5527944924.154 -6.2009187 33.022797 -200 45 -200 45 -200 45
5528945040.8401 -6.2003388 33.002125 -200 45 -200 45 -200 45
5529945157.5263 -6.1990061 32.95863 -200 45 -200 45 -200 45
5530945274.2124 -6.1983428 32.939823 -200 45 -200 45 -200 45
5531945390.8985 -6.1956773 32.905533 -200 45 -200 45 -200 45
5532945507.5846 -6.2009926 32.902142 -200 45 -200 45 -200 45
5533945624.2707 -6.2054782 32.892414 -200 45 -200 45 -200 45
5534945740.9568 -6.205986 32.857765 -200 45 -200 45 -200 45
5535945857.6429 -6.2063646 32.848 -200 45 -200 45 -200 45
5536945974.3291 -6.1993589 32.80843 -200 45 -200 45 -200 45
5537946091.0152 -6.2014837 32.787262 -200 45 -200 45 -200 45
5538946207.7013 -6.2036343 32.766796 -200 45 -200 45 -200 45
5539946324.3874 -6.2105722 32.739689 -200 45 -200 45 -200 45
5540946441.0735 -6.2105327 32.730881 -200 45 -200 45 -200 45
5541946557.7596 -6.2139063 32.705074 -200 45 -200 45 -200 45
5542946674.4457 -6.2162437 32.669819 -200 45 -200 45 -200 45
5543946791.1319 -6.2194505 32.670216 -200 45 -200 45 -200 45
5544946907.818 -6.2242393 32.633453 -200 45 -200 45 -200 45
5545947024.5041 -6.2253828 32.602173 -200 45 -200 45 -200 45
5546947141.1902 -6.227766 32.569427 -200 45 -200 45 -200 45
5547947257.8763 -6.2314377 32.559536 -200 45 -200 45 -200 45
5548947374.5624 -6.2400341 32.536606 -200 45 -200 45 -200 45
5549947491.2485 -6.2520676 32.521145 -200 45 -200 45 -200 45
5550947607.9347 -6.2605371 32.508411 -200 45 -200 45 -200 45
5551947724.6208 -6.2631431 32.481441 -200 45 -200 45 -200 45
5552947841.3069 -6.2652869 32.444862 -200 45 -200 45 -200 45
5553947957.993 -6.2722235 32.462933 -200 45 -200 45 -200 45
5554948074.6791 -6.2853127 32.46632 -200 45 -200 45 -200 45
5555948191.3652 -6.2952256 32.464714 -200 45 -200 45 -200 45
5556948308.0513 -6.304739 32.459812 -200 45 -200 45 -200 45
5557948424.7375 -6.3101158 32.482971 -200 45 -200 45 -200 45
5558948541.4236 -6.3207021 32.500252 -200 45 -200 45 -200 45
5559948658.1097 -6.3327484 32.523056 -200 45 -200 45 -200 45
5560948774.7958 -6.3406291 32.550919 -200 45 -200 45 -200 45
5561948891.4819 -6.3471837 32.564579 -200 45 -200 45 -200 45
5562949008.168 -6.3548346 32.618851 -200 45 -200 45 -200 45
5563949124.8541 -6.3655419 32.660122 -200 45 -200 45 -200 45
5564949241.5403 -6.378015 32.712959 -200 45 -200 45 -200 45
5565949358.2264 -6.3883133 32.787651 -200 45 -200 45 -200 45
5566949474.9125 -6.3927913 32.847893 -200 45 -200 45 -200 45
5567949591.5986 -6.3948665 32.904587 -200 45 -200 45 -200 45
5568949708.2847 -6.3940978 33.00243 -200 45 -200 45 -200 45
5569949824.9708 -6.3969698 33.064819 -200 45 -200 45 -200 45
5570949941.6569 -6.4061537 33.161415 -200 45 -200 45 -200 45
5571950058.3431 -6.4036927 33.21516 -200 45 -200 45 -200 45
5572950175.0292 -6.4007134 33.304157 -200 45 -200 45 -200 45
5573950291.7153 -6.3963108 33.370373 -200 45 -200 45 -200 45
5574950408.4014 -6.3940811 33.436119 -200 45 -200 45 -200 45
5575950525.0875 -6.3904195 33.503082 -200 45 -200 45 -200 45
5576950641.7736 -6.3812256 33.550533 -200 45 -200 45 -200 45
5577950758.4597 -6.3710828 33.57616 -200 45 -200 45 -200 45
5578950875.1459 -6.3640652 33.608494 -200 45 -200 45 -200 45
5579950991.832 -6.3639026 33.633945 -200 45 -200 45 -200 45
5580951108.5181 -6.3601584 33.668465 -200 45 -200 45 -200 45
5581951225.2042 -6.35779 33.660652 -200 45 -200 45 -200 45
5582951341.8903 -6.3507156 33.676628 -200 45 -200 45 -200 45
5583951458.5764 -6.3400621 33.687511 -200 45 -200 45 -200 45
5584951575.2625 -6.3372746 33.670135 -200 45 -200 45 -200 45
5585951691.9487 -6.3369231 33.695618 -200 45 -200 45 -200 45
5586951808.6348 -6.3362246 33.683353 -200 45 -200 45 -200 45
5587951925.3209 -6.3319373 33.676659 -200 45 -200 45 -200 45
5588952042.007 -6.32902 33.695824 -200 45 -200 45 -200 45
5589952158.6931 -6.3285613 33.677967 -200 45 -200 45 -200 45
5590952275.3792 -6.3266602 33.700871 -200 45 -200 45 -200 45
5591952392.0653 -6.3289165 33.699795 -200 45 -200 45 -200 45
5592952508.7515 -6.3282523 33.689903 -200 45 -200 45 -200 45
5593952625.4376 -6.3214688 33.692371 -200 45 -200 45 -200 45
5594952742.1237 -6.3211617 33.693359 -200 45 -200 45 -200 45
5595952858.8098 -6.3242564 33.70414 -200 45 -200 45 -200 45
5596952975.4959 -6.3283763 33.744522 -200 45 -200 45 -200 45
5597953092.182 -6.3252153 33.740883 -200 45 -200 45 -200 45
5598953208.8681 -6.3225975 33.719311 -200 45 -200 45 -200 45
5599953325.5543 -6.3184795 33.74152 -200 45 -200 45 -200 45
5600953442.2404 -6.3155713 33.749321 -200 45 -200 45 -200 45
5601953558.9265 -6.3170252 33.770531 -200 45 -200 45 -200 45
5602953675.6126 -6.3182149 33.771278 -200 45 -200 45 -200 45
5603953792.2987 -6.3158665 33.789665 -200 45 -200 45 -200 45
5604953908.9848 -6.3150783 33.792786 -200 45 -200 45 -200 45
5605954025.6709 -6.3128748 33.792023 -200 45 -200 45 -200 45
5606954142.3571 -6.3167734 33.83559 -200 45 -200 45 -200 45
5607954259.0432 -6.3180881 33.839706 -200 45 -200 45 -200 45
5608954375.7293 -6.3146539 33.842937 -200 45 -200 45 -200 45
5609954492.4154 -6.3093944 33.854496 -200 45 -200 45 -200 45
5610954609.1015 -6.3112035 33.88026 -200 45 -200 45 -200 45
5611954725.7876 -6.3157635 33.915867 -200 45 -200 45 -200 45
5612954842.4737 -6.3181114 33.936531 -200 45 -200 45 -200 45
5613954959.1599 -6.3112707 33.976196 -200 45 -200 45 -200 45
5614955075.846 -6.3086243 33.959999 -200 45 -200 45 -200 45
5615955192.5321 -6.3006315 34.016232 -200 45 -200 45 -200 45
5616955309.2182 -6.2946916 34.027702 -200 45 -200 45 -200 45
5617955425.9043 -6.2955847 34.04467 -200 45 -200 45 -200 45
5618955542.5904 -6.2916789 34.060383 -200 45 -200 45 -200 45
5619955659.2765 -6.2827973 34.061363 -200 45 -200 45 -200 45
5620955775.9627 -6.2795348 34.080311 -200 45 -200 45 -200 45
5621955892.6488 -6.2744985 34.078304 -200 45 -200 45 -200 45
5622956009.3349 -6.2719121 34.065834 -200 45 -200 45 -200 45
5623956126.021 -6.2663083 34.054043 -200 45 -200 45 -200 45
5624956242.7071 -6.258914 34.030743 -200 45 -200 45 -200 45
5625956359.3932 -6.2559376 34.020943 -200 45 -200 45 -200 45
5626956476.0793 -6.252368 34.025913 -200 45 -200 45 -200 45
5627956592.7655 -6.2550516 34.019352 -200 45 -200 45 -200 45
5628956709.4516 -6.2568946 33.982796 -200 45 -200 45 -200 45
5629956826.1377 -6.2526999 33.983288 -200 45 -200 45 -200 45
5630956942.8238 -6.2497563 33.958767 -200 45 -200 45 -200 45
5631957059.5099 -6.2436318 33.962948 -200 45 -200 45 -200 45
5632957176.196 -6.2440333 33.953846 -200 45 -200 45 -200 45
5633957292.8821 -6.2498479 33.936268 -200 45 -200 45 -200 45
5634957409.5683 -6.2479258 33.931026 -200 45 -200 45 -200 45
5635957526.2544 -6.2474985 33.918373 -200 45 -200 45 -200 45
5636957642.9405 -6.2481194 33.915825 -200 45 -200 45 -200 45
5637957759.6266 -6.245214 33.919174 -200 45 -200 45 -200 45
5638957876.3127 -6.2439384 33.906956 -200 45 -200 45 -200 45
5639957992.9988 -6.2438698 33.90567 -200 45 -200 45 -200 45
5640958109.6849 -6.2413297 33.884827 -200 45 -200 45 -200 45
5641958226.3711 -6.2413163 33.887142 -200 45 -200 45 -200 45
5642958343.0572 -6.2408185 33.87352 -200 45 -200 45 -200 45
5643958459.7433 -6.2455711 33.892349 -200 45 -200 45 -200 45
5644958576.4294 -6.2440209 33.87505 -200 45 -200 45 -200 45
5645958693.1155 -6.2388601 33.859703 -200 45 -200 45 -200 45
5646958809.8016 -6.2371254 33.857571 -200 45 -200 45 -200 45
5647958926.4877 -6.2323642 33.83337 -200 45 -200 45 -200 45
5648959043.1739 -6.2377357 33.840626 -200 45 -200 45 -200 45
5649959159.86 -6.2363653 33.808113 -200 45 -200 45 -200 45
5650959276.5461 -6.2374244 33.81324 -200 45 -200 45 -200 45
5651959393.2322 -6.236969 33.777023 -200 45 -200 45 -200 45
5652959509.9183 -6.2375164 33.767986 -200 45 -200 45 -200 45
5653959626.6044 -6.2392516 33.768635 -200 45 -200 45 -200 45
5654959743.2905 -6.2397842 33.737926 -200 45 -200 45 -200 45
5655959859.9767 -6.2393064 33.722313 -200 45 -200 45 -200 45
5656959976.6628 -6.2385802 33.711258 -200 45 -200 45 -200 45
5657960093.3489 -6.2400584 33.707806 -200 45 -200 45 -200 45
5658960210.035 -6.2432404 33.71175 -200 45 -200 45 -200 45
5659960326.7211 -6.2491932 33.715775 -200 45 -200 45 -200 45
5660960443.4072 -6.250617 33.715214 -200 45 -200 45 -200 45
5661960560.0933 -6.2458634 33.674393 -200 45 -200 45 -200 45
5662960676.7795 -6.2456884 33.664619 -200 45 -200 45 -200 45
5663960793.4656 -6.2424369 33.647652 -200 45 -200 45 -200 45
5664960910.1517 -6.2500892 33.655132 -200 45 -200 45 -200 45
5665961026.8378 -6.2515798 33.645504 -200 45 -200 45 -200 45
5666961143.5239 -6.2524304 33.622833 -200 45 -200 45 -200 45
5667961260.21 -6.2526617 33.606129 -200 45 -200 45 -200 45
5668961376.8961 -6.255456 33.612167 -200 45 -200 45 -200 45
5669961493.5823 -6.2591786 33.594505 -200 45 -200 45 -200 45
5670961610.2684 -6.2610731 33.572117 -200 45 -200 45 -200 45
5671961726.9545 -6.2610679 33.550747 -200 45 -200 45 -200 45
5672961843.6406 -6.2609634 33.523289 -200 45 -200 45 -200 45
5673961960.3267 -6.2670217 33.529316 -200 45 -200 45 -200 45
5674962077.0128 -6.2749553 33.55341 -200 45 -200 45 -200 45
5675962193.6989 -6.2792583 33.5424 -200 45 -200 45 -200 45
5676962310.3851 -6.2825022 33.520889 -200 45 -200 45 -200 45
5677962427.0712 -6.2795415 33.510994 -200 45 -200 45 -200 45
5678962543.7573 -6.2812309 33.487545 -200 45 -200 45 -200 45
5679962660.4434 -6.285089 33.503082 -200 45 -200 45 -200 45
5680962777.1295 -6.2915092 33.511803 -200 45 -200 45 -200 45
5681962893.8156 -6.2964172 33.50502 -200 45 -200 45 -200 45
5682963010.5018 -6.2984967 33.509193 -200 45 -200 45 -200 45
5683963127.1879 -6.3018312 33.512821 -200 45 -200 45 -200 45
5684963243.874 -6.304111 33.517448 -200 45 -200 45 -200 45
5685963360.5601 -6.3125501 33.518009 -200 45 -200 45 -200 45
5686963477.2462 -6.3119221 33.525303 -200 45 -200 45 -200 45
5687963593.9323 -6.311388 33.51989 -200 45 -200 45 -200 45
5688963710.6184 -6.3158259 33.517685 -200 45 -200 45 -200 45
5689963827.3046 -6.3214173 33.537254 -200 45 -200 45 -200 45
5690963943.9907 -6.3286252 33.537918 -200 45 -200 45 -200 45
5691964060.6768 -6.332746 33.554874 -200 45 -200 45 -200 45
5692964177.3629 -6.3321357 33.55595 -200 45 -200 45 -200 45
5693964294.049 -6.3315597 33.541176 -200 45 -200 45 -200 45
5694964410.7351 -6.3301082 33.563381 -200 45 -200 45 -200 45
5695964527.4212 -6.3343067 33.57338 -200 45 -200 45 -200 45
5696964644.1074 -6.3412476 33.595917 -200 45 -200 45 -200 45
5697964760.7935 -6.3424449 33.598289 -200 45 -200 45 -200 45
5698964877.4796 -6.343153 33.603729 -200 45 -200 45 -200 45
5699964994.1657 -6.3478022 33.615818 -200 45 -200 45 -200 45
5700965110.8518 -6.3512335 33.623714 -200 45 -200 45 -200 45
5701965227.5379 -6.3523388 33.6432 -200 45 -200 45 -200 45
5702965344.224 -6.3532944 33.622761 -200 45 -200 45 -200 45
5703965460.9102 -6.3534346 33.636341 -200 45 -200 45 -200 45
5704965577.5963 -6.3563662 33.658901 -200 45 -200 45 -200 45
5705965694.2824 -6.3614054 33.667809 -200 45 -200 45 -200 45
5706965810.9685 -6.3689699 33.697586 -200 45 -200 45 -200 45
5707965927.6546 -6.3727493 33.686001 -200 45 -200 45 -200 45
5708966044.3407 -6.3706326 33.697197 -200 45 -200 45 -200 45
5709966161.0268 -6.368135 33.710831 -200 45 -200 45 -200 45
5710966277.713 -6.3700414 33.70174 -200 45 -200 45 -200 45
5711966394.3991 -6.3742018 33.701542 -200 45 -200 45 -200 45
5712966511.0852 -6.378973 33.728584 -200 45 -200 45 -200 45
5713966627.7713 -6.3820772 33.743584 -200 45 -200 45 -200 45
5714966744.4574 -6.3840618 33.768211 -200 45 -200 45 -200 45
5715966861.1435 -6.3841605 33.767887 -200 45 -200 45 -200 45
5716966977.8296 -6.3889098 33.784657 -200 45 -200 45 -200 45
5717967094.5158 -6.3900442 33.810947 -200 45 -200 45 -200 45
5718967211.2019 -6.3908663 33.791695 -200 45 -200 45 -200 45
5719967327.888 -6.3895812 33.804825 -200 45 -200 45 -200 45
5720967444.5741 -6.3914504 33.823601 -200 45 -200 45 -200 45
5721967561.2602 -6.3978434 33.853981 -200 45 -200 45 -200 45
5722967677.9463 -6.4046936 33.873451 -200 45 -200 45 -200 45
5723967794.6324 -6.4023538 33.887821 -200 45 -200 45 -200 45
5724967911.3186 -6.400002 33.887043 -200 45 -200 45 -200 45
5725968028.0047 -6.3986382 33.907986 -200 45 -200 45 -200 45
5726968144.6908 -6.3969903 33.9109 -200 45 -200 45 -200 45
5727968261.3769 -6.4038815 33.926819 -200 45 -200 45 -200 45
5728968378.063 -6.4062157 33.946896 -200 45 -200 45 -200 45
5729968494.7491 -6.4051766 33.969284 -200 45 -200 45 -200 45
5730968611.4352 -6.4088702 33.999702 -200 45 -200 45 -200 45
5731968728.1214 -6.4069281 33.980251 -200 45 -200 45 -200 45
5732968844.8075 -6.4126139 34.018303 -200 45 -200 45 -200 45
5733968961.4936 -6.4099126 34.018559 -200 45 -200 45 -200 45
5734969078.1797 -6.4063363 33.991882 -200 45 -200 45 -200 45
5735969194.8658 -6.4055333 34.015602 -200 45 -200 45 -200 45
5736969311.5519 -6.4097071 34.03968 -200 45 -200 45 -200 45
5737969428.238 -6.4178591 34.039024 -200 45 -200 45 -200 45
5738969544.9242 -6.4181275 34.077431 -200 45 -200 45 -200 45
5739969661.6103 -6.4161386 34.069443 -200 45 -200 45 -200 45
5740969778.2964 -6.4146938 34.085258 -200 45 -200 45 -200 45
5741969894.9825 -6.4131141 34.098248 -200 45 -200 45 -200 45
5742970011.6686 -6.4135208 34.088314 -200 45 -200 45 -200 45
5743970128.3547 -6.4195938 34.108818 -200 45 -200 45 -200 45
5744970245.0408 -6.4225335 34.128494 -200 45 -200 45 -200 45
5745970361.727 -6.4212937 34.13905 -200 45 -200 45 -200 45
5746970478.4131 -6.4194355 34.1451 -200 45 -200 45 -200 45
5747970595.0992 -6.4235225 34.15815 -200 45 -200 45 -200 45
5748970711.7853 -6.426229 34.180206 -200 45 -200 45 -200 45
5749970828.4714 -6.4267478 34.175411 -200 45 -200 45 -200 45
5750970945.1575 -6.4221201 34.172806 -200 45 -200 45 -200 45
5751971061.8436 -6.4266143 34.207645 -200 45 -200 45 -200 45
5752971178.5298 -6.4304013 34.204296 -200 45 -200 45 -200 45
5753971295.2159 -6.4353762 34.22176 -200 45 -200 45 -200 45
5754971411.902 -6.4379516 34.254887 -200 45 -200 45 -200 45
5755971528.5881 -6.4357791 34.229549 -200 45 -200 45 -200 45
5756971645.2742 -6.4306235 34.251896 -200 45 -200 45 -200 45
5757971761.9603 -6.4330063 34.24332 -200 45 -200 45 -200 45
5758971878.6464 -6.4356375 34.259064 -200 45 -200 45 -200 45
5759971995.3326 -6.4376721 34.277828 -200 45 -200 45 -200 45
5760972112.0187 -6.4410625 34.278576 -200 45 -200 45 -200 45
5761972228.7048 -6.440062 34.303852 -200 45 -200 45 -200 45
5762972345.3909 -6.4419098 34.307152 -200 45 -200 45 -200 45
5763972462.077 -6.4466205 34.322109 -200 45 -200 45 -200 45
5764972578.7631 -6.4463582 34.34687 -200 45 -200 45 -200 45
5765972695.4492 -6.445219 34.32325 -200 45 -200 45 -200 45
5766972812.1354 -6.4432359 34.331921 -200 45 -200 45 -200 45
5767972928.8215 -6.4448047 34.36665 -200 45 -200 45 -200 45
5768973045.5076 -6.4524903 34.381618 -200 45 -200 45 -200 45
5769973162.1937 -6.457253 34.40279 -200 45 -200 45 -200 45
5770973278.8798 -6.4592915 34.413704 -200 45 -200 45 -200 45
5771973395.5659 -6.4564762 34.412838 -200 45 -200 45 -200 45
5772973512.252 -6.4583502 34.416214 -200 45 -200 45 -200 45
5773973628.9382 -6.454318 34.445992 -200 45 -200 45 -200 45
5774973745.6243 -6.4635506 34.452213 -200 45 -200 45 -200 45
5775973862.3104 -6.4636297 34.456337 -200 45 -200 45 -200 45
5776973978.9965 -6.4667807 34.483418 -200 45 -200 45 -200 45
5777974095.6826 -6.4662786 34.506176 -200 45 -200 45 -200 45
5778974212.3687 -6.4666624 34.531086 -200 45 -200 45 -200 45
5779974329.0548 -6.4718895 34.55397 -200 45 -200 45 -200 45
5780974445.741 -6.4751549 34.572117 -200 45 -200 45 -200 45
5781974562.4271 -6.4703312 34.562222 -200 45 -200 45 -200 45
5782974679.1132 -6.4723873 34.562328 -200 45 -200 45 -200 45
5783974795.7993 -6.4703307 34.607723 -200 45 -200 45 -200 45
5784974912.4854 -6.477437 34.622303 -200 45 -200 45 -200 45
5785975029.1715 -6.482708 34.672501 -200 45 -200 45 -200 45
5786975145.8576 -6.4786496 34.675217 -200 45 -200 45 -200 45
5787975262.5438 -6.4784498 34.685337 -200 45 -200 45 -200 45
5788975379.2299 -6.4752345 34.701557 -200 45 -200 45 -200 45
5789975495.916 -6.4738631 34.691597 -200 45 -200 45 -200 45
5790975612.6021 -6.4795527 34.726959 -200 45 -200 45 -200 45
5791975729.2882 -6.4790869 34.742641 -200 45 -200 45 -200 45
5792975845.9743 -6.4790378 34.766979 -200 45 -200 45 -200 45
5793975962.6604 -6.4798441 34.763981 -200 45 -200 45 -200 45
5794976079.3466 -6.4815216 34.781826 -200 45 -200 45 -200 45
5795976196.0327 -6.4840126 34.817921 -200 45 -200 45 -200 45
5796976312.7188 -6.4837446 34.810547 -200 45 -200 45 -200 45
5797976429.4049 -6.4771562 34.817516 -200 45 -200 45 -200 45
5798976546.091 -6.4795322 34.814564 -200 45 -200 45 -200 45
5799976662.7771 -6.4833298 34.829613 -200 45 -200 45 -200 45
5800976779.4632 -6.4856944 34.861507 -200 45 -200 45 -200 45
5801976896.1494 -6.4897413 34.893578 -200 45 -200 45 -200 45
5802977012.8355 -6.4852343 34.875431 -200 45 -200 45 -200 45
5803977129.5216 -6.4828215 34.875347 -200 45 -200 45 -200 45
5804977246.2077 -6.4816337 34.905525 -200 45 -200 45 -200 45
5805977362.8938 -6.4827933 34.912617 -200 45 -200 45 -200 45
5806977479.5799 -6.4850121 34.917328 -200 45 -200 45 -200 45
5807977596.266 -6.487422 34.936958 -200 45 -200 45 -200 45
5808977712.9522 -6.4871073 34.938759 -200 45 -200 45 -200 45
5809977829.6383 -6.4870319 34.962418 -200 45 -200 45 -200 45
5810977946.3244 -6.4883399 34.973106 -200 45 -200 45 -200 45
5811978063.0105 -6.4888616 34.987728 -200 45 -200 45 -200 45
5812978179.6966 -6.4862142 34.981705 -200 45 -200 45 -200 45
5813978296.3827 -6.4837623 34.98225 -200 45 -200 45 -200 45
5814978413.0688 -6.4871178 34.974819 -200 45 -200 45 -200 45
5815978529.755 -6.4887214 35.012367 -200 45 -200 45 -200 45
5816978646.4411 -6.4944649 35.018307 -200 45 -200 45 -200 45
5817978763.1272 -6.4975533 35.026466 -200 45 -200 45 -200 45
5818978879.8133 -6.4924726 35.044098 -200 45 -200 45 -200 45
5819978996.4994 -6.4923968 35.05183 -200 45 -200 45 -200 45
5820979113.1855 -6.4898963 35.042168 -200 45 -200 45 -200 45
5821979229.8716 -6.4929595 35.039211 -200 45 -200 45 -200 45
5822979346.5578 -6.4982519 35.047985 -200 45 -200 45 -200 45
5823979463.2439 -6.4978824 35.064667 -200 45 -200 45 -200 45
5824979579.93 -6.4980307 35.060497 -200 45 -200 45 -200 45
5825979696.6161 -6.4980407 35.089111 -200 45 -200 45 -200 45
5826979813.3022 -6.5000525 35.100292 -200 45 -200 45 -200 45
5827979929.9883 -6.5007277 35.096348 -200 45 -200 45 -200 45
5828980046.6744 -6.4984531 35.089184 -200 45 -200 45 -200 45
5829980163.3606 -6.4978142 35.094727 -200 45 -200 45 -200 45
5830980280.0467 -6.5011959 35.096004 -200 45 -200 45 -200 45
5831980396.7328 -6.5051661 35.121288 -200 45 -200 45 -200 45
5832980513.4189 -6.5074077 35.150253 -200 45 -200 45 -200 45
5833980630.105 -6.5081334 35.144188 -200 45 -200 45 -200 45
5834980746.7911 -6.50598 35.14822 -200 45 -200 45 -200 45
5835980863.4772 -6.5022678 35.132217 -200 45 -200 45 -200 45
5836980980.1634 -6.5046625 35.143303 -200 45 -200 45 -200 45
5837981096.8495 -6.5093427 35.170288 -200 45 -200 45 -200 45
5838981213.5356 -6.5111427 35.165276 -200 45 -200 45 -200 45
5839981330.2217 -6.5085292 35.194538 -200 45 -200 45 -200 45
5840981446.9078 -6.5104537 35.171577 -200 45 -200 45 -200 45
5841981563.5939 -6.511301 35.211403 -200 45 -200 45 -200 45
5842981680.28 -6.5171208 35.243389 -200 45 -200 45 -200 45
5843981796.9662 -6.5146036 35.237457 -200 45 -200 45 -200 45
5844981913.6523 -6.513896 35.231159 -200 45 -200 45 -200 45
5845982030.3384 -6.5104685 35.243073 -200 45 -200 45 -200 45
5846982147.0245 -6.515018 35.252922 -200 45 -200 45 -200 45
5847982263.7106 -6.5217419 35.282803 -200 45 -200 45 -200 45
5848982380.3967 -6.5230417 35.27409 -200 45 -200 45 -200 45
5849982497.0828 -6.5246797 35.303146 -200 45 -200 45 -200 45
5850982613.769 -6.5206532 35.298756 -200 45 -200 45 -200 45
5851982730.4551 -6.5162439 35.323154 -200 45 -200 45 -200 45
5852982847.1412 -6.5162134 35.315567 -200 45 -200 45 -200 45
5853982963.8273 -6.5239229 35.329597 -200 45 -200 45 -200 45
5854983080.5134 -6.5257454 35.317261 -200 45 -200 45 -200 45
5855983197.1995 -6.5259495 35.342907 -200 45 -200 45 -200 45
5856983313.8856 -6.5256166 35.359581 -200 45 -200 45 -200 45
5857983430.5718 -6.5285735 35.360596 -200 45 -200 45 -200 45
5858983547.2579 -6.5298276 35.403275 -200 45 -200 45 -200 45
5859983663.944 -6.5314212 35.386036 -200 45 -200 45 -200 45
5860983780.6301 -6.5269413 35.399639 -200 45 -200 45 -200 45
5861983897.3162 -6.5270977 35.407307 -200 45 -200 45 -200 45
5862984014.0023 -6.531373 35.433113 -200 45 -200 45 -200 45
5863984130.6884 -6.5365386 35.447899 -200 45 -200 45 -200 45
5864984247.3746 -6.5406275 35.477131 -200 45 -200 45 -200 45
5865984364.0607 -6.5377736 35.470245 -200 45 -200 45 -200 45
5866984480.7468 -6.5349383 35.475391 -200 45 -200 45 -200 45
5867984597.4329 -6.5341702 35.513241 -200 45 -200 45 -200 45
5868984714.119 -6.5331511 35.508736 -200 45 -200 45 -200 45
5869984830.8051 -6.54038 35.528328 -200 45 -200 45 -200 45
5870984947.4912 -6.540112 35.532951 -200 45 -200 45 -200 45
5871985064.1774 -6.5388231 35.564838 -200 45 -200 45 -200 45
5872985180.8635 -6.5409222 35.577606 -200 45 -200 45 -200 45
5873985297.5496 -6.5438547 35.588535 -200 45 -200 45 -200 45
5874985414.2357 -6.5451827 35.603867 -200 45 -200 45 -200 45
5875985530.9218 -6.540607 35.591042 -200 45 -200 45 -200 45
5876985647.6079 -6.5385871 35.594795 -200 45 -200 45 -200 45
5877985764.294 -6.5411859 35.612789 -200 45 -200 45 -200 45
5878985880.9802 -6.5460391 35.62619 -200 45 -200 45 -200 45
5879985997.6663 -6.5489559 35.644176 -200 45 -200 45 -200 45
5880986114.3524 -6.5522227 35.661343 -200 45 -200 45 -200 45
5881986231.0385 -6.548914 35.673992 -200 45 -200 45 -200 45
5882986347.7246 -6.5412307 35.678314 -200 45 -200 45 -200 45
5883986464.4107 -6.5417695 35.668343 -200 45 -200 45 -200 45
5884986581.0968 -6.5461049 35.696251 -200 45 -200 45 -200 45
5885986697.783 -6.551115 35.695877 -200 45 -200 45 -200 45
5886986814.4691 -6.5484428 35.72485 -200 45 -200 45 -200 45
5887986931.1552 -6.549962 35.733765 -200 45 -200 45 -200 45
5888987047.8413 -6.5480042 35.733746 -200 45 -200 45 -200 45
5889987164.5274 -6.5518193 35.760391 -200 45 -200 45 -200 45
5890987281.2135 -6.551271 35.780849 -200 45 -200 45 -200 45
5891987397.8997 -6.5495882 35.764729 -200 45 -200 45 -200 45
5892987514.5858 -6.5493417 35.777733 -200 45 -200 45 -200 45
5893987631.2719 -6.5520396 35.779282 -200 45 -200 45 -200 45
5894987747.958 -6.5578156 35.823112 -200 45 -200 45 -200 45
5895987864.6441 -6.5610328 35.83675 -200 45 -200 45 -200 45
5896987981.3302 -6.5577111 35.8382 -200 45 -200 45 -200 45
5897988098.0163 -6.5546556 35.841167 -200 45 -200 45 -200 45
5898988214.7025 -6.5557799 35.86615 -200 45 -200 45 -200 45
5899988331.3886 -6.5522156 35.88567 -200 45 -200 45 -200 45
5900988448.0747 -6.5593009 35.871437 -200 45 -200 45 -200 45
5901988564.7608 -6.5607944 35.893787 -200 45 -200 45 -200 45
5902988681.4469 -6.558579 35.902542 -200 45 -200 45 -200 45
5903988798.133 -6.5580773 35.916672 -200 45 -200 45 -200 45
5904988914.8191 -6.5597835 35.916733 -200 45 -200 45 -200 45
5905989031.5053 -6.5631781 35.940704 -200 45 -200 45 -200 45
5906989148.1914 -6.5663104 35.953346 -200 45 -200 45 -200 45
5907989264.8775 -6.56183 35.95015 -200 45 -200 45 -200 45
5908989381.5636 -6.5645761 35.972843 -200 45 -200 45 -200 45
5909989498.2497 -6.5646234 35.979427 -200 45 -200 45 -200 45
5910989614.9358 -6.569849 36.000965 -200 45 -200 45 -200 45
5911989731.6219 -6.5738783 36.012192 -200 45 -200 45 -200 45
5912989848.3081 -6.5714526 36.000511 -200 45 -200 45 -200 45
5913989964.9942 -6.5651121 36.017502 -200 45 -200 45 -200 45
5914990081.6803 -6.5641632 36.027946 -200 45 -200 45 -200 45
5915990198.3664 -6.568089 36.034725 -200 45 -200 45 -200 45
5916990315.0525 -6.5707583 36.062992 -200 45 -200 45 -200 45
5917990431.7386 -6.5712638 36.055809 -200 45 -200 45 -200 45
5918990548.4247 -6.5700669 36.069176 -200 45 -200 45 -200 45
5919990665.1109 -6.5707436 36.072208 -200 45 -200 45 -200 45
5920990781.797 -6.572968 36.095844 -200 45 -200 45 -200 45
5921990898.4831 -6.5749116 36.110481 -200 45 -200 45 -200 45
5922991015.1692 -6.5744066 36.121815 -200 45 -200 45 -200 45
5923991131.8553 -6.5726213 36.116791 -200 45 -200 45 -200 45
5924991248.5414 -6.5749083 36.139256 -200 45 -200 45 -200 45
5925991365.2275 -6.5766163 36.1591 -200 45 -200 45 -200 45
5926991481.9137 -6.5824542 36.163914 -200 45 -200 45 -200 45
5927991598.5998 -6.5853391 36.18795 -200 45 -200 45 -200 45
5928991715.2859 -6.5784254 36.18861 -200 45 -200 45 -200 45
5929991831.972 -6.5802445 36.192802 -200 45 -200 45 -200 45
5930991948.6581 -6.5768065 36.199547 -200 45 -200 45 -200 45
5931992065.3442 -6.58007 36.205257 -200 45 -200 45 -200 45
5932992182.0303 -6.5864391 36.21595 -200 45 -200 45 -200 45
5933992298.7165 -6.5851622 36.218868 -200 45 -200 45 -200 45
5934992415.4026 -6.5846348 36.249889 -200 45 -200 45 -200 45
5935992532.0887 -6.5869756 36.251713 -200 45 -200 45 -200 45
5936992648.7748 -6.5894785 36.245941 -200 45 -200 45 -200 45
5937992765.4609 -6.5890818 36.279819 -200 45 -200 45 -200 45
5938992882.147 -6.5905747 36.289223 -200 45 -200 45 -200 45
5939992998.8331 -6.5854692 36.287888 -200 45 -200 45 -200 45
5940993115.5193 -6.5886979 36.293003 -200 45 -200 45 -200 45
5941993232.2054 -6.5950727 36.322514 -200 45 -200 45 -200 45
5942993348.8915 -6.5982218 36.340427 -200 45 -200 45 -200 45
5943993465.5776 -6.5997519 36.325848 -200 45 -200 45 -200 45
5944993582.2637 -6.5930419 36.355015 -200 45 -200 45 -200 45
5945993698.9498 -6.5898519 36.362324 -200 45 -200 45 -200 45
5946993815.6359 -6.5936027 36.351791 -200 45 -200 45 -200 45
5947993932.3221 -6.5965343 36.385529 -200 45 -200 45 -200 45
5948994049.0082 -6.600914 36.379498 -200 45 -200 45 -200 45
5949994165.6943 -6.5984583 36.398098 -200 45 -200 45 -200 45
5950994282.3804 -6.5975928 36.405975 -200 45 -200 45 -200 45
5951994399.0665 -6.5998859 36.423996 -200 45 -200 45 -200 45
5952994515.7526 -6.6019807 36.450424 -200 45 -200 45 -200 45
5953994632.4387 -6.6028724 36.452202 -200 45 -200 45 -200 45
5954994749.1249 -6.599474 36.447678 -200 45 -200 45 -200 45
5955994865.811 -6.5988326 36.456055 -200 45 -200 45 -200 45
5956994982.4971 -6.6001716 36.469807 -200 45 -200 45 -200 45
5957995099.1832 -6.6081524 36.497124 -200 45 -200 45 -200 45
5958995215.8693 -6.6126757 36.497147 -200 45 -200 45 -200 45
5959995332.5554 -6.6106815 36.501099 -200 45 -200 45 -200 45
5960995449.2415 -6.6026201 36.523247 -200 45 -200 45 -200 45
5961995565.9277 -6.6034994 36.529293 -200 45 -200 45 -200 45
5962995682.6138 -6.6078448 36.529686 -200 45 -200 45 -200 45
5963995799.2999 -6.6098742 36.532452 -200 45 -200 45 -200 45
5964995915.986 -6.6110463 36.552341 -200 45 -200 45 -200 45
5965996032.6721 -6.6073437 36.564301 -200 45 -200 45 -200 45
5966996149.3582 -6.6098061 36.578865 -200 45 -200 45 -200 45
5967996266.0443 -6.6112337 36.591026 -200 45 -200 45 -200 45
5968996382.7305 -6.6141596 36.600166 -200 45 -200 45 -200 45
5969996499.4166 -6.6116285 36.609013 -200 45 -200 45 -200 45
5970996616.1027 -6.6086903 36.596889 -200 45 -200 45 -200 45
5971996732.7888 -6.6106372 36.607136 -200 45 -200 45 -200 45
5972996849.4749 -6.611783 36.635513 -200 45 -200 45 -200 45
5973996966.161 -6.6168041 36.672848 -200 45 -200 45 -200 45
5974997082.8471 -6.6199279 36.681591 -200 45 -200 45 -200 45
5975997199.5333 -6.6201167 36.677753 -200 45 -200 45 -200 45
5976997316.2194 -6.6127338 36.692921 -200 45 -200 45 -200 45
5977997432.9055 -6.6129594 36.708096 -200 45 -200 45 -200 45
5978997549.5916 -6.6157603 36.72485 -200 45 -200 45 -200 45
5979997666.2777 -6.6190867 36.713345 -200 45 -200 45 -200 45
5980997782.9638 -6.6208568 36.723167 -200 45 -200 45 -200 45
5981997899.6499 -6.6218972 36.756344 -200 45 -200 45 -200 45
5982998016.3361 -6.6210537 36.76915 -200 45 -200 45 -200 45
5983998133.0222 -6.6210418 36.77356 -200 45 -200 45 -200 45
5984998249.7083 -6.6232853 36.794716 -200 45 -200 45 -200 45
5985998366.3944 -6.6225371 36.78009 -200 45 -200 45 -200 45
5986998483.0805 -6.6223903 36.790234 -200 45 -200 45 -200 45
5987998599.7666 -6.621232 36.796741 -200 45 -200 45 -200 45
5988998716.4527 -6.6264448 36.833092 -200 45 -200 45 -200 45
5989998833.1389 -6.6334929 36.846951 -200 45 -200 45 -200 45
5990998949.825 -6.6323576 36.835148 -200 45 -200 45 -200 45
5991999066.5111 -6.6283636 36.853737 -200 45 -200 45 -200 45
5992999183.1972 -6.6268234 36.859264 -200 45 -200 45 -200 45
5993999299.8833 -6.6297073 36.849403 -200 45 -200 45 -200 45
5994999416.5694 -6.6312137 36.875317 -200 45 -200 45 -200 45
5995999533.2555 -6.6352024 36.907627 -200 45 -200 45 -200 45
5996999649.9417 -6.6350846 36.903625 -200 45 -200 45 -200 45
5997999766.6278 -6.6365743 36.919323 -200 45 -200 45 -200 45
5998999883.3139 -6.6367483 36.92897 -200 45 -200 45 -200 45
6000000000 -6.6395087 36.957264 -200 45 -200 45 -200 45
