!Keysight Technologies,P9374A,MY57304198,A.17.20.09
!Date: Tuesday, August 20, 2024 09:37:15
!Correction: S11(C  1-Port  ) 
!S21(C  1-Port  ) 
!S12(Off) 
!S22(Off) 
!S2P File: Measurements: S11, S21, S12, S22:
# Hz S  dB   R 50
300000 0.0014307406 -0.010112137 -200 45 -200 45 -200 45
1300116.6861144 0.00083241297 -0.013725657 -200 45 -200 45 -200 45
2300233.3722287 0.0004379685 -0.03788003 -200 45 -200 45 -200 45
3300350.0583431 -0.00053820264 -0.05685547 -200 45 -200 45 -200 45
4300466.7444574 -0.0005889457 -0.069662429 -200 45 -200 45 -200 45
5300583.4305718 -0.00035180457 -0.083135337 -200 45 -200 45 -200 45
6300700.1166861 -0.00054596941 -0.10141254 -200 45 -200 45 -200 45
7300816.8028005 -0.00041108864 -0.11744563 -200 45 -200 45 -200 45
8300933.4889148 0.00033702224 -0.12717842 -200 45 -200 45 -200 45
9301050.1750292 0.00074545189 -0.148305 -200 45 -200 45 -200 45
10301166.861144 -0.001715802 -0.14905751 -200 45 -200 45 -200 45
11301283.547258 -0.00094778871 -0.17984173 -200 45 -200 45 -200 45
12301400.233372 -0.00090610341 -0.19793089 -200 45 -200 45 -200 45
13301516.919487 -0.0022614691 -0.2053728 -200 45 -200 45 -200 45
14301633.605601 0.00012528629 -0.22883426 -200 45 -200 45 -200 45
15301750.291715 -0.00048927235 -0.23888464 -200 45 -200 45 -200 45
16301866.97783 -0.0010337498 -0.25139195 -200 45 -200 45 -200 45
17301983.663944 -0.001346538 -0.27320144 -200 45 -200 45 -200 45
18302100.350058 -0.0030076965 -0.28929842 -200 45 -200 45 -200 45
19302217.036173 -0.0032973117 -0.30149281 -200 45 -200 45 -200 45
20302333.722287 -0.0019190919 -0.31885409 -200 45 -200 45 -200 45
21302450.408401 -0.0031253018 -0.32857186 -200 45 -200 45 -200 45
22302567.094516 -0.0014910288 -0.35882136 -200 45 -200 45 -200 45
23302683.78063 -0.0011795249 -0.36762419 -200 45 -200 45 -200 45
24302800.466744 -0.0021135858 -0.36870986 -200 45 -200 45 -200 45
25302917.152859 -0.0033690708 -0.38492149 -200 45 -200 45 -200 45
26303033.838973 -0.0042522983 -0.41596428 -200 45 -200 45 -200 45
27303150.525088 -0.0040919101 -0.42674255 -200 45 -200 45 -200 45
28303267.211202 -0.0036076722 -0.44115186 -200 45 -200 45 -200 45
29303383.897316 -0.0045199706 -0.46430975 -200 45 -200 45 -200 45
30303500.583431 -0.0043416931 -0.47680616 -200 45 -200 45 -200 45
31303617.269545 -0.0044782511 -0.48811826 -200 45 -200 45 -200 45
32303733.955659 -0.0034188109 -0.49963918 -200 45 -200 45 -200 45
33303850.641774 -0.0043416931 -0.52392602 -200 45 -200 45 -200 45
34303967.327888 -0.006562389 -0.55195636 -200 45 -200 45 -200 45
35304084.014002 -0.006940912 -0.55756193 -200 45 -200 45 -200 45
36304200.700117 -0.0049944622 -0.57777297 -200 45 -200 45 -200 45
37304317.386231 -0.0071504102 -0.58841676 -200 45 -200 45 -200 45
38304434.072345 -0.0080860155 -0.60215735 -200 45 -200 45 -200 45
39304550.75846 -0.0074760863 -0.62389266 -200 45 -200 45 -200 45
40304667.444574 -0.0066570169 -0.62285286 -200 45 -200 45 -200 45
41304784.130688 -0.0085863154 -0.63034654 -200 45 -200 45 -200 45
42304900.816803 -0.0090705901 -0.64756328 -200 45 -200 45 -200 45
43305017.502917 -0.0085505228 -0.6630367 -200 45 -200 45 -200 45
44305134.189032 -0.010968003 -0.68719643 -200 45 -200 45 -200 45
45305250.875146 -0.0092423167 -0.70852941 -200 45 -200 45 -200 45
46305367.56126 -0.010730295 -0.71802223 -200 45 -200 45 -200 45
47305484.247375 -0.010827349 -0.73221827 -200 45 -200 45 -200 45
48305600.933489 -0.012252529 -0.7527895 -200 45 -200 45 -200 45
49305717.619603 -0.011821111 -0.77551597 -200 45 -200 45 -200 45
50305834.305718 -0.012068743 -0.79923129 -200 45 -200 45 -200 45
51305950.991832 -0.013193648 -0.80493611 -200 45 -200 45 -200 45
52306067.677946 -0.013595602 -0.83479327 -200 45 -200 45 -200 45
53306184.364061 -0.013475375 -0.83874118 -200 45 -200 45 -200 45
54306301.050175 -0.01486506 -0.85247946 -200 45 -200 45 -200 45
55306417.736289 -0.014955712 -0.87771797 -200 45 -200 45 -200 45
56306534.422404 -0.014406371 -0.88308042 -200 45 -200 45 -200 45
57306651.108518 -0.016382769 -0.88465333 -200 45 -200 45 -200 45
58306767.794632 -0.016371595 -0.89868665 -200 45 -200 45 -200 45
59306884.480747 -0.017415747 -0.92594272 -200 45 -200 45 -200 45
60307001.166861 -0.01797067 -0.94536108 -200 45 -200 45 -200 45
61307117.852975 -0.018498626 -0.95734715 -200 45 -200 45 -200 45
62307234.53909 -0.019378435 -0.95957935 -200 45 -200 45 -200 45
63307351.225204 -0.019966373 -0.9824205 -200 45 -200 45 -200 45
64307467.911319 -0.021162519 -1.0075403 -200 45 -200 45 -200 45
65307584.597433 -0.019274948 -1.0165179 -200 45 -200 45 -200 45
66307701.283547 -0.021594608 -1.0496938 -200 45 -200 45 -200 45
67307817.969662 -0.023328854 -1.056354 -200 45 -200 45 -200 45
68307934.655776 -0.024344744 -1.0757706 -200 45 -200 45 -200 45
69308051.34189 -0.024765953 -1.0990559 -200 45 -200 45 -200 45
70308168.028005 -0.026170716 -1.1051368 -200 45 -200 45 -200 45
71308284.714119 -0.025535587 -1.1146311 -200 45 -200 45 -200 45
72308401.400233 -0.02730423 -1.1168848 -200 45 -200 45 -200 45
73308518.086348 -0.025001047 -1.1183391 -200 45 -200 45 -200 45
74308634.772462 -0.02706771 -1.1328558 -200 45 -200 45 -200 45
75308751.458576 -0.028518293 -1.1637939 -200 45 -200 45 -200 45
76308868.144691 -0.030316565 -1.167353 -200 45 -200 45 -200 45
77308984.830805 -0.030887216 -1.1962899 -200 45 -200 45 -200 45
78309101.516919 -0.030986806 -1.2066255 -200 45 -200 45 -200 45
79309218.203034 -0.034009263 -1.2138114 -200 45 -200 45 -200 45
80309334.889148 -0.033620808 -1.2348505 -200 45 -200 45 -200 45
81309451.575263 -0.03301328 -1.2648699 -200 45 -200 45 -200 45
82309568.261377 -0.034342438 -1.2789289 -200 45 -200 45 -200 45
83309684.947491 -0.034716085 -1.2845416 -200 45 -200 45 -200 45
84309801.633606 -0.035742734 -1.3060585 -200 45 -200 45 -200 45
85309918.31972 -0.037014507 -1.3215858 -200 45 -200 45 -200 45
86310035.005834 -0.040388912 -1.3504395 -200 45 -200 45 -200 45
87310151.691949 -0.037864652 -1.332732 -200 45 -200 45 -200 45
88310268.378063 -0.039776519 -1.3366444 -200 45 -200 45 -200 45
89310385.064177 -0.040331952 -1.3318396 -200 45 -200 45 -200 45
90310501.750292 -0.040097073 -1.3597559 -200 45 -200 45 -200 45
91310618.436406 -0.042868365 -1.373242 -200 45 -200 45 -200 45
92310735.12252 -0.041682955 -1.3965552 -200 45 -200 45 -200 45
93310851.808635 -0.044523519 -1.4136931 -200 45 -200 45 -200 45
94310968.494749 -0.044465981 -1.4277909 -200 45 -200 45 -200 45
95311085.180863 -0.046257526 -1.4490114 -200 45 -200 45 -200 45
96311201.866978 -0.046355639 -1.4772729 -200 45 -200 45 -200 45
97311318.553092 -0.047867384 -1.4826812 -200 45 -200 45 -200 45
98311435.239207 -0.049265239 -1.497975 -200 45 -200 45 -200 45
99311551.925321 -0.051380415 -1.5190245 -200 45 -200 45 -200 45
100311668.61144 -0.053199448 -1.5198978 -200 45 -200 45 -200 45
101311785.29755 -0.053207047 -1.5484821 -200 45 -200 45 -200 45
102311901.98366 -0.053272035 -1.5646528 -200 45 -200 45 -200 45
103312018.66978 -0.05371467 -1.5695709 -200 45 -200 45 -200 45
104312135.35589 -0.055381037 -1.5565062 -200 45 -200 45 -200 45
105312252.04201 -0.054016337 -1.5593415 -200 45 -200 45 -200 45
106312368.72812 -0.055954732 -1.575075 -200 45 -200 45 -200 45
107312485.41424 -0.05626101 -1.5936441 -200 45 -200 45 -200 45
108312602.10035 -0.057320829 -1.6168356 -200 45 -200 45 -200 45
109312718.78646 -0.059563015 -1.6299671 -200 45 -200 45 -200 45
110312835.47258 -0.057395063 -1.6305078 -200 45 -200 45 -200 45
111312952.15869 -0.061617315 -1.6660786 -200 45 -200 45 -200 45
112313068.84481 -0.062254328 -1.6774696 -200 45 -200 45 -200 45
113313185.53092 -0.064473577 -1.6875362 -200 45 -200 45 -200 45
114313302.21704 -0.063536249 -1.7236003 -200 45 -200 45 -200 45
115313418.90315 -0.065011419 -1.7220255 -200 45 -200 45 -200 45
116313535.58926 -0.065192997 -1.7366848 -200 45 -200 45 -200 45
117313652.27538 -0.0661906 -1.7683523 -200 45 -200 45 -200 45
118313768.96149 -0.069307104 -1.7861249 -200 45 -200 45 -200 45
119313885.64761 -0.069191642 -1.7753996 -200 45 -200 45 -200 45
120314002.33372 -0.070249625 -1.7728207 -200 45 -200 45 -200 45
121314119.01984 -0.06834165 -1.7775142 -200 45 -200 45 -200 45
122314235.70595 -0.07062453 -1.7693682 -200 45 -200 45 -200 45
123314352.39207 -0.071825765 -1.7978526 -200 45 -200 45 -200 45
124314469.07818 -0.073066816 -1.8231252 -200 45 -200 45 -200 45
125314585.76429 -0.074321657 -1.8537431 -200 45 -200 45 -200 45
126314702.45041 -0.076189049 -1.8554049 -200 45 -200 45 -200 45
127314819.13652 -0.076763391 -1.8717297 -200 45 -200 45 -200 45
128314935.82264 -0.0782478 -1.8914837 -200 45 -200 45 -200 45
129315052.50875 -0.07859493 -1.9095373 -200 45 -200 45 -200 45
130315169.19487 -0.081560768 -1.9355398 -200 45 -200 45 -200 45
131315285.88098 -0.084029801 -1.9449869 -200 45 -200 45 -200 45
132315402.56709 -0.08322493 -1.9564245 -200 45 -200 45 -200 45
133315519.25321 -0.0848343 -1.9765731 -200 45 -200 45 -200 45
134315635.93932 -0.086888969 -2.0031879 -200 45 -200 45 -200 45
135315752.62544 -0.088068821 -2.0067377 -200 45 -200 45 -200 45
136315869.31155 -0.088518977 -1.996563 -200 45 -200 45 -200 45
137315985.99767 -0.087241277 -1.9931282 -200 45 -200 45 -200 45
138316102.68378 -0.086860977 -1.9943991 -200 45 -200 45 -200 45
139316219.36989 -0.090122908 -2.0114017 -200 45 -200 45 -200 45
140316336.05601 -0.090372138 -2.0338013 -200 45 -200 45 -200 45
141316452.74212 -0.09322834 -2.0556107 -200 45 -200 45 -200 45
142316569.42824 -0.09362904 -2.0736556 -200 45 -200 45 -200 45
143316686.11435 -0.094207279 -2.0745153 -200 45 -200 45 -200 45
144316802.80047 -0.094670236 -2.0979576 -200 45 -200 45 -200 45
145316919.48658 -0.099194527 -2.1220632 -200 45 -200 45 -200 45
146317036.1727 -0.10054012 -2.1436336 -200 45 -200 45 -200 45
147317152.85881 -0.10113757 -2.1562936 -200 45 -200 45 -200 45
148317269.54492 -0.10250471 -2.1769783 -200 45 -200 45 -200 45
149317386.23104 -0.10316895 -2.1860399 -200 45 -200 45 -200 45
150317502.91715 -0.1055031 -2.2133098 -200 45 -200 45 -200 45
151317619.60327 -0.10722634 -2.2276468 -200 45 -200 45 -200 45
152317736.28938 -0.10731417 -2.2093892 -200 45 -200 45 -200 45
153317852.9755 -0.10730037 -2.1966336 -200 45 -200 45 -200 45
154317969.66161 -0.10713799 -2.1998036 -200 45 -200 45 -200 45
155318086.34772 -0.11011012 -2.2157066 -200 45 -200 45 -200 45
156318203.03384 -0.10888312 -2.2409947 -200 45 -200 45 -200 45
157318319.71995 -0.11370391 -2.2612638 -200 45 -200 45 -200 45
158318436.40607 -0.11539798 -2.2762587 -200 45 -200 45 -200 45
159318553.09218 -0.11468296 -2.2880368 -200 45 -200 45 -200 45
160318669.7783 -0.11660847 -2.3011048 -200 45 -200 45 -200 45
161318786.46441 -0.11962594 -2.327002 -200 45 -200 45 -200 45
162318903.15053 -0.12152969 -2.3481686 -200 45 -200 45 -200 45
163319019.83664 -0.12192503 -2.3584542 -200 45 -200 45 -200 45
164319136.52275 -0.12631232 -2.370564 -200 45 -200 45 -200 45
165319253.20887 -0.12678404 -2.3943501 -200 45 -200 45 -200 45
166319369.89498 -0.12729554 -2.4033163 -200 45 -200 45 -200 45
167319486.5811 -0.12982166 -2.4169157 -200 45 -200 45 -200 45
168319603.26721 -0.12965469 -2.400691 -200 45 -200 45 -200 45
169319719.95333 -0.12954189 -2.3885958 -200 45 -200 45 -200 45
170319836.63944 -0.13029137 -2.3878183 -200 45 -200 45 -200 45
171319953.32555 -0.13226812 -2.4030452 -200 45 -200 45 -200 45
172320070.01167 -0.13388455 -2.4172423 -200 45 -200 45 -200 45
173320186.69778 -0.13389389 -2.4465957 -200 45 -200 45 -200 45
174320303.3839 -0.13711469 -2.4612646 -200 45 -200 45 -200 45
175320420.07001 -0.13867038 -2.4690049 -200 45 -200 45 -200 45
176320536.75613 -0.13981922 -2.479991 -200 45 -200 45 -200 45
177320653.44224 -0.14272445 -2.4942501 -200 45 -200 45 -200 45
178320770.12835 -0.14351742 -2.5332401 -200 45 -200 45 -200 45
179320886.81447 -0.14494292 -2.5456119 -200 45 -200 45 -200 45
180321003.50058 -0.14583802 -2.5596735 -200 45 -200 45 -200 45
181321120.1867 -0.14900339 -2.5551996 -200 45 -200 45 -200 45
182321236.87281 -0.14994809 -2.5983431 -200 45 -200 45 -200 45
183321353.55893 -0.15210913 -2.5875964 -200 45 -200 45 -200 45
184321470.24504 -0.15211181 -2.5932124 -200 45 -200 45 -200 45
185321586.93116 -0.15147622 -2.5764849 -200 45 -200 45 -200 45
186321703.61727 -0.14974633 -2.5583205 -200 45 -200 45 -200 45
187321820.30338 -0.1530057 -2.5829754 -200 45 -200 45 -200 45
188321936.9895 -0.15466985 -2.5927675 -200 45 -200 45 -200 45
189322053.67561 -0.15804648 -2.6206493 -200 45 -200 45 -200 45
190322170.36173 -0.15876305 -2.6551402 -200 45 -200 45 -200 45
191322287.04784 -0.16024433 -2.6525691 -200 45 -200 45 -200 45
192322403.73396 -0.16159743 -2.6532681 -200 45 -200 45 -200 45
193322520.42007 -0.16340677 -2.6810396 -200 45 -200 45 -200 45
194322637.10618 -0.16668639 -2.7035317 -200 45 -200 45 -200 45
195322753.7923 -0.16903017 -2.7171359 -200 45 -200 45 -200 45
196322870.47841 -0.16987722 -2.7396734 -200 45 -200 45 -200 45
197322987.16453 -0.17374176 -2.7458799 -200 45 -200 45 -200 45
198323103.85064 -0.17385654 -2.7730708 -200 45 -200 45 -200 45
199323220.53676 -0.17613088 -2.7947502 -200 45 -200 45 -200 45
200323337.22287 -0.17761485 -2.7766275 -200 45 -200 45 -200 45
201323453.90898 -0.17596185 -2.7667675 -200 45 -200 45 -200 45
202323570.5951 -0.17437522 -2.7381516 -200 45 -200 45 -200 45
203323687.28121 -0.17594163 -2.7491195 -200 45 -200 45 -200 45
204323803.96733 -0.17731096 -2.7719052 -200 45 -200 45 -200 45
205323920.65344 -0.18142799 -2.7915075 -200 45 -200 45 -200 45
206324037.33956 -0.18264677 -2.8153353 -200 45 -200 45 -200 45
207324154.02567 -0.18490924 -2.8116124 -200 45 -200 45 -200 45
208324270.71179 -0.18598364 -2.8340797 -200 45 -200 45 -200 45
209324387.3979 -0.18932605 -2.8577225 -200 45 -200 45 -200 45
210324504.08401 -0.19208601 -2.8737562 -200 45 -200 45 -200 45
211324620.77013 -0.19378524 -2.903017 -200 45 -200 45 -200 45
212324737.45624 -0.1950749 -2.9072132 -200 45 -200 45 -200 45
213324854.14236 -0.19691533 -2.9145615 -200 45 -200 45 -200 45
214324970.82847 -0.19952483 -2.9279697 -200 45 -200 45 -200 45
215325087.51459 -0.2019054 -2.9622998 -200 45 -200 45 -200 45
216325204.2007 -0.20186932 -2.9581485 -200 45 -200 45 -200 45
217325320.88681 -0.20208193 -2.9381514 -200 45 -200 45 -200 45
218325437.57293 -0.19903564 -2.914644 -200 45 -200 45 -200 45
219325554.25904 -0.1990286 -2.9215255 -200 45 -200 45 -200 45
220325670.94516 -0.20318365 -2.9333718 -200 45 -200 45 -200 45
221325787.63127 -0.20489019 -2.964077 -200 45 -200 45 -200 45
222325904.31739 -0.20866081 -2.9819853 -200 45 -200 45 -200 45
223326021.0035 -0.20900685 -2.9921718 -200 45 -200 45 -200 45
224326137.68961 -0.21092981 -3.0042942 -200 45 -200 45 -200 45
225326254.37573 -0.21462409 -3.0235043 -200 45 -200 45 -200 45
226326371.06184 -0.21575537 -3.0562546 -200 45 -200 45 -200 45
227326487.74796 -0.22069526 -3.0681612 -200 45 -200 45 -200 45
228326604.43407 -0.22153717 -3.0749264 -200 45 -200 45 -200 45
229326721.12019 -0.22375895 -3.084743 -200 45 -200 45 -200 45
230326837.8063 -0.22631483 -3.0980914 -200 45 -200 45 -200 45
231326954.49242 -0.22882037 -3.1242557 -200 45 -200 45 -200 45
232327071.17853 -0.23011802 -3.1243675 -200 45 -200 45 -200 45
233327187.86464 -0.22991222 -3.1156523 -200 45 -200 45 -200 45
234327304.55076 -0.22862445 -3.0996969 -200 45 -200 45 -200 45
235327421.23687 -0.22743307 -3.0852704 -200 45 -200 45 -200 45
236327537.92299 -0.22924796 -3.088177 -200 45 -200 45 -200 45
237327654.6091 -0.23286554 -3.1067894 -200 45 -200 45 -200 45
238327771.29522 -0.23492098 -3.1385815 -200 45 -200 45 -200 45
239327887.98133 -0.23882744 -3.1511743 -200 45 -200 45 -200 45
240328004.66744 -0.23847219 -3.1597829 -200 45 -200 45 -200 45
241328121.35356 -0.23927544 -3.1805642 -200 45 -200 45 -200 45
242328238.03967 -0.24422327 -3.1960123 -200 45 -200 45 -200 45
243328354.72579 -0.24756011 -3.2277119 -200 45 -200 45 -200 45
244328471.4119 -0.24976672 -3.2258399 -200 45 -200 45 -200 45
245328588.09802 -0.25150758 -3.2416699 -200 45 -200 45 -200 45
246328704.78413 -0.25346237 -3.2465351 -200 45 -200 45 -200 45
247328821.47025 -0.25683573 -3.2720714 -200 45 -200 45 -200 45
248328938.15636 -0.25795415 -3.2856035 -200 45 -200 45 -200 45
249329054.84247 -0.25769815 -3.2815142 -200 45 -200 45 -200 45
250329171.52859 -0.25698867 -3.2479286 -200 45 -200 45 -200 45
251329288.2147 -0.25551331 -3.2379956 -200 45 -200 45 -200 45
252329404.90082 -0.25509712 -3.2427649 -200 45 -200 45 -200 45
253329521.58693 -0.25942844 -3.2564933 -200 45 -200 45 -200 45
254329638.27305 -0.26240659 -3.2899497 -200 45 -200 45 -200 45
255329754.95916 -0.26702407 -3.3072255 -200 45 -200 45 -200 45
256329871.64527 -0.26722035 -3.3206723 -200 45 -200 45 -200 45
257329988.33139 -0.26976559 -3.3213754 -200 45 -200 45 -200 45
258330105.0175 -0.2734361 -3.3437359 -200 45 -200 45 -200 45
259330221.70362 -0.27772811 -3.3722985 -200 45 -200 45 -200 45
260330338.38973 -0.28116786 -3.3950973 -200 45 -200 45 -200 45
261330455.07585 -0.28096655 -3.3894136 -200 45 -200 45 -200 45
262330571.76196 -0.28330293 -3.4040589 -200 45 -200 45 -200 45
263330688.44807 -0.28529003 -3.4165444 -200 45 -200 45 -200 45
264330805.13419 -0.29013065 -3.4383898 -200 45 -200 45 -200 45
265330921.8203 -0.2912859 -3.4287081 -200 45 -200 45 -200 45
266331038.50642 -0.28807631 -3.4039006 -200 45 -200 45 -200 45
267331155.19253 -0.28548273 -3.3965302 -200 45 -200 45 -200 45
268331271.87865 -0.28770509 -3.3716631 -200 45 -200 45 -200 45
269331388.56476 -0.28994799 -3.3984325 -200 45 -200 45 -200 45
270331505.25088 -0.29271203 -3.4255688 -200 45 -200 45 -200 45
271331621.93699 -0.29656664 -3.4382493 -200 45 -200 45 -200 45
272331738.6231 -0.29930329 -3.4453595 -200 45 -200 45 -200 45
273331855.30922 -0.30055672 -3.458312 -200 45 -200 45 -200 45
274331971.99533 -0.30290756 -3.4697783 -200 45 -200 45 -200 45
275332088.68145 -0.30864489 -3.4794512 -200 45 -200 45 -200 45
276332205.36756 -0.31078517 -3.514044 -200 45 -200 45 -200 45
277332322.05368 -0.31417245 -3.521009 -200 45 -200 45 -200 45
278332438.73979 -0.31480059 -3.5302348 -200 45 -200 45 -200 45
279332555.4259 -0.31717891 -3.5437987 -200 45 -200 45 -200 45
280332672.11202 -0.32039899 -3.5658717 -200 45 -200 45 -200 45
281332788.79813 -0.32194564 -3.5555823 -200 45 -200 45 -200 45
282332905.48425 -0.3205227 -3.5423694 -200 45 -200 45 -200 45
283333022.17036 -0.31798962 -3.5186329 -200 45 -200 45 -200 45
284333138.85648 -0.31741786 -3.5025656 -200 45 -200 45 -200 45
285333255.54259 -0.31856537 -3.5104165 -200 45 -200 45 -200 45
286333372.2287 -0.32338494 -3.5226867 -200 45 -200 45 -200 45
287333488.91482 -0.32625464 -3.5497582 -200 45 -200 45 -200 45
288333605.60093 -0.3291586 -3.5687518 -200 45 -200 45 -200 45
289333722.28705 -0.33197093 -3.575711 -200 45 -200 45 -200 45
290333838.97316 -0.33164793 -3.5791266 -200 45 -200 45 -200 45
291333955.65928 -0.33615002 -3.5942035 -200 45 -200 45 -200 45
292334072.34539 -0.33844632 -3.618619 -200 45 -200 45 -200 45
293334189.03151 -0.34336871 -3.6338165 -200 45 -200 45 -200 45
294334305.71762 -0.34512985 -3.6386955 -200 45 -200 45 -200 45
295334422.40373 -0.34750381 -3.6562498 -200 45 -200 45 -200 45
296334539.08985 -0.3501336 -3.6699069 -200 45 -200 45 -200 45
297334655.77596 -0.35227251 -3.6848943 -200 45 -200 45 -200 45
298334772.46208 -0.3508966 -3.680217 -200 45 -200 45 -200 45
299334889.14819 -0.34917828 -3.6382902 -200 45 -200 45 -200 45
300335005.83431 -0.34658048 -3.6116402 -200 45 -200 45 -200 45
301335122.52042 -0.34826776 -3.6245279 -200 45 -200 45 -200 45
302335239.20653 -0.35123619 -3.6469429 -200 45 -200 45 -200 45
303335355.89265 -0.35622114 -3.6718824 -200 45 -200 45 -200 45
304335472.57876 -0.35818088 -3.6921604 -200 45 -200 45 -200 45
305335589.26488 -0.36045232 -3.6835265 -200 45 -200 45 -200 45
306335705.95099 -0.36208591 -3.708441 -200 45 -200 45 -200 45
307335822.63711 -0.36782846 -3.7090468 -200 45 -200 45 -200 45
308335939.32322 -0.37066537 -3.7373979 -200 45 -200 45 -200 45
309336056.00933 -0.3727349 -3.7586007 -200 45 -200 45 -200 45
310336172.69545 -0.37686309 -3.7528057 -200 45 -200 45 -200 45
311336289.38156 -0.37917936 -3.7708902 -200 45 -200 45 -200 45
312336406.06768 -0.38231286 -3.7865391 -200 45 -200 45 -200 45
313336522.75379 -0.38295007 -3.7927153 -200 45 -200 45 -200 45
314336639.43991 -0.38354382 -3.7784429 -200 45 -200 45 -200 45
315336756.12602 -0.37982118 -3.7427909 -200 45 -200 45 -200 45
316336872.81214 -0.37648281 -3.731262 -200 45 -200 45 -200 45
317336989.49825 -0.37801656 -3.738184 -200 45 -200 45 -200 45
318337106.18436 -0.3839004 -3.7720327 -200 45 -200 45 -200 45
319337222.87048 -0.38963422 -3.7801132 -200 45 -200 45 -200 45
320337339.55659 -0.39020199 -3.791451 -200 45 -200 45 -200 45
321337456.24271 -0.39197826 -3.8045857 -200 45 -200 45 -200 45
322337572.92882 -0.39477685 -3.7972872 -200 45 -200 45 -200 45
323337689.61494 -0.39908212 -3.8224356 -200 45 -200 45 -200 45
324337806.30105 -0.40208721 -3.830584 -200 45 -200 45 -200 45
325337922.98716 -0.40435842 -3.8653147 -200 45 -200 45 -200 45
326338039.67328 -0.4084383 -3.8589106 -200 45 -200 45 -200 45
327338156.35939 -0.4103865 -3.8746967 -200 45 -200 45 -200 45
328338273.04551 -0.41539598 -3.8845959 -200 45 -200 45 -200 45
329338389.73162 -0.41672924 -3.9115815 -200 45 -200 45 -200 45
330338506.41774 -0.4166714 -3.8972769 -200 45 -200 45 -200 45
331338623.10385 -0.41365623 -3.8662479 -200 45 -200 45 -200 45
332338739.78997 -0.4090347 -3.8391986 -200 45 -200 45 -200 45
333338856.47608 -0.4105925 -3.8353472 -200 45 -200 45 -200 45
334338973.16219 -0.41515672 -3.8450477 -200 45 -200 45 -200 45
335339089.84831 -0.41984719 -3.8757555 -200 45 -200 45 -200 45
336339206.53442 -0.42417511 -3.892544 -200 45 -200 45 -200 45
337339323.22054 -0.42527869 -3.9001751 -200 45 -200 45 -200 45
338339439.90665 -0.4262749 -3.9060376 -200 45 -200 45 -200 45
339339556.59277 -0.43260801 -3.9185317 -200 45 -200 45 -200 45
340339673.27888 -0.43712157 -3.9227078 -200 45 -200 45 -200 45
341339789.96499 -0.44078079 -3.9676654 -200 45 -200 45 -200 45
342339906.65111 -0.44055015 -3.9579163 -200 45 -200 45 -200 45
343340023.33722 -0.4441489 -3.9667964 -200 45 -200 45 -200 45
344340140.02334 -0.4479475 -3.9828882 -200 45 -200 45 -200 45
345340256.70945 -0.4524529 -3.9921257 -200 45 -200 45 -200 45
346340373.39557 -0.45211911 -3.9952338 -200 45 -200 45 -200 45
347340490.08168 -0.45042601 -3.9747555 -200 45 -200 45 -200 45
348340606.76779 -0.44438231 -3.9417949 -200 45 -200 45 -200 45
349340723.45391 -0.44413915 -3.927983 -200 45 -200 45 -200 45
350340840.14002 -0.44825774 -3.9558916 -200 45 -200 45 -200 45
351340956.82614 -0.45274508 -3.9698472 -200 45 -200 45 -200 45
352341073.51225 -0.45788452 -3.9851201 -200 45 -200 45 -200 45
353341190.19837 -0.46087876 -3.996541 -200 45 -200 45 -200 45
354341306.88448 -0.4618794 -4.0012784 -200 45 -200 45 -200 45
355341423.5706 -0.46617132 -4.0018864 -200 45 -200 45 -200 45
356341540.25671 -0.47120693 -4.0275908 -200 45 -200 45 -200 45
357341656.94282 -0.47495711 -4.0384231 -200 45 -200 45 -200 45
358341773.62894 -0.47641334 -4.0499988 -200 45 -200 45 -200 45
359341890.31505 -0.47946346 -4.0484982 -200 45 -200 45 -200 45
360342007.00117 -0.4830949 -4.0588374 -200 45 -200 45 -200 45
361342123.68728 -0.48796943 -4.0714722 -200 45 -200 45 -200 45
362342240.3734 -0.48717678 -4.0893421 -200 45 -200 45 -200 45
363342357.05951 -0.48623338 -4.0595822 -200 45 -200 45 -200 45
364342473.74562 -0.48133275 -4.0187988 -200 45 -200 45 -200 45
365342590.43174 -0.47908047 -4.0095768 -200 45 -200 45 -200 45
366342707.11785 -0.48183656 -4.0241232 -200 45 -200 45 -200 45
367342823.80397 -0.48556146 -4.0401573 -200 45 -200 45 -200 45
368342940.49008 -0.49223188 -4.0624671 -200 45 -200 45 -200 45
369343057.1762 -0.49583629 -4.0724316 -200 45 -200 45 -200 45
370343173.86231 -0.49617842 -4.0583854 -200 45 -200 45 -200 45
371343290.54842 -0.4992741 -4.0822582 -200 45 -200 45 -200 45
372343407.23454 -0.50354123 -4.1014261 -200 45 -200 45 -200 45
373343523.92065 -0.50852001 -4.1036768 -200 45 -200 45 -200 45
374343640.60677 -0.51251251 -4.1127477 -200 45 -200 45 -200 45
375343757.29288 -0.51573938 -4.1253271 -200 45 -200 45 -200 45
376343873.979 -0.51798248 -4.1352539 -200 45 -200 45 -200 45
377343990.66511 -0.52285784 -4.1480813 -200 45 -200 45 -200 45
378344107.35123 -0.52578938 -4.1462555 -200 45 -200 45 -200 45
379344224.03734 -0.52310747 -4.1374636 -200 45 -200 45 -200 45
380344340.72345 -0.51863146 -4.1054478 -200 45 -200 45 -200 45
381344457.40957 -0.51428652 -4.0890512 -200 45 -200 45 -200 45
382344574.09568 -0.51576418 -4.0899734 -200 45 -200 45 -200 45
383344690.7818 -0.52179486 -4.0999999 -200 45 -200 45 -200 45
384344807.46791 -0.52573621 -4.1133513 -200 45 -200 45 -200 45
385344924.15403 -0.53091043 -4.1317449 -200 45 -200 45 -200 45
386345040.84014 -0.53231186 -4.1250939 -200 45 -200 45 -200 45
387345157.52625 -0.53535551 -4.1391897 -200 45 -200 45 -200 45
388345274.21237 -0.53983182 -4.1454005 -200 45 -200 45 -200 45
389345390.89848 -0.54387319 -4.161654 -200 45 -200 45 -200 45
390345507.5846 -0.54905146 -4.1814337 -200 45 -200 45 -200 45
391345624.27071 -0.54902095 -4.1785188 -200 45 -200 45 -200 45
392345740.95683 -0.55273837 -4.1920195 -200 45 -200 45 -200 45
393345857.64294 -0.55562812 -4.1897225 -200 45 -200 45 -200 45
394345974.32905 -0.55938536 -4.2070527 -200 45 -200 45 -200 45
395346091.01517 -0.56068754 -4.2108893 -200 45 -200 45 -200 45
396346207.70128 -0.55516362 -4.1687789 -200 45 -200 45 -200 45
397346324.3874 -0.54984552 -4.148181 -200 45 -200 45 -200 45
398346441.07351 -0.55017751 -4.146481 -200 45 -200 45 -200 45
399346557.75963 -0.55494267 -4.1577444 -200 45 -200 45 -200 45
400346674.44574 -0.56058919 -4.1708455 -200 45 -200 45 -200 45
401346791.13186 -0.56726241 -4.1743293 -200 45 -200 45 -200 45
402346907.81797 -0.56785738 -4.1929874 -200 45 -200 45 -200 45
403347024.50408 -0.56805652 -4.189827 -200 45 -200 45 -200 45
404347141.1902 -0.57260686 -4.1950741 -200 45 -200 45 -200 45
405347257.87631 -0.57744575 -4.2182956 -200 45 -200 45 -200 45
406347374.56243 -0.58397794 -4.230772 -200 45 -200 45 -200 45
407347491.24854 -0.58392698 -4.2313714 -200 45 -200 45 -200 45
408347607.93466 -0.58930951 -4.2422872 -200 45 -200 45 -200 45
409347724.62077 -0.59233671 -4.2465754 -200 45 -200 45 -200 45
410347841.30688 -0.59675753 -4.2496104 -200 45 -200 45 -200 45
411347957.993 -0.59510958 -4.2468314 -200 45 -200 45 -200 45
412348074.67911 -0.59451199 -4.2286549 -200 45 -200 45 -200 45
413348191.36523 -0.58860189 -4.1882701 -200 45 -200 45 -200 45
414348308.05134 -0.58792871 -4.1805649 -200 45 -200 45 -200 45
415348424.73746 -0.59014922 -4.1959167 -200 45 -200 45 -200 45
416348541.42357 -0.59507126 -4.2055364 -200 45 -200 45 -200 45
417348658.10968 -0.60050297 -4.2203546 -200 45 -200 45 -200 45
418348774.7958 -0.6025176 -4.2256188 -200 45 -200 45 -200 45
419348891.48191 -0.60184556 -4.2222872 -200 45 -200 45 -200 45
420349008.16803 -0.60784519 -4.2393279 -200 45 -200 45 -200 45
421349124.85414 -0.61407709 -4.2430859 -200 45 -200 45 -200 45
422349241.54026 -0.6193974 -4.2598581 -200 45 -200 45 -200 45
423349358.22637 -0.62077868 -4.2672024 -200 45 -200 45 -200 45
424349474.91249 -0.62368774 -4.2750468 -200 45 -200 45 -200 45
425349591.5986 -0.62522107 -4.2661781 -200 45 -200 45 -200 45
426349708.28471 -0.63229233 -4.281898 -200 45 -200 45 -200 45
427349824.97083 -0.63424259 -4.2787642 -200 45 -200 45 -200 45
428349941.65694 -0.63150185 -4.2654233 -200 45 -200 45 -200 45
429350058.34306 -0.62615985 -4.2374878 -200 45 -200 45 -200 45
430350175.02917 -0.62071747 -4.2177639 -200 45 -200 45 -200 45
431350291.71529 -0.62387276 -4.2206631 -200 45 -200 45 -200 45
432350408.4014 -0.6285615 -4.2323308 -200 45 -200 45 -200 45
433350525.08751 -0.63741946 -4.2459006 -200 45 -200 45 -200 45
434350641.77363 -0.64116025 -4.2556672 -200 45 -200 45 -200 45
435350758.45974 -0.64041954 -4.2471123 -200 45 -200 45 -200 45
436350875.14586 -0.6443848 -4.2524223 -200 45 -200 45 -200 45
437350991.83197 -0.64774752 -4.2591658 -200 45 -200 45 -200 45
438351108.51809 -0.65322125 -4.2651172 -200 45 -200 45 -200 45
439351225.2042 -0.65863764 -4.2816553 -200 45 -200 45 -200 45
440351341.89032 -0.65909499 -4.2720962 -200 45 -200 45 -200 45
441351458.57643 -0.66252041 -4.2765212 -200 45 -200 45 -200 45
442351575.26254 -0.66667944 -4.2912717 -200 45 -200 45 -200 45
443351691.94866 -0.66900671 -4.2976336 -200 45 -200 45 -200 45
444351808.63477 -0.66875035 -4.2832017 -200 45 -200 45 -200 45
445351925.32089 -0.66321003 -4.2539682 -200 45 -200 45 -200 45
446352042.007 -0.65795058 -4.2202768 -200 45 -200 45 -200 45
447352158.69312 -0.65731835 -4.2195406 -200 45 -200 45 -200 45
448352275.37923 -0.6616292 -4.2244124 -200 45 -200 45 -200 45
449352392.06534 -0.66863257 -4.2481861 -200 45 -200 45 -200 45
450352508.75146 -0.67178667 -4.2529702 -200 45 -200 45 -200 45
451352625.43757 -0.67320341 -4.2551632 -200 45 -200 45 -200 45
452352742.12369 -0.67526537 -4.2648993 -200 45 -200 45 -200 45
453352858.8098 -0.68040931 -4.2741408 -200 45 -200 45 -200 45
454352975.49592 -0.68562633 -4.2802424 -200 45 -200 45 -200 45
455353092.18203 -0.69123054 -4.3005433 -200 45 -200 45 -200 45
456353208.86814 -0.69396764 -4.2896333 -200 45 -200 45 -200 45
457353325.55426 -0.69693196 -4.3044367 -200 45 -200 45 -200 45
458353442.24037 -0.69994974 -4.2947421 -200 45 -200 45 -200 45
459353558.92649 -0.70376217 -4.3097935 -200 45 -200 45 -200 45
460353675.6126 -0.70412594 -4.3184023 -200 45 -200 45 -200 45
461353792.29872 -0.69810587 -4.283515 -200 45 -200 45 -200 45
462353908.98483 -0.69307637 -4.2520833 -200 45 -200 45 -200 45
463354025.67095 -0.69139963 -4.2404652 -200 45 -200 45 -200 45
464354142.35706 -0.69530237 -4.2539048 -200 45 -200 45 -200 45
465354259.04317 -0.70344222 -4.2672133 -200 45 -200 45 -200 45
466354375.72929 -0.7063905 -4.2829928 -200 45 -200 45 -200 45
467354492.4154 -0.70744324 -4.2700338 -200 45 -200 45 -200 45
468354609.10152 -0.71122998 -4.2685895 -200 45 -200 45 -200 45
469354725.78763 -0.71444869 -4.2783599 -200 45 -200 45 -200 45
470354842.47375 -0.71883339 -4.2962441 -200 45 -200 45 -200 45
471354959.15986 -0.72570366 -4.306169 -200 45 -200 45 -200 45
472355075.84597 -0.72979045 -4.316607 -200 45 -200 45 -200 45
473355192.53209 -0.73102349 -4.3138385 -200 45 -200 45 -200 45
474355309.2182 -0.73209637 -4.3034511 -200 45 -200 45 -200 45
475355425.90432 -0.7396726 -4.3204451 -200 45 -200 45 -200 45
476355542.59043 -0.73993748 -4.3103099 -200 45 -200 45 -200 45
477355659.27655 -0.73635328 -4.2931085 -200 45 -200 45 -200 45
478355775.96266 -0.72842187 -4.272007 -200 45 -200 45 -200 45
479355892.64877 -0.72547972 -4.252089 -200 45 -200 45 -200 45
480356009.33489 -0.72810745 -4.2533817 -200 45 -200 45 -200 45
481356126.021 -0.73521775 -4.2594881 -200 45 -200 45 -200 45
482356242.70712 -0.74048728 -4.2838893 -200 45 -200 45 -200 45
483356359.39323 -0.74435669 -4.2882409 -200 45 -200 45 -200 45
484356476.07935 -0.74301386 -4.2797427 -200 45 -200 45 -200 45
485356592.76546 -0.74841803 -4.2816348 -200 45 -200 45 -200 45
486356709.45158 -0.75401151 -4.2960558 -200 45 -200 45 -200 45
487356826.13769 -0.75994313 -4.3066664 -200 45 -200 45 -200 45
488356942.8238 -0.76280808 -4.2999668 -200 45 -200 45 -200 45
489357059.50992 -0.767187 -4.3127713 -200 45 -200 45 -200 45
490357176.19603 -0.76785266 -4.3023052 -200 45 -200 45 -200 45
491357292.88215 -0.77486378 -4.3093963 -200 45 -200 45 -200 45
492357409.56826 -0.77570236 -4.3196917 -200 45 -200 45 -200 45
493357526.25438 -0.77333891 -4.3061953 -200 45 -200 45 -200 45
494357642.94049 -0.7644611 -4.2821693 -200 45 -200 45 -200 45
495357759.6266 -0.76069188 -4.2596741 -200 45 -200 45 -200 45
496357876.31272 -0.7614994 -4.2512503 -200 45 -200 45 -200 45
497357992.99883 -0.7670489 -4.2622766 -200 45 -200 45 -200 45
498358109.68495 -0.7739715 -4.2682457 -200 45 -200 45 -200 45
499358226.37106 -0.77904856 -4.2833796 -200 45 -200 45 -200 45
500358343.05718 -0.77737975 -4.2704988 -200 45 -200 45 -200 45
501358459.74329 -0.78155363 -4.2746148 -200 45 -200 45 -200 45
502358576.4294 -0.78856832 -4.2924747 -200 45 -200 45 -200 45
503358693.11552 -0.79378861 -4.2932367 -200 45 -200 45 -200 45
504358809.80163 -0.79662538 -4.2948518 -200 45 -200 45 -200 45
505358926.48775 -0.79745543 -4.2948465 -200 45 -200 45 -200 45
506359043.17386 -0.801606 -4.2955956 -200 45 -200 45 -200 45
507359159.85998 -0.80649328 -4.3078146 -200 45 -200 45 -200 45
508359276.54609 -0.81038481 -4.3068967 -200 45 -200 45 -200 45
509359393.23221 -0.80852872 -4.2967653 -200 45 -200 45 -200 45
510359509.91832 -0.80198056 -4.2612691 -200 45 -200 45 -200 45
511359626.60443 -0.79450101 -4.2527499 -200 45 -200 45 -200 45
512359743.29055 -0.79507387 -4.2440076 -200 45 -200 45 -200 45
513359859.97666 -0.79966933 -4.2486134 -200 45 -200 45 -200 45
514359976.66278 -0.80613762 -4.2591276 -200 45 -200 45 -200 45
515360093.34889 -0.81142223 -4.2686152 -200 45 -200 45 -200 45
516360210.03501 -0.81155795 -4.2560267 -200 45 -200 45 -200 45
517360326.72112 -0.81465459 -4.262331 -200 45 -200 45 -200 45
518360443.40723 -0.81854689 -4.2751093 -200 45 -200 45 -200 45
519360560.09335 -0.8233431 -4.2840142 -200 45 -200 45 -200 45
520360676.77946 -0.82904375 -4.2894263 -200 45 -200 45 -200 45
521360793.46558 -0.83039522 -4.286078 -200 45 -200 45 -200 45
522360910.15169 -0.83360595 -4.2941456 -200 45 -200 45 -200 45
523361026.83781 -0.83784461 -4.3009958 -200 45 -200 45 -200 45
524361143.52392 -0.84244943 -4.304543 -200 45 -200 45 -200 45
525361260.21004 -0.84283322 -4.3008676 -200 45 -200 45 -200 45
526361376.89615 -0.83774823 -4.2727547 -200 45 -200 45 -200 45
527361493.58226 -0.82890368 -4.2530413 -200 45 -200 45 -200 45
528361610.26838 -0.82863736 -4.2418656 -200 45 -200 45 -200 45
529361726.95449 -0.83122647 -4.2499847 -200 45 -200 45 -200 45
530361843.64061 -0.8380512 -4.2471504 -200 45 -200 45 -200 45
531361960.32672 -0.84285331 -4.2559261 -200 45 -200 45 -200 45
532362077.01284 -0.84649891 -4.2553492 -200 45 -200 45 -200 45
533362193.69895 -0.84581572 -4.2614684 -200 45 -200 45 -200 45
534362310.38506 -0.85118783 -4.2593942 -200 45 -200 45 -200 45
535362427.07118 -0.85635984 -4.25916 -200 45 -200 45 -200 45
536362543.75729 -0.86212099 -4.2814522 -200 45 -200 45 -200 45
537362660.44341 -0.86659968 -4.2751412 -200 45 -200 45 -200 45
538362777.12952 -0.86845863 -4.2677827 -200 45 -200 45 -200 45
539362893.81564 -0.87011564 -4.273777 -200 45 -200 45 -200 45
540363010.50175 -0.8741048 -4.2901802 -200 45 -200 45 -200 45
541363127.18786 -0.87708545 -4.2778397 -200 45 -200 45 -200 45
542363243.87398 -0.8737148 -4.2685137 -200 45 -200 45 -200 45
543363360.56009 -0.86618 -4.2397928 -200 45 -200 45 -200 45
544363477.24621 -0.86225015 -4.2236443 -200 45 -200 45 -200 45
545363593.93232 -0.86377496 -4.2249308 -200 45 -200 45 -200 45
546363710.61844 -0.86987048 -4.2258644 -200 45 -200 45 -200 45
547363827.30455 -0.87841582 -4.2344933 -200 45 -200 45 -200 45
548363943.99067 -0.88096058 -4.238935 -200 45 -200 45 -200 45
549364060.67678 -0.88153291 -4.2311416 -200 45 -200 45 -200 45
550364177.36289 -0.88369113 -4.2374153 -200 45 -200 45 -200 45
551364294.04901 -0.8916232 -4.2337484 -200 45 -200 45 -200 45
552364410.73512 -0.89640701 -4.2391338 -200 45 -200 45 -200 45
553364527.42124 -0.90242839 -4.2505956 -200 45 -200 45 -200 45
554364644.10735 -0.90200907 -4.2465124 -200 45 -200 45 -200 45
555364760.79347 -0.90476722 -4.2300911 -200 45 -200 45 -200 45
556364877.47958 -0.90980077 -4.2414837 -200 45 -200 45 -200 45
557364994.16569 -0.91441196 -4.2391653 -200 45 -200 45 -200 45
558365110.85181 -0.91043794 -4.2449956 -200 45 -200 45 -200 45
559365227.53792 -0.90416056 -4.2148609 -200 45 -200 45 -200 45
560365344.22404 -0.89798719 -4.193934 -200 45 -200 45 -200 45
561365460.91015 -0.89701509 -4.1831994 -200 45 -200 45 -200 45
562365577.59627 -0.90128559 -4.1956191 -200 45 -200 45 -200 45
563365694.28238 -0.9073329 -4.2006979 -200 45 -200 45 -200 45
564365810.96849 -0.91396499 -4.2010775 -200 45 -200 45 -200 45
565365927.65461 -0.9138397 -4.1952534 -200 45 -200 45 -200 45
566366044.34072 -0.91719079 -4.1997557 -200 45 -200 45 -200 45
567366161.02684 -0.92230183 -4.1995888 -200 45 -200 45 -200 45
568366277.71295 -0.92740279 -4.2122846 -200 45 -200 45 -200 45
569366394.39907 -0.93319398 -4.2191653 -200 45 -200 45 -200 45
570366511.08518 -0.93400532 -4.2097092 -200 45 -200 45 -200 45
571366627.7713 -0.93765754 -4.2175665 -200 45 -200 45 -200 45
572366744.45741 -0.94021183 -4.209569 -200 45 -200 45 -200 45
573366861.14352 -0.94680387 -4.2086525 -200 45 -200 45 -200 45
574366977.82964 -0.94471449 -4.2130976 -200 45 -200 45 -200 45
575367094.51575 -0.9383325 -4.1941857 -200 45 -200 45 -200 45
576367211.20187 -0.93200004 -4.1698198 -200 45 -200 45 -200 45
577367327.88798 -0.92963237 -4.1541734 -200 45 -200 45 -200 45
578367444.5741 -0.93474841 -4.1527948 -200 45 -200 45 -200 45
579367561.26021 -0.94202799 -4.1662874 -200 45 -200 45 -200 45
580367677.94632 -0.94595444 -4.1732178 -200 45 -200 45 -200 45
581367794.63244 -0.94847977 -4.1551147 -200 45 -200 45 -200 45
582367911.31855 -0.94915903 -4.1603785 -200 45 -200 45 -200 45
583368028.00467 -0.95545536 -4.1655946 -200 45 -200 45 -200 45
584368144.69078 -0.96012431 -4.1628375 -200 45 -200 45 -200 45
585368261.3769 -0.96624255 -4.167263 -200 45 -200 45 -200 45
586368378.06301 -0.96893245 -4.1739655 -200 45 -200 45 -200 45
587368494.74912 -0.97082442 -4.1771221 -200 45 -200 45 -200 45
588368611.43524 -0.97464031 -4.1716075 -200 45 -200 45 -200 45
589368728.12135 -0.97919309 -4.1651926 -200 45 -200 45 -200 45
590368844.80747 -0.97980964 -4.1699214 -200 45 -200 45 -200 45
591368961.49358 -0.97487229 -4.1382685 -200 45 -200 45 -200 45
592369078.1797 -0.96772802 -4.1426129 -200 45 -200 45 -200 45
593369194.86581 -0.96349549 -4.1250358 -200 45 -200 45 -200 45
594369311.55193 -0.96681494 -4.1159806 -200 45 -200 45 -200 45
595369428.23804 -0.97181636 -4.1158352 -200 45 -200 45 -200 45
596369544.92415 -0.97785383 -4.1329255 -200 45 -200 45 -200 45
597369661.61027 -0.9818871 -4.1212449 -200 45 -200 45 -200 45
598369778.29638 -0.98201793 -4.1207433 -200 45 -200 45 -200 45
599369894.9825 -0.98617852 -4.1051898 -200 45 -200 45 -200 45
600370011.66861 -0.99206132 -4.1303315 -200 45 -200 45 -200 45
601370128.35473 -0.99694049 -4.1283312 -200 45 -200 45 -200 45
602370245.04084 -0.99994278 -4.1308484 -200 45 -200 45 -200 45
603370361.72695 -1.0032165 -4.1344695 -200 45 -200 45 -200 45
604370478.41307 -1.0056958 -4.1249242 -200 45 -200 45 -200 45
605370595.09918 -1.0109173 -4.1213608 -200 45 -200 45 -200 45
606370711.7853 -1.0141071 -4.1383429 -200 45 -200 45 -200 45
607370828.47141 -1.009225 -4.123776 -200 45 -200 45 -200 45
608370945.15753 -1.0026895 -4.1022153 -200 45 -200 45 -200 45
609371061.84364 -0.99650186 -4.0850344 -200 45 -200 45 -200 45
610371178.52976 -0.99733001 -4.0807972 -200 45 -200 45 -200 45
611371295.21587 -1.0031682 -4.0761709 -200 45 -200 45 -200 45
612371411.90198 -1.0108687 -4.0910397 -200 45 -200 45 -200 45
613371528.5881 -1.0149992 -4.0847073 -200 45 -200 45 -200 45
614371645.27421 -1.0135827 -4.0746288 -200 45 -200 45 -200 45
615371761.96033 -1.0165579 -4.0833397 -200 45 -200 45 -200 45
616371878.64644 -1.0241238 -4.0895743 -200 45 -200 45 -200 45
617371995.33256 -1.0282627 -4.0880308 -200 45 -200 45 -200 45
618372112.01867 -1.0358953 -4.0871253 -200 45 -200 45 -200 45
619372228.70478 -1.0346249 -4.0930409 -200 45 -200 45 -200 45
620372345.3909 -1.0390806 -4.0751057 -200 45 -200 45 -200 45
621372462.07701 -1.0432209 -4.0769563 -200 45 -200 45 -200 45
622372578.76313 -1.0475552 -4.0824261 -200 45 -200 45 -200 45
623372695.44924 -1.0468618 -4.0767293 -200 45 -200 45 -200 45
624372812.13536 -1.0397918 -4.0583501 -200 45 -200 45 -200 45
625372928.82147 -1.0314738 -4.0429554 -200 45 -200 45 -200 45
626373045.50758 -1.0305997 -4.0311332 -200 45 -200 45 -200 45
627373162.1937 -1.0343982 -4.0354247 -200 45 -200 45 -200 45
628373278.87981 -1.0429921 -4.0451365 -200 45 -200 45 -200 45
629373395.56593 -1.0472143 -4.0301418 -200 45 -200 45 -200 45
630373512.25204 -1.0483468 -4.0373397 -200 45 -200 45 -200 45
631373628.93816 -1.0491446 -4.0220199 -200 45 -200 45 -200 45
632373745.62427 -1.0571387 -4.0282063 -200 45 -200 45 -200 45
633373862.31039 -1.0631828 -4.0371356 -200 45 -200 45 -200 45
634373978.9965 -1.0652252 -4.0378909 -200 45 -200 45 -200 45
635374095.68261 -1.0681479 -4.0295019 -200 45 -200 45 -200 45
636374212.36873 -1.0723231 -4.0283551 -200 45 -200 45 -200 45
637374329.05484 -1.0764779 -4.0286331 -200 45 -200 45 -200 45
638374445.74096 -1.0803668 -4.0187411 -200 45 -200 45 -200 45
639374562.42707 -1.0794023 -4.02001 -200 45 -200 45 -200 45
640374679.11319 -1.0715981 -3.9964168 -200 45 -200 45 -200 45
641374795.7993 -1.0655335 -3.9883204 -200 45 -200 45 -200 45
642374912.48541 -1.0627609 -3.9757235 -200 45 -200 45 -200 45
643375029.17153 -1.0695103 -3.9721763 -200 45 -200 45 -200 45
644375145.85764 -1.0767525 -3.9793725 -200 45 -200 45 -200 45
645375262.54376 -1.0801693 -3.9813318 -200 45 -200 45 -200 45
646375379.22987 -1.0822612 -3.9729047 -200 45 -200 45 -200 45
647375495.91599 -1.0819484 -3.959456 -200 45 -200 45 -200 45
648375612.6021 -1.0891824 -3.9620037 -200 45 -200 45 -200 45
649375729.28821 -1.0940657 -3.9717274 -200 45 -200 45 -200 45
650375845.97433 -1.0991746 -3.9653194 -200 45 -200 45 -200 45
651375962.66044 -1.1009676 -3.9573894 -200 45 -200 45 -200 45
652376079.34656 -1.1051034 -3.9576566 -200 45 -200 45 -200 45
653376196.03267 -1.1082779 -3.9570966 -200 45 -200 45 -200 45
654376312.71879 -1.1126028 -3.9478939 -200 45 -200 45 -200 45
655376429.4049 -1.1126708 -3.9437923 -200 45 -200 45 -200 45
656376546.09102 -1.1065302 -3.9357829 -200 45 -200 45 -200 45
657376662.77713 -1.0961349 -3.9185975 -200 45 -200 45 -200 45
658376779.46324 -1.0944144 -3.9016359 -200 45 -200 45 -200 45
659376896.14936 -1.0988069 -3.9043231 -200 45 -200 45 -200 45
660377012.83547 -1.1057471 -3.8963187 -200 45 -200 45 -200 45
661377129.52159 -1.1105735 -3.907305 -200 45 -200 45 -200 45
662377246.2077 -1.1122774 -3.8966553 -200 45 -200 45 -200 45
663377362.89382 -1.114975 -3.8877976 -200 45 -200 45 -200 45
664377479.57993 -1.1187311 -3.8929355 -200 45 -200 45 -200 45
665377596.26604 -1.1246908 -3.8866971 -200 45 -200 45 -200 45
666377712.95216 -1.1310935 -3.8889804 -200 45 -200 45 -200 45
667377829.63827 -1.1345456 -3.8884711 -200 45 -200 45 -200 45
668377946.32439 -1.1350212 -3.8843136 -200 45 -200 45 -200 45
669378063.0105 -1.1389126 -3.8782716 -200 45 -200 45 -200 45
670378179.69662 -1.1429111 -3.8729482 -200 45 -200 45 -200 45
671378296.38273 -1.144999 -3.8677573 -200 45 -200 45 -200 45
672378413.06884 -1.1399796 -3.8658533 -200 45 -200 45 -200 45
673378529.75496 -1.1298116 -3.8406978 -200 45 -200 45 -200 45
674378646.44107 -1.1260258 -3.8268292 -200 45 -200 45 -200 45
675378763.12719 -1.1290411 -3.8180685 -200 45 -200 45 -200 45
676378879.8133 -1.1364166 -3.8298271 -200 45 -200 45 -200 45
677378996.49942 -1.142118 -3.8382499 -200 45 -200 45 -200 45
678379113.18553 -1.1448002 -3.8222477 -200 45 -200 45 -200 45
679379229.87165 -1.1442554 -3.8028085 -200 45 -200 45 -200 45
680379346.55776 -1.1490813 -3.8095334 -200 45 -200 45 -200 45
681379463.24387 -1.15624 -3.8137364 -200 45 -200 45 -200 45
682379579.92999 -1.1595809 -3.8246908 -200 45 -200 45 -200 45
683379696.6161 -1.1640995 -3.8122811 -200 45 -200 45 -200 45
684379813.30222 -1.1658353 -3.8060441 -200 45 -200 45 -200 45
685379929.98833 -1.1682699 -3.7985585 -200 45 -200 45 -200 45
686380046.67445 -1.1748201 -3.8088496 -200 45 -200 45 -200 45
687380163.36056 -1.177164 -3.8051007 -200 45 -200 45 -200 45
688380280.04667 -1.1724445 -3.7914431 -200 45 -200 45 -200 45
689380396.73279 -1.1627489 -3.7697151 -200 45 -200 45 -200 45
690380513.4189 -1.158361 -3.7724173 -200 45 -200 45 -200 45
691380630.10502 -1.1602558 -3.7611752 -200 45 -200 45 -200 45
692380746.79113 -1.1651778 -3.7546527 -200 45 -200 45 -200 45
693380863.47725 -1.1733407 -3.7452314 -200 45 -200 45 -200 45
694380980.16336 -1.1756269 -3.7503936 -200 45 -200 45 -200 45
695381096.84947 -1.1767288 -3.7343009 -200 45 -200 45 -200 45
696381213.53559 -1.1793581 -3.7267873 -200 45 -200 45 -200 45
697381330.2217 -1.1849214 -3.7369843 -200 45 -200 45 -200 45
698381446.90782 -1.1917794 -3.7337282 -200 45 -200 45 -200 45
699381563.59393 -1.1959397 -3.7408767 -200 45 -200 45 -200 45
700381680.28005 -1.1979237 -3.7289786 -200 45 -200 45 -200 45
701381796.96616 -1.1985854 -3.727483 -200 45 -200 45 -200 45
702381913.65228 -1.2037467 -3.723145 -200 45 -200 45 -200 45
703382030.33839 -1.2078605 -3.7193954 -200 45 -200 45 -200 45
704382147.0245 -1.2041235 -3.7095928 -200 45 -200 45 -200 45
705382263.71062 -1.1968926 -3.6928463 -200 45 -200 45 -200 45
706382380.39673 -1.1886421 -3.6710441 -200 45 -200 45 -200 45
707382497.08285 -1.1886023 -3.6804044 -200 45 -200 45 -200 45
708382613.76896 -1.194718 -3.6761069 -200 45 -200 45 -200 45
709382730.45508 -1.2026095 -3.6753743 -200 45 -200 45 -200 45
710382847.14119 -1.2051868 -3.6740856 -200 45 -200 45 -200 45
711382963.8273 -1.2062157 -3.661396 -200 45 -200 45 -200 45
712383080.51342 -1.2068565 -3.6492045 -200 45 -200 45 -200 45
713383197.19953 -1.2158855 -3.6546178 -200 45 -200 45 -200 45
714383313.88565 -1.2193115 -3.6487477 -200 45 -200 45 -200 45
715383430.57176 -1.2254393 -3.6579876 -200 45 -200 45 -200 45
716383547.25788 -1.2262292 -3.6542218 -200 45 -200 45 -200 45
717383663.94399 -1.2298739 -3.6358762 -200 45 -200 45 -200 45
718383780.63011 -1.232681 -3.6264415 -200 45 -200 45 -200 45
719383897.31622 -1.2383485 -3.6398783 -200 45 -200 45 -200 45
720384014.00233 -1.2356409 -3.6272442 -200 45 -200 45 -200 45
721384130.68845 -1.2292366 -3.6128116 -200 45 -200 45 -200 45
722384247.37456 -1.220131 -3.6021359 -200 45 -200 45 -200 45
723384364.06068 -1.2185955 -3.6003506 -200 45 -200 45 -200 45
724384480.74679 -1.2235879 -3.59585 -200 45 -200 45 -200 45
725384597.43291 -1.2300814 -3.6004336 -200 45 -200 45 -200 45
726384714.11902 -1.2351228 -3.5917296 -200 45 -200 45 -200 45
727384830.80513 -1.2354327 -3.5851638 -200 45 -200 45 -200 45
728384947.49125 -1.2375646 -3.5858319 -200 45 -200 45 -200 45
729385064.17736 -1.2421298 -3.5737741 -200 45 -200 45 -200 45
730385180.86348 -1.2481843 -3.5759828 -200 45 -200 45 -200 45
731385297.54959 -1.2555177 -3.5750253 -200 45 -200 45 -200 45
732385414.23571 -1.2555474 -3.5749507 -200 45 -200 45 -200 45
733385530.92182 -1.2581532 -3.5675411 -200 45 -200 45 -200 45
734385647.60793 -1.2628652 -3.5669646 -200 45 -200 45 -200 45
735385764.29405 -1.2673992 -3.5454137 -200 45 -200 45 -200 45
736385880.98016 -1.2672786 -3.5486426 -200 45 -200 45 -200 45
737385997.66628 -1.2613313 -3.5434656 -200 45 -200 45 -200 45
738386114.35239 -1.2518959 -3.5311339 -200 45 -200 45 -200 45
739386231.03851 -1.2483358 -3.5246181 -200 45 -200 45 -200 45
740386347.72462 -1.2530828 -3.5167627 -200 45 -200 45 -200 45
741386464.41074 -1.2578392 -3.5157409 -200 45 -200 45 -200 45
742386581.09685 -1.2639707 -3.5069933 -200 45 -200 45 -200 45
743386697.78296 -1.2672893 -3.5011394 -200 45 -200 45 -200 45
744386814.46908 -1.2683108 -3.4954884 -200 45 -200 45 -200 45
745386931.15519 -1.2719476 -3.4867985 -200 45 -200 45 -200 45
746387047.84131 -1.2763873 -3.4936898 -200 45 -200 45 -200 45
747387164.52742 -1.284089 -3.4889152 -200 45 -200 45 -200 45
748387281.21354 -1.2872728 -3.4830089 -200 45 -200 45 -200 45
749387397.89965 -1.2895912 -3.4818423 -200 45 -200 45 -200 45
750387514.58576 -1.2896421 -3.4731011 -200 45 -200 45 -200 45
751387631.27188 -1.2960905 -3.4700909 -200 45 -200 45 -200 45
752387747.95799 -1.2967174 -3.4682941 -200 45 -200 45 -200 45
753387864.64411 -1.2920325 -3.4553072 -200 45 -200 45 -200 45
754387981.33022 -1.2840301 -3.4422474 -200 45 -200 45 -200 45
755388098.01634 -1.2779529 -3.4340599 -200 45 -200 45 -200 45
756388214.70245 -1.2809081 -3.43029 -200 45 -200 45 -200 45
757388331.38856 -1.2858143 -3.4301655 -200 45 -200 45 -200 45
758388448.07468 -1.292905 -3.429502 -200 45 -200 45 -200 45
759388564.76079 -1.296423 -3.4134703 -200 45 -200 45 -200 45
760388681.44691 -1.2952051 -3.4057355 -200 45 -200 45 -200 45
761388798.13302 -1.2981741 -3.3991864 -200 45 -200 45 -200 45
762388914.81914 -1.3057315 -3.394294 -200 45 -200 45 -200 45
763389031.50525 -1.3103288 -3.4025638 -200 45 -200 45 -200 45
764389148.19137 -1.3149291 -3.3938515 -200 45 -200 45 -200 45
765389264.87748 -1.3151488 -3.3965247 -200 45 -200 45 -200 45
766389381.56359 -1.3198333 -3.3839896 -200 45 -200 45 -200 45
767389498.24971 -1.3240272 -3.3772845 -200 45 -200 45 -200 45
768389614.93582 -1.3278425 -3.3701515 -200 45 -200 45 -200 45
769389731.62194 -1.3224537 -3.3681054 -200 45 -200 45 -200 45
770389848.30805 -1.3133258 -3.3511875 -200 45 -200 45 -200 45
771389964.99417 -1.3087928 -3.3465953 -200 45 -200 45 -200 45
772390081.68028 -1.3092338 -3.340451 -200 45 -200 45 -200 45
773390198.36639 -1.3144344 -3.3408802 -200 45 -200 45 -200 45
774390315.05251 -1.322294 -3.3216617 -200 45 -200 45 -200 45
775390431.73862 -1.3251766 -3.3147454 -200 45 -200 45 -200 45
776390548.42474 -1.3252609 -3.3143942 -200 45 -200 45 -200 45
777390665.11085 -1.3281223 -3.3016901 -200 45 -200 45 -200 45
778390781.79697 -1.3330947 -3.3024104 -200 45 -200 45 -200 45
779390898.48308 -1.3399714 -3.2985466 -200 45 -200 45 -200 45
780391015.16919 -1.3443118 -3.2921808 -200 45 -200 45 -200 45
781391131.85531 -1.3459847 -3.2784626 -200 45 -200 45 -200 45
782391248.54142 -1.3482467 -3.2745373 -200 45 -200 45 -200 45
783391365.22754 -1.352358 -3.2707696 -200 45 -200 45 -200 45
784391481.91365 -1.3568127 -3.2610502 -200 45 -200 45 -200 45
785391598.59977 -1.353745 -3.252552 -200 45 -200 45 -200 45
786391715.28588 -1.3455867 -3.2433186 -200 45 -200 45 -200 45
787391831.972 -1.3380244 -3.2484696 -200 45 -200 45 -200 45
788391948.65811 -1.3383555 -3.2344816 -200 45 -200 45 -200 45
789392065.34422 -1.3418586 -3.2350051 -200 45 -200 45 -200 45
790392182.03034 -1.3504127 -3.2201469 -200 45 -200 45 -200 45
791392298.71645 -1.3534654 -3.2104754 -200 45 -200 45 -200 45
792392415.40257 -1.3526742 -3.207104 -200 45 -200 45 -200 45
793392532.08868 -1.3557765 -3.1976724 -200 45 -200 45 -200 45
794392648.7748 -1.3621738 -3.193434 -200 45 -200 45 -200 45
795392765.46091 -1.3658345 -3.1910741 -200 45 -200 45 -200 45
796392882.14702 -1.3719683 -3.1829798 -200 45 -200 45 -200 45
797392998.83314 -1.3729383 -3.1767373 -200 45 -200 45 -200 45
798393115.51925 -1.3770485 -3.1664085 -200 45 -200 45 -200 45
799393232.20537 -1.3787318 -3.1631267 -200 45 -200 45 -200 45
800393348.89148 -1.3846958 -3.157867 -200 45 -200 45 -200 45
801393465.5776 -1.3823133 -3.1596935 -200 45 -200 45 -200 45
802393582.26371 -1.3749106 -3.1391439 -200 45 -200 45 -200 45
803393698.94983 -1.3660547 -3.1371455 -200 45 -200 45 -200 45
804393815.63594 -1.3649057 -3.1313975 -200 45 -200 45 -200 45
805393932.32205 -1.368302 -3.1284943 -200 45 -200 45 -200 45
806394049.00817 -1.3755502 -3.1156673 -200 45 -200 45 -200 45
807394165.69428 -1.3791215 -3.1182046 -200 45 -200 45 -200 45
808394282.3804 -1.3805336 -3.109972 -200 45 -200 45 -200 45
809394399.06651 -1.3831269 -3.0921364 -200 45 -200 45 -200 45
810394515.75263 -1.385903 -3.1046839 -200 45 -200 45 -200 45
811394632.43874 -1.39168 -3.0967054 -200 45 -200 45 -200 45
812394749.12485 -1.3997215 -3.0864413 -200 45 -200 45 -200 45
813394865.81097 -1.4005898 -3.0799568 -200 45 -200 45 -200 45
814394982.49708 -1.4027246 -3.0774951 -200 45 -200 45 -200 45
815395099.1832 -1.404835 -3.0545335 -200 45 -200 45 -200 45
816395215.86931 -1.410989 -3.0556686 -200 45 -200 45 -200 45
817395332.55543 -1.4102504 -3.051832 -200 45 -200 45 -200 45
818395449.24154 -1.4049935 -3.042721 -200 45 -200 45 -200 45
819395565.92765 -1.3956074 -3.0464919 -200 45 -200 45 -200 45
820395682.61377 -1.390516 -3.0382471 -200 45 -200 45 -200 45
821395799.29988 -1.3953632 -3.041095 -200 45 -200 45 -200 45
822395915.986 -1.401032 -3.0270154 -200 45 -200 45 -200 45
823396032.67211 -1.4036697 -3.021277 -200 45 -200 45 -200 45
824396149.35823 -1.4083661 -3.0098112 -200 45 -200 45 -200 45
825396266.04434 -1.4086031 -3.0005052 -200 45 -200 45 -200 45
826396382.73046 -1.4129636 -2.9945178 -200 45 -200 45 -200 45
827396499.41657 -1.4186609 -3.0001416 -200 45 -200 45 -200 45
828396616.10268 -1.4246886 -2.9870105 -200 45 -200 45 -200 45
829396732.7888 -1.4274112 -2.9942505 -200 45 -200 45 -200 45
830396849.47491 -1.4287423 -2.9775934 -200 45 -200 45 -200 45
831396966.16103 -1.4309413 -2.9693658 -200 45 -200 45 -200 45
832397082.84714 -1.4374255 -2.961441 -200 45 -200 45 -200 45
833397199.53326 -1.4379063 -2.9518611 -200 45 -200 45 -200 45
834397316.21937 -1.4326845 -2.9482443 -200 45 -200 45 -200 45
835397432.90548 -1.4230628 -2.9523938 -200 45 -200 45 -200 45
836397549.5916 -1.4187649 -2.9421504 -200 45 -200 45 -200 45
837397666.27771 -1.4190247 -2.9372497 -200 45 -200 45 -200 45
838397782.96383 -1.4243773 -2.9250371 -200 45 -200 45 -200 45
839397899.64994 -1.4328365 -2.9231589 -200 45 -200 45 -200 45
840398016.33606 -1.4355823 -2.9200883 -200 45 -200 45 -200 45
841398133.02217 -1.4364593 -2.9157438 -200 45 -200 45 -200 45
842398249.70828 -1.4393585 -2.9124782 -200 45 -200 45 -200 45
843398366.3944 -1.4448614 -2.9019864 -200 45 -200 45 -200 45
844398483.08051 -1.4500877 -2.9061248 -200 45 -200 45 -200 45
845398599.76663 -1.4543085 -2.8942783 -200 45 -200 45 -200 45
846398716.45274 -1.4565252 -2.8927572 -200 45 -200 45 -200 45
847398833.13886 -1.4580097 -2.8890498 -200 45 -200 45 -200 45
848398949.82497 -1.4635795 -2.8715582 -200 45 -200 45 -200 45
849399066.51109 -1.4670187 -2.8679776 -200 45 -200 45 -200 45
850399183.1972 -1.46119 -2.8571272 -200 45 -200 45 -200 45
851399299.88331 -1.4526455 -2.859014 -200 45 -200 45 -200 45
852399416.56943 -1.4454247 -2.863189 -200 45 -200 45 -200 45
853399533.25554 -1.447194 -2.8466775 -200 45 -200 45 -200 45
854399649.94166 -1.4510616 -2.8413777 -200 45 -200 45 -200 45
855399766.62777 -1.4583374 -2.8427291 -200 45 -200 45 -200 45
856399883.31389 -1.4633715 -2.8329763 -200 45 -200 45 -200 45
857400000 -1.4623687 -2.8255529 -200 45 -200 45 -200 45
858400116.68611 -1.4634182 -2.8200257 -200 45 -200 45 -200 45
859400233.37223 -1.4702681 -2.8139198 -200 45 -200 45 -200 45
860400350.05834 -1.4750412 -2.8096843 -200 45 -200 45 -200 45
861400466.74446 -1.481017 -2.8107002 -200 45 -200 45 -200 45
862400583.43057 -1.4829155 -2.7923381 -200 45 -200 45 -200 45
863400700.11669 -1.4846102 -2.7899771 -200 45 -200 45 -200 45
864400816.8028 -1.489117 -2.7888715 -200 45 -200 45 -200 45
865400933.48891 -1.4926265 -2.7689879 -200 45 -200 45 -200 45
866401050.17503 -1.4930613 -2.7730711 -200 45 -200 45 -200 45
867401166.86114 -1.4832664 -2.771349 -200 45 -200 45 -200 45
868401283.54726 -1.4750546 -2.7758067 -200 45 -200 45 -200 45
869401400.23337 -1.4735345 -2.7671795 -200 45 -200 45 -200 45
870401516.91949 -1.4795752 -2.7536747 -200 45 -200 45 -200 45
871401633.6056 -1.4846954 -2.7494564 -200 45 -200 45 -200 45
872401750.29172 -1.4924155 -2.7419238 -200 45 -200 45 -200 45
873401866.97783 -1.4915965 -2.7172267 -200 45 -200 45 -200 45
874401983.66394 -1.4917363 -2.7339411 -200 45 -200 45 -200 45
875402100.35006 -1.4987819 -2.7193794 -200 45 -200 45 -200 45
876402217.03617 -1.5037017 -2.704246 -200 45 -200 45 -200 45
877402333.72229 -1.5096533 -2.6926944 -200 45 -200 45 -200 45
878402450.4084 -1.510769 -2.692112 -200 45 -200 45 -200 45
879402567.09452 -1.5130519 -2.6909728 -200 45 -200 45 -200 45
880402683.78063 -1.5168908 -2.6842701 -200 45 -200 45 -200 45
881402800.46674 -1.5206825 -2.6739347 -200 45 -200 45 -200 45
882402917.15286 -1.5196271 -2.6607466 -200 45 -200 45 -200 45
883403033.83897 -1.5136875 -2.6621585 -200 45 -200 45 -200 45
884403150.52509 -1.5062379 -2.6634908 -200 45 -200 45 -200 45
885403267.2112 -1.5016488 -2.6603677 -200 45 -200 45 -200 45
886403383.89732 -1.504642 -2.6518736 -200 45 -200 45 -200 45
887403500.58343 -1.5141525 -2.6388495 -200 45 -200 45 -200 45
888403617.26954 -1.5183153 -2.6240118 -200 45 -200 45 -200 45
889403733.95566 -1.5206692 -2.6208398 -200 45 -200 45 -200 45
890403850.64177 -1.5207306 -2.6104708 -200 45 -200 45 -200 45
891403967.32789 -1.5246927 -2.607928 -200 45 -200 45 -200 45
892404084.014 -1.5312726 -2.6079018 -200 45 -200 45 -200 45
893404200.70012 -1.5375146 -2.5891585 -200 45 -200 45 -200 45
894404317.38623 -1.5398524 -2.5784192 -200 45 -200 45 -200 45
895404434.07235 -1.5421413 -2.5731466 -200 45 -200 45 -200 45
896404550.75846 -1.5431815 -2.5694289 -200 45 -200 45 -200 45
897404667.44457 -1.5491502 -2.5560415 -200 45 -200 45 -200 45
898404784.13069 -1.5512494 -2.5506477 -200 45 -200 45 -200 45
899404900.8168 -1.5452365 -2.5464616 -200 45 -200 45 -200 45
900405017.50292 -1.5375625 -2.5482981 -200 45 -200 45 -200 45
901405134.18903 -1.5321058 -2.5288682 -200 45 -200 45 -200 45
902405250.87515 -1.5347139 -2.5211763 -200 45 -200 45 -200 45
903405367.56126 -1.5404273 -2.5174015 -200 45 -200 45 -200 45
904405484.24737 -1.5471903 -2.5051112 -200 45 -200 45 -200 45
905405600.93349 -1.5506113 -2.4975681 -200 45 -200 45 -200 45
906405717.6196 -1.5485656 -2.4861391 -200 45 -200 45 -200 45
907405834.30572 -1.5524746 -2.4824388 -200 45 -200 45 -200 45
908405950.99183 -1.5608776 -2.4651163 -200 45 -200 45 -200 45
909406067.67795 -1.5649539 -2.4606483 -200 45 -200 45 -200 45
910406184.36406 -1.5682076 -2.4557908 -200 45 -200 45 -200 45
911406301.05018 -1.5707943 -2.4468391 -200 45 -200 45 -200 45
912406417.73629 -1.5720835 -2.4317167 -200 45 -200 45 -200 45
913406534.4224 -1.5782052 -2.4279704 -200 45 -200 45 -200 45
914406651.10852 -1.5789074 -2.4200296 -200 45 -200 45 -200 45
915406767.79463 -1.5761354 -2.4113684 -200 45 -200 45 -200 45
916406884.48075 -1.5671952 -2.4093587 -200 45 -200 45 -200 45
917407001.16686 -1.5589939 -2.4090528 -200 45 -200 45 -200 45
918407117.85298 -1.5604289 -2.3901703 -200 45 -200 45 -200 45
919407234.53909 -1.5680784 -2.385056 -200 45 -200 45 -200 45
920407351.2252 -1.5722909 -2.3727736 -200 45 -200 45 -200 45
921407467.91132 -1.5774808 -2.3712807 -200 45 -200 45 -200 45
922407584.59743 -1.5776197 -2.3626006 -200 45 -200 45 -200 45
923407701.28355 -1.579228 -2.3525496 -200 45 -200 45 -200 45
924407817.96966 -1.5859222 -2.3419724 -200 45 -200 45 -200 45
925407934.65578 -1.5893111 -2.3264065 -200 45 -200 45 -200 45
926408051.34189 -1.5958064 -2.3179884 -200 45 -200 45 -200 45
927408168.028 -1.595095 -2.3081267 -200 45 -200 45 -200 45
928408284.71412 -1.5979862 -2.3080328 -200 45 -200 45 -200 45
929408401.40023 -1.6035806 -2.2878482 -200 45 -200 45 -200 45
930408518.08635 -1.6056726 -2.2816665 -200 45 -200 45 -200 45
931408634.77246 -1.6040382 -2.2810481 -200 45 -200 45 -200 45
932408751.45858 -1.5962721 -2.2856662 -200 45 -200 45 -200 45
933408868.14469 -1.5881658 -2.2586577 -200 45 -200 45 -200 45
934408984.83081 -1.5884262 -2.2678251 -200 45 -200 45 -200 45
935409101.51692 -1.5907458 -2.2557559 -200 45 -200 45 -200 45
936409218.20303 -1.5971175 -2.2415576 -200 45 -200 45 -200 45
937409334.88915 -1.6009504 -2.2356601 -200 45 -200 45 -200 45
938409451.57526 -1.6011367 -2.2305393 -200 45 -200 45 -200 45
939409568.26138 -1.6051638 -2.2354436 -200 45 -200 45 -200 45
940409684.94749 -1.610634 -2.2149251 -200 45 -200 45 -200 45
941409801.63361 -1.6130422 -2.2159131 -200 45 -200 45 -200 45
942409918.31972 -1.6209843 -2.1914923 -200 45 -200 45 -200 45
943410035.00583 -1.6211889 -2.1911411 -200 45 -200 45 -200 45
944410151.69195 -1.6219609 -2.1798213 -200 45 -200 45 -200 45
945410268.37806 -1.6268069 -2.1831081 -200 45 -200 45 -200 45
946410385.06418 -1.6309249 -2.1490877 -200 45 -200 45 -200 45
947410501.75029 -1.6315178 -2.1641662 -200 45 -200 45 -200 45
948410618.43641 -1.6220909 -2.1560104 -200 45 -200 45 -200 45
949410735.12252 -1.6123582 -2.1517928 -200 45 -200 45 -200 45
950410851.80863 -1.6119623 -2.1448648 -200 45 -200 45 -200 45
951410968.49475 -1.6138965 -2.1289041 -200 45 -200 45 -200 45
952411085.18086 -1.6216052 -2.1272407 -200 45 -200 45 -200 45
953411201.86698 -1.625425 -2.1204586 -200 45 -200 45 -200 45
954411318.55309 -1.62806 -2.1065478 -200 45 -200 45 -200 45
955411435.23921 -1.6277558 -2.1091139 -200 45 -200 45 -200 45
956411551.92532 -1.6332119 -2.0922329 -200 45 -200 45 -200 45
957411668.61144 -1.6377382 -2.0896575 -200 45 -200 45 -200 45
958411785.29755 -1.644974 -2.0760057 -200 45 -200 45 -200 45
959411901.98366 -1.6457573 -2.0700226 -200 45 -200 45 -200 45
960412018.66978 -1.6460543 -2.0595217 -200 45 -200 45 -200 45
961412135.35589 -1.6482387 -2.049288 -200 45 -200 45 -200 45
962412252.04201 -1.6543903 -2.0317726 -200 45 -200 45 -200 45
963412368.72812 -1.6550053 -2.0254707 -200 45 -200 45 -200 45
964412485.41424 -1.648404 -2.0374913 -200 45 -200 45 -200 45
965412602.10035 -1.6385993 -2.0499749 -200 45 -200 45 -200 45
966412718.78646 -1.6354245 -2.0419662 -200 45 -200 45 -200 45
967412835.47258 -1.6374145 -2.0288973 -200 45 -200 45 -200 45
968412952.15869 -1.644774 -2.0220044 -200 45 -200 45 -200 45
969413068.84481 -1.6499566 -2.0151272 -200 45 -200 45 -200 45
970413185.53092 -1.6516727 -1.9997102 -200 45 -200 45 -200 45
971413302.21704 -1.6505691 -1.9888803 -200 45 -200 45 -200 45
972413418.90315 -1.6545479 -1.9765114 -200 45 -200 45 -200 45
973413535.58926 -1.6603748 -1.9723552 -200 45 -200 45 -200 45
974413652.27538 -1.666989 -1.9660386 -200 45 -200 45 -200 45
975413768.96149 -1.6695082 -1.9691882 -200 45 -200 45 -200 45
976413885.64761 -1.6714431 -1.9641283 -200 45 -200 45 -200 45
977414002.33372 -1.6714678 -1.9518149 -200 45 -200 45 -200 45
978414119.01984 -1.6765987 -1.9321442 -200 45 -200 45 -200 45
979414235.70595 -1.6788999 -1.9360993 -200 45 -200 45 -200 45
980414352.39207 -1.6741358 -1.9292803 -200 45 -200 45 -200 45
981414469.07818 -1.6667036 -1.9333444 -200 45 -200 45 -200 45
982414585.76429 -1.6589192 -1.9465909 -200 45 -200 45 -200 45
983414702.45041 -1.6610793 -1.9258722 -200 45 -200 45 -200 45
984414819.13652 -1.667513 -1.9141879 -200 45 -200 45 -200 45
985414935.82264 -1.673321 -1.91093 -200 45 -200 45 -200 45
986415052.50875 -1.6782628 -1.8889576 -200 45 -200 45 -200 45
987415169.19487 -1.6749786 -1.8878393 -200 45 -200 45 -200 45
988415285.88098 -1.6775063 -1.8823726 -200 45 -200 45 -200 45
989415402.56709 -1.68537 -1.8784361 -200 45 -200 45 -200 45
990415519.25321 -1.6899602 -1.870414 -200 45 -200 45 -200 45
991415635.93932 -1.6939249 -1.8602593 -200 45 -200 45 -200 45
992415752.62544 -1.6952163 -1.8449872 -200 45 -200 45 -200 45
993415869.31155 -1.6975189 -1.8473585 -200 45 -200 45 -200 45
994415985.99767 -1.7020241 -1.8370147 -200 45 -200 45 -200 45
995416102.68378 -1.7050812 -1.8222396 -200 45 -200 45 -200 45
996416219.36989 -1.7001467 -1.8255583 -200 45 -200 45 -200 45
997416336.05601 -1.6936034 -1.8292624 -200 45 -200 45 -200 45
998416452.74212 -1.6868882 -1.8275006 -200 45 -200 45 -200 45
999416569.42824 -1.6871378 -1.8178914 -200 45 -200 45 -200 45
1000416686.1144 -1.6920025 -1.8033431 -200 45 -200 45 -200 45
1001416802.8005 -1.6993718 -1.8034221 -200 45 -200 45 -200 45
1002416919.4866 -1.7026331 -1.7824981 -200 45 -200 45 -200 45
1003417036.1727 -1.7015039 -1.7814498 -200 45 -200 45 -200 45
1004417152.8588 -1.7027304 -1.7821888 -200 45 -200 45 -200 45
1005417269.5449 -1.7113217 -1.7666856 -200 45 -200 45 -200 45
1006417386.231 -1.7160556 -1.7606301 -200 45 -200 45 -200 45
1007417502.9172 -1.7218493 -1.7484519 -200 45 -200 45 -200 45
1008417619.6033 -1.722183 -1.7382187 -200 45 -200 45 -200 45
1009417736.2894 -1.7241988 -1.7367409 -200 45 -200 45 -200 45
1010417852.9755 -1.727527 -1.7234987 -200 45 -200 45 -200 45
1011417969.6616 -1.7311193 -1.7191346 -200 45 -200 45 -200 45
1012418086.3477 -1.7299899 -1.7055223 -200 45 -200 45 -200 45
1013418203.0338 -1.7234304 -1.7133236 -200 45 -200 45 -200 45
1014418319.72 -1.7154411 -1.7132257 -200 45 -200 45 -200 45
1015418436.4061 -1.7141294 -1.7084408 -200 45 -200 45 -200 45
1016418553.0922 -1.7184 -1.7056897 -200 45 -200 45 -200 45
1017418669.7783 -1.7262253 -1.6873513 -200 45 -200 45 -200 45
1018418786.4644 -1.7313931 -1.6677383 -200 45 -200 45 -200 45
1019418903.1505 -1.7297879 -1.6691979 -200 45 -200 45 -200 45
1020419019.8366 -1.7324055 -1.6458148 -200 45 -200 45 -200 45
1021419136.5228 -1.7376426 -1.6476965 -200 45 -200 45 -200 45
1022419253.2089 -1.7430855 -1.6317741 -200 45 -200 45 -200 45
1023419369.895 -1.7500272 -1.625753 -200 45 -200 45 -200 45
1024419486.5811 -1.751146 -1.6140565 -200 45 -200 45 -200 45
1025419603.2672 -1.7542918 -1.6010904 -200 45 -200 45 -200 45
1026419719.9533 -1.7574643 -1.5951473 -200 45 -200 45 -200 45
1027419836.6394 -1.7620308 -1.5748658 -200 45 -200 45 -200 45
1028419953.3256 -1.7607739 -1.5675544 -200 45 -200 45 -200 45
1029420070.0117 -1.7548702 -1.5812454 -200 45 -200 45 -200 45
1030420186.6978 -1.7471501 -1.5820094 -200 45 -200 45 -200 45
1031420303.3839 -1.7444689 -1.5735412 -200 45 -200 45 -200 45
1032420420.07 -1.7467788 -1.5662504 -200 45 -200 45 -200 45
1033420536.7561 -1.7544491 -1.5510525 -200 45 -200 45 -200 45
1034420653.4422 -1.7582519 -1.5373261 -200 45 -200 45 -200 45
1035420770.1284 -1.7613485 -1.5216957 -200 45 -200 45 -200 45
1036420886.8145 -1.759533 -1.5177422 -200 45 -200 45 -200 45
1037421003.5006 -1.7650559 -1.5144087 -200 45 -200 45 -200 45
1038421120.1867 -1.7700527 -1.4969872 -200 45 -200 45 -200 45
1039421236.8728 -1.7779833 -1.4817996 -200 45 -200 45 -200 45
1040421353.5589 -1.7793577 -1.4833319 -200 45 -200 45 -200 45
1041421470.245 -1.7829778 -1.4571005 -200 45 -200 45 -200 45
1042421586.9312 -1.7851201 -1.4414579 -200 45 -200 45 -200 45
1043421703.6173 -1.7899466 -1.4397509 -200 45 -200 45 -200 45
1044421820.3034 -1.7897289 -1.4347636 -200 45 -200 45 -200 45
1045421936.9895 -1.7838693 -1.4235179 -200 45 -200 45 -200 45
1046422053.6756 -1.7755036 -1.4420691 -200 45 -200 45 -200 45
1047422170.3617 -1.7719516 -1.4340287 -200 45 -200 45 -200 45
1048422287.0478 -1.7746412 -1.4253312 -200 45 -200 45 -200 45
1049422403.734 -1.7795585 -1.3999194 -200 45 -200 45 -200 45
1050422520.4201 -1.7860386 -1.3936509 -200 45 -200 45 -200 45
1051422637.1062 -1.7902339 -1.3862264 -200 45 -200 45 -200 45
1052422753.7923 -1.7875272 -1.3792528 -200 45 -200 45 -200 45
1053422870.4784 -1.791173 -1.3646621 -200 45 -200 45 -200 45
1054422987.1645 -1.7972405 -1.353557 -200 45 -200 45 -200 45
1055423103.8506 -1.8042126 -1.3416455 -200 45 -200 45 -200 45
1056423220.5368 -1.8080215 -1.3300515 -200 45 -200 45 -200 45
1057423337.2229 -1.8087808 -1.3217076 -200 45 -200 45 -200 45
1058423453.909 -1.8116531 -1.3048967 -200 45 -200 45 -200 45
1059423570.5951 -1.8148636 -1.2848631 -200 45 -200 45 -200 45
1060423687.2812 -1.8172765 -1.2716252 -200 45 -200 45 -200 45
1061423803.9673 -1.8150121 -1.2808732 -200 45 -200 45 -200 45
1062423920.6534 -1.8059582 -1.2853997 -200 45 -200 45 -200 45
1063424037.3396 -1.8001194 -1.2988836 -200 45 -200 45 -200 45
1064424154.0257 -1.8011488 -1.2908688 -200 45 -200 45 -200 45
1065424270.7118 -1.8062642 -1.2683136 -200 45 -200 45 -200 45
1066424387.3979 -1.8122672 -1.2454572 -200 45 -200 45 -200 45
1067424504.084 -1.8151293 -1.2414327 -200 45 -200 45 -200 45
1068424620.7701 -1.8140627 -1.2345012 -200 45 -200 45 -200 45
1069424737.4562 -1.8164942 -1.223765 -200 45 -200 45 -200 45
1070424854.1424 -1.8243935 -1.2128196 -200 45 -200 45 -200 45
1071424970.8285 -1.8288575 -1.1946423 -200 45 -200 45 -200 45
1072425087.5146 -1.8332564 -1.2004426 -200 45 -200 45 -200 45
1073425204.2007 -1.8356788 -1.1862174 -200 45 -200 45 -200 45
1074425320.8868 -1.8376548 -1.177356 -200 45 -200 45 -200 45
1075425437.5729 -1.8413662 -1.1475 -200 45 -200 45 -200 45
1076425554.259 -1.8450254 -1.1336321 -200 45 -200 45 -200 45
1077425670.9452 -1.8414682 -1.1335015 -200 45 -200 45 -200 45
1078425787.6313 -1.8346593 -1.1465584 -200 45 -200 45 -200 45
1079425904.3174 -1.8261756 -1.1492398 -200 45 -200 45 -200 45
1080426021.0035 -1.8268694 -1.1483209 -200 45 -200 45 -200 45
1081426137.6896 -1.8302623 -1.1297816 -200 45 -200 45 -200 45
1082426254.3757 -1.8373109 -1.1135954 -200 45 -200 45 -200 45
1083426371.0618 -1.8405198 -1.1143899 -200 45 -200 45 -200 45
1084426487.748 -1.841403 -1.0938329 -200 45 -200 45 -200 45
1085426604.4341 -1.8413785 -1.0874473 -200 45 -200 45 -200 45
1086426721.1202 -1.8475503 -1.0835565 -200 45 -200 45 -200 45
1087426837.8063 -1.8529991 -1.0627196 -200 45 -200 45 -200 45
1088426954.4924 -1.8605981 -1.0485673 -200 45 -200 45 -200 45
1089427071.1785 -1.8598746 -1.0444371 -200 45 -200 45 -200 45
1090427187.8646 -1.8609048 -1.0355589 -200 45 -200 45 -200 45
1091427304.5508 -1.8659383 -1.0217059 -200 45 -200 45 -200 45
1092427421.2369 -1.8699101 -1.0085118 -200 45 -200 45 -200 45
1093427537.923 -1.8683015 -1.0059532 -200 45 -200 45 -200 45
1094427654.6091 -1.8634131 -1.0187252 -200 45 -200 45 -200 45
1095427771.2952 -1.8548552 -1.0112287 -200 45 -200 45 -200 45
1096427887.9813 -1.8519783 -1.0192533 -200 45 -200 45 -200 45
1097428004.6674 -1.8559612 -0.99857217 -200 45 -200 45 -200 45
1098428121.3536 -1.8630751 -0.99472177 -200 45 -200 45 -200 45
1099428238.0397 -1.8672341 -0.97660553 -200 45 -200 45 -200 45
1100428354.7258 -1.869473 -0.9672547 -200 45 -200 45 -200 45
1101428471.4119 -1.8687751 -0.96056324 -200 45 -200 45 -200 45
1102428588.098 -1.8739995 -0.93946171 -200 45 -200 45 -200 45
1103428704.7841 -1.8789353 -0.9347291 -200 45 -200 45 -200 45
1104428821.4702 -1.8853343 -0.92364651 -200 45 -200 45 -200 45
1105428938.1564 -1.8873798 -0.92064464 -200 45 -200 45 -200 45
1106429054.8425 -1.8905442 -0.91075033 -200 45 -200 45 -200 45
1107429171.5286 -1.8934988 -0.89808303 -200 45 -200 45 -200 45
1108429288.2147 -1.8974482 -0.86636823 -200 45 -200 45 -200 45
1109429404.9008 -1.9003675 -0.87496668 -200 45 -200 45 -200 45
1110429521.5869 -1.8933852 -0.87149501 -200 45 -200 45 -200 45
1111429638.273 -1.8849127 -0.88686961 -200 45 -200 45 -200 45
1112429754.9592 -1.8794541 -0.89331502 -200 45 -200 45 -200 45
1113429871.6453 -1.8837402 -0.87928921 -200 45 -200 45 -200 45
1114429988.3314 -1.8904022 -0.86327046 -200 45 -200 45 -200 45
1115430105.0175 -1.8965011 -0.8529864 -200 45 -200 45 -200 45
1116430221.7036 -1.9003061 -0.86152589 -200 45 -200 45 -200 45
1117430338.3897 -1.9003755 -0.84892386 -200 45 -200 45 -200 45
1118430455.0758 -1.9064728 -0.83454889 -200 45 -200 45 -200 45
1119430571.762 -1.9118311 -0.82156277 -200 45 -200 45 -200 45
1120430688.4481 -1.9208091 -0.80207801 -200 45 -200 45 -200 45
1121430805.1342 -1.9251069 -0.78733552 -200 45 -200 45 -200 45
1122430921.8203 -1.9251355 -0.7539345 -200 45 -200 45 -200 45
1123431038.5064 -1.9259243 -0.74073797 -200 45 -200 45 -200 45
1124431155.1925 -1.9323577 -0.72935599 -200 45 -200 45 -200 45
1125431271.8786 -1.9310743 -0.71669638 -200 45 -200 45 -200 45
1126431388.5648 -1.9280274 -0.7301268 -200 45 -200 45 -200 45
1127431505.2509 -1.9215722 -0.76056862 -200 45 -200 45 -200 45
1128431621.937 -1.9155475 -0.75119501 -200 45 -200 45 -200 45
1129431738.6231 -1.919341 -0.76103997 -200 45 -200 45 -200 45
1130431855.3092 -1.9261832 -0.7521261 -200 45 -200 45 -200 45
1131431971.9953 -1.9326271 -0.72338635 -200 45 -200 45 -200 45
1132432088.6814 -1.9390911 -0.71826553 -200 45 -200 45 -200 45
1133432205.3676 -1.9383132 -0.71379322 -200 45 -200 45 -200 45
1134432322.0537 -1.9426048 -0.71986425 -200 45 -200 45 -200 45
1135432438.7398 -1.9511465 -0.71762347 -200 45 -200 45 -200 45
1136432555.4259 -1.9580053 -0.70129716 -200 45 -200 45 -200 45
1137432672.112 -1.9636263 -0.70282 -200 45 -200 45 -200 45
1138432788.7981 -1.970897 -0.69737327 -200 45 -200 45 -200 45
1139432905.4842 -1.9748293 -0.70753634 -200 45 -200 45 -200 45
1140433022.1704 -1.9845518 -0.69252658 -200 45 -200 45 -200 45
1141433138.8565 -1.9914174 -0.70272952 -200 45 -200 45 -200 45
1142433255.5426 -1.9949836 -0.70956945 -200 45 -200 45 -200 45
1143433372.2287 -1.9956704 -0.7308082 -200 45 -200 45 -200 45
1144433488.9148 -1.9986413 -0.7624799 -200 45 -200 45 -200 45
1145433605.6009 -2.0122719 -0.76460749 -200 45 -200 45 -200 45
1146433722.287 -2.0346463 -0.75828803 -200 45 -200 45 -200 45
1147433838.9732 -2.0603392 -0.71823788 -200 45 -200 45 -200 45
1148433955.6593 -2.0900397 -0.65066761 -200 45 -200 45 -200 45
1149434072.3454 -2.1230867 -0.53429484 -200 45 -200 45 -200 45
1150434189.0315 -2.1601338 -0.20575753 -200 45 -200 45 -200 45
1151434305.7176 -2.1683183 0.23905577 -200 45 -200 45 -200 45
1152434422.4037 -2.1449354 0.60457242 -200 45 -200 45 -200 45
1153434539.0898 -2.1112425 0.81934023 -200 45 -200 45 -200 45
1154434655.776 -2.0785129 0.90056705 -200 45 -200 45 -200 45
1155434772.4621 -2.0537269 1.0156894 -200 45 -200 45 -200 45
1156434889.1482 -2.0211391 1.1213633 -200 45 -200 45 -200 45
1157435005.8343 -1.9831898 1.0978967 -200 45 -200 45 -200 45
1158435122.5204 -1.958178 0.99604553 -200 45 -200 45 -200 45
1159435239.2065 -1.9373364 0.94959724 -200 45 -200 45 -200 45
1160435355.8926 -1.9013519 0.91137731 -200 45 -200 45 -200 45
1161435472.5788 -1.8751575 0.76539016 -200 45 -200 45 -200 45
1162435589.2649 -1.8720666 0.6082145 -200 45 -200 45 -200 45
1163435705.951 -1.8805811 0.52926105 -200 45 -200 45 -200 45
1164435822.6371 -1.8776429 0.48878783 -200 45 -200 45 -200 45
1165435939.3232 -1.8754269 0.38672152 -200 45 -200 45 -200 45
1166436056.0093 -1.8751271 0.30934665 -200 45 -200 45 -200 45
1167436172.6954 -1.8839216 0.25096002 -200 45 -200 45 -200 45
1168436289.3816 -1.8958882 0.21572979 -200 45 -200 45 -200 45
1169436406.0677 -1.9066659 0.19529815 -200 45 -200 45 -200 45
1170436522.7538 -1.9124957 0.19678164 -200 45 -200 45 -200 45
1171436639.4399 -1.9104123 0.22182798 -200 45 -200 45 -200 45
1172436756.126 -1.9116684 0.19504696 -200 45 -200 45 -200 45
1173436872.8121 -1.9168706 0.17500554 -200 45 -200 45 -200 45
1174436989.4982 -1.9163446 0.15367754 -200 45 -200 45 -200 45
1175437106.1844 -1.9142621 0.11664835 -200 45 -200 45 -200 45
1176437222.8705 -1.9067185 0.082267627 -200 45 -200 45 -200 45
1177437339.5566 -1.9047674 0.088655502 -200 45 -200 45 -200 45
1178437456.2427 -1.9087487 0.066973068 -200 45 -200 45 -200 45
1179437572.9288 -1.917784 0.075038761 -200 45 -200 45 -200 45
1180437689.6149 -1.9221678 0.077895291 -200 45 -200 45 -200 45
1181437806.3011 -1.9265563 0.077540316 -200 45 -200 45 -200 45
1182437922.9872 -1.9255391 0.068445392 -200 45 -200 45 -200 45
1183438039.6733 -1.9298877 0.063969649 -200 45 -200 45 -200 45
1184438156.3594 -1.9381142 0.090618677 -200 45 -200 45 -200 45
1185438273.0455 -1.9425437 0.11727116 -200 45 -200 45 -200 45
1186438389.7316 -1.9465935 0.097266234 -200 45 -200 45 -200 45
1187438506.4177 -1.9505781 0.10788926 -200 45 -200 45 -200 45
1188438623.1039 -1.9510601 0.11315374 -200 45 -200 45 -200 45
1189438739.79 -1.9560161 0.13020271 -200 45 -200 45 -200 45
1190438856.4761 -1.9589915 0.12324883 -200 45 -200 45 -200 45
1191438973.1622 -1.9548949 0.11344109 -200 45 -200 45 -200 45
1192439089.8483 -1.9479403 0.096247092 -200 45 -200 45 -200 45
1193439206.5344 -1.9438779 0.078713894 -200 45 -200 45 -200 45
1194439323.2205 -1.9454038 0.088599138 -200 45 -200 45 -200 45
1195439439.9067 -1.9524029 0.11799763 -200 45 -200 45 -200 45
1196439556.5928 -1.9572147 0.11390937 -200 45 -200 45 -200 45
1197439673.2789 -1.9611188 0.12642601 -200 45 -200 45 -200 45
1198439789.965 -1.9593753 0.12393289 -200 45 -200 45 -200 45
1199439906.6511 -1.9631231 0.14368868 -200 45 -200 45 -200 45
1200440023.3372 -1.9696542 0.15345614 -200 45 -200 45 -200 45
1201440140.0233 -1.9757346 0.15719073 -200 45 -200 45 -200 45
1202440256.7095 -1.9786268 0.17706592 -200 45 -200 45 -200 45
1203440373.3956 -1.981307 0.17659824 -200 45 -200 45 -200 45
1204440490.0817 -1.9844431 0.18369606 -200 45 -200 45 -200 45
1205440606.7678 -1.9890838 0.20052356 -200 45 -200 45 -200 45
1206440723.4539 -1.9913974 0.21678032 -200 45 -200 45 -200 45
1207440840.14 -1.9906096 0.206653 -200 45 -200 45 -200 45
1208440956.8261 -1.9839798 0.17684785 -200 45 -200 45 -200 45
1209441073.5123 -1.9783419 0.17145802 -200 45 -200 45 -200 45
1210441190.1984 -1.9816203 0.18552624 -200 45 -200 45 -200 45
1211441306.8845 -1.9897754 0.21858855 -200 45 -200 45 -200 45
1212441423.5706 -1.9977899 0.27046016 -200 45 -200 45 -200 45
1213441540.2567 -1.9977949 0.31508109 -200 45 -200 45 -200 45
1214441656.9428 -1.9972044 0.33395812 -200 45 -200 45 -200 45
1215441773.6289 -1.9956861 0.35545713 -200 45 -200 45 -200 45
1216441890.3151 -1.9975308 0.37286946 -200 45 -200 45 -200 45
1217442007.0012 -2.0002172 0.38383472 -200 45 -200 45 -200 45
1218442123.6873 -2.0037467 0.39464939 -200 45 -200 45 -200 45
1219442240.3734 -2.0029798 0.39789185 -200 45 -200 45 -200 45
1220442357.0595 -2.0033214 0.39871284 -200 45 -200 45 -200 45
1221442473.7456 -2.0066812 0.42138138 -200 45 -200 45 -200 45
1222442590.4317 -2.0078528 0.43168238 -200 45 -200 45 -200 45
1223442707.1179 -2.0074615 0.42700365 -200 45 -200 45 -200 45
1224442823.804 -1.9980036 0.40008989 -200 45 -200 45 -200 45
1225442940.4901 -1.9886189 0.3883639 -200 45 -200 45 -200 45
1226443057.1762 -1.9875861 0.37923756 -200 45 -200 45 -200 45
1227443173.8623 -1.9913073 0.38865417 -200 45 -200 45 -200 45
1228443290.5484 -1.999869 0.4037739 -200 45 -200 45 -200 45
1229443407.2345 -2.0026309 0.40898147 -200 45 -200 45 -200 45
1230443523.9207 -2.0030382 0.424611 -200 45 -200 45 -200 45
1231443640.6068 -2.0049255 0.42222217 -200 45 -200 45 -200 45
1232443757.2929 -2.0097866 0.43444607 -200 45 -200 45 -200 45
1233443873.979 -2.0128167 0.44852912 -200 45 -200 45 -200 45
1234443990.6651 -2.020067 0.4682337 -200 45 -200 45 -200 45
1235444107.3512 -2.0206051 0.46820879 -200 45 -200 45 -200 45
1236444224.0373 -2.0221527 0.4782365 -200 45 -200 45 -200 45
1237444340.7235 -2.0241082 0.48846531 -200 45 -200 45 -200 45
1238444457.4096 -2.0286474 0.51454258 -200 45 -200 45 -200 45
1239444574.0957 -2.0292692 0.50792289 -200 45 -200 45 -200 45
1240444690.7818 -2.0252507 0.50371224 -200 45 -200 45 -200 45
1241444807.4679 -2.0150621 0.48414522 -200 45 -200 45 -200 45
1242444924.154 -2.012912 0.48770261 -200 45 -200 45 -200 45
1243445040.8401 -2.0163636 0.50244755 -200 45 -200 45 -200 45
1244445157.5263 -2.0220063 0.528669 -200 45 -200 45 -200 45
1245445274.2124 -2.026036 0.5338456 -200 45 -200 45 -200 45
1246445390.8985 -2.0270684 0.54486179 -200 45 -200 45 -200 45
1247445507.5846 -2.0269074 0.53976685 -200 45 -200 45 -200 45
1248445624.2707 -2.032047 0.56852943 -200 45 -200 45 -200 45
1249445740.9568 -2.0355873 0.58500803 -200 45 -200 45 -200 45
1250445857.6429 -2.043304 0.6045385 -200 45 -200 45 -200 45
1251445974.3291 -2.0430467 0.61308259 -200 45 -200 45 -200 45
1252446091.0152 -2.0466373 0.61972129 -200 45 -200 45 -200 45
1253446207.7013 -2.0485299 0.64013672 -200 45 -200 45 -200 45
1254446324.3874 -2.0527117 0.65841132 -200 45 -200 45 -200 45
1255446441.0735 -2.0501091 0.65583372 -200 45 -200 45 -200 45
1256446557.7596 -2.0450811 0.64661682 -200 45 -200 45 -200 45
1257446674.4457 -2.037281 0.61657661 -200 45 -200 45 -200 45
1258446791.1319 -2.0358653 0.63762861 -200 45 -200 45 -200 45
1259446907.818 -2.0382292 0.65799159 -200 45 -200 45 -200 45
1260447024.5041 -2.0451956 0.68028337 -200 45 -200 45 -200 45
1261447141.1902 -2.048013 0.67913139 -200 45 -200 45 -200 45
1262447257.8763 -2.0487871 0.68434161 -200 45 -200 45 -200 45
1263447374.5624 -2.0486987 0.71281803 -200 45 -200 45 -200 45
1264447491.2485 -2.0555246 0.72244185 -200 45 -200 45 -200 45
1265447607.9347 -2.058362 0.73080719 -200 45 -200 45 -200 45
1266447724.6208 -2.0652578 0.75980002 -200 45 -200 45 -200 45
1267447841.3069 -2.0664425 0.76927102 -200 45 -200 45 -200 45
1268447957.993 -2.0675907 0.78834838 -200 45 -200 45 -200 45
1269448074.6791 -2.0700066 0.79120749 -200 45 -200 45 -200 45
1270448191.3652 -2.0725331 0.81563377 -200 45 -200 45 -200 45
1271448308.0513 -2.0722048 0.79579973 -200 45 -200 45 -200 45
1272448424.7375 -2.0676537 0.79832739 -200 45 -200 45 -200 45
1273448541.4236 -2.0591719 0.78561276 -200 45 -200 45 -200 45
1274448658.1097 -2.0563436 0.78457791 -200 45 -200 45 -200 45
1275448774.7958 -2.0583112 0.79891926 -200 45 -200 45 -200 45
1276448891.4819 -2.065397 0.82670438 -200 45 -200 45 -200 45
1277449008.168 -2.0677621 0.83548272 -200 45 -200 45 -200 45
1278449124.8541 -2.0708163 0.84299111 -200 45 -200 45 -200 45
1279449241.5403 -2.0682654 0.84401661 -200 45 -200 45 -200 45
1280449358.2264 -2.0759361 0.8810333 -200 45 -200 45 -200 45
1281449474.9125 -2.077431 0.87805706 -200 45 -200 45 -200 45
1282449591.5986 -2.0834894 0.90126556 -200 45 -200 45 -200 45
1283449708.2847 -2.084229 0.90565652 -200 45 -200 45 -200 45
1284449824.9708 -2.0871212 0.9267742 -200 45 -200 45 -200 45
1285449941.6569 -2.0892472 0.93022025 -200 45 -200 45 -200 45
1286450058.3431 -2.0935657 0.94114107 -200 45 -200 45 -200 45
1287450175.0292 -2.0938659 0.95811909 -200 45 -200 45 -200 45
1288450291.7153 -2.0890131 0.94264519 -200 45 -200 45 -200 45
1289450408.4014 -2.0813453 0.93933702 -200 45 -200 45 -200 45
1290450525.0875 -2.0774636 0.92806149 -200 45 -200 45 -200 45
1291450641.7736 -2.0796003 0.9408831 -200 45 -200 45 -200 45
1292450758.4597 -2.08441 0.9708578 -200 45 -200 45 -200 45
1293450875.1459 -2.0877872 0.98779124 -200 45 -200 45 -200 45
1294450991.832 -2.0907493 0.99512613 -200 45 -200 45 -200 45
1295451108.5181 -2.0903571 0.98710173 -200 45 -200 45 -200 45
1296451225.2042 -2.0945251 1.0100563 -200 45 -200 45 -200 45
1297451341.8903 -2.0987129 1.0287687 -200 45 -200 45 -200 45
1298451458.5764 -2.1029491 1.0429511 -200 45 -200 45 -200 45
1299451575.2625 -2.1052108 1.036261 -200 45 -200 45 -200 45
1300451691.9487 -2.1082785 1.0683135 -200 45 -200 45 -200 45
1301451808.6348 -2.1079035 1.0744867 -200 45 -200 45 -200 45
1302451925.3209 -2.1119108 1.0946299 -200 45 -200 45 -200 45
1303452042.007 -2.1129975 1.1057582 -200 45 -200 45 -200 45
1304452158.6931 -2.1093855 1.0885025 -200 45 -200 45 -200 45
1305452275.3792 -2.1008625 1.064276 -200 45 -200 45 -200 45
1306452392.0653 -2.0972865 1.0585651 -200 45 -200 45 -200 45
1307452508.7515 -2.099721 1.0881218 -200 45 -200 45 -200 45
1308452625.4376 -2.1034594 1.1067768 -200 45 -200 45 -200 45
1309452742.1237 -2.1092746 1.1168643 -200 45 -200 45 -200 45
1310452858.8098 -2.1102405 1.1276284 -200 45 -200 45 -200 45
1311452975.4959 -2.1089563 1.1247928 -200 45 -200 45 -200 45
1312453092.182 -2.1140366 1.1439158 -200 45 -200 45 -200 45
1313453208.8681 -2.118145 1.165639 -200 45 -200 45 -200 45
1314453325.5543 -2.1234913 1.1842158 -200 45 -200 45 -200 45
1315453442.2404 -2.1252222 1.1896429 -200 45 -200 45 -200 45
1316453558.9265 -2.1270034 1.2049301 -200 45 -200 45 -200 45
1317453675.6126 -2.1260648 1.2151831 -200 45 -200 45 -200 45
1318453792.2987 -2.1315229 1.2464978 -200 45 -200 45 -200 45
1319453908.9848 -2.1336031 1.2467768 -200 45 -200 45 -200 45
1320454025.6709 -2.1307693 1.2423558 -200 45 -200 45 -200 45
1321454142.3571 -2.1230025 1.2275387 -200 45 -200 45 -200 45
1322454259.0432 -2.1178131 1.2163763 -200 45 -200 45 -200 45
1323454375.7293 -2.1181056 1.2279561 -200 45 -200 45 -200 45
1324454492.4154 -2.1231997 1.2437857 -200 45 -200 45 -200 45
1325454609.1015 -2.1280191 1.2659897 -200 45 -200 45 -200 45
1326454725.7876 -2.1309731 1.2802359 -200 45 -200 45 -200 45
1327454842.4737 -2.1287699 1.2763408 -200 45 -200 45 -200 45
1328454959.1599 -2.1325417 1.2975055 -200 45 -200 45 -200 45
1329455075.846 -2.1377912 1.3205708 -200 45 -200 45 -200 45
1330455192.5321 -2.1411006 1.3364884 -200 45 -200 45 -200 45
1331455309.2182 -2.1447988 1.346658 -200 45 -200 45 -200 45
1332455425.9043 -2.1463745 1.3594875 -200 45 -200 45 -200 45
1333455542.5904 -2.1470151 1.3621248 -200 45 -200 45 -200 45
1334455659.2765 -2.1508126 1.3922886 -200 45 -200 45 -200 45
1335455775.9627 -2.1525965 1.3966452 -200 45 -200 45 -200 45
1336455892.6488 -2.148792 1.3862796 -200 45 -200 45 -200 45
1337456009.3349 -2.1428068 1.3820466 -200 45 -200 45 -200 45
1338456126.021 -2.134999 1.370321 -200 45 -200 45 -200 45
1339456242.7071 -2.1382365 1.3682703 -200 45 -200 45 -200 45
1340456359.3932 -2.140671 1.4003159 -200 45 -200 45 -200 45
1341456476.0793 -2.1476476 1.4191802 -200 45 -200 45 -200 45
1342456592.7655 -2.1483476 1.4218969 -200 45 -200 45 -200 45
1343456709.4516 -2.1489632 1.4343005 -200 45 -200 45 -200 45
1344456826.1377 -2.1513147 1.4448961 -200 45 -200 45 -200 45
1345456942.8238 -2.1551051 1.4682455 -200 45 -200 45 -200 45
1346457059.5099 -2.1610951 1.480846 -200 45 -200 45 -200 45
1347457176.196 -2.1656101 1.4893334 -200 45 -200 45 -200 45
1348457292.8821 -2.1647463 1.5042372 -200 45 -200 45 -200 45
1349457409.5683 -2.166328 1.5106641 -200 45 -200 45 -200 45
1350457526.2544 -2.1696405 1.5299103 -200 45 -200 45 -200 45
1351457642.9405 -2.1734219 1.5497286 -200 45 -200 45 -200 45
1352457759.6266 -2.1687999 1.5421902 -200 45 -200 45 -200 45
1353457876.3127 -2.1622756 1.5289223 -200 45 -200 45 -200 45
1354457992.9988 -2.154376 1.515985 -200 45 -200 45 -200 45
1355458109.6849 -2.1574461 1.5299751 -200 45 -200 45 -200 45
1356458226.3711 -2.1605453 1.5610206 -200 45 -200 45 -200 45
1357458343.0572 -2.1665883 1.5713296 -200 45 -200 45 -200 45
1358458459.7433 -2.1680248 1.579432 -200 45 -200 45 -200 45
1359458576.4294 -2.1664615 1.5812521 -200 45 -200 45 -200 45
1360458693.1155 -2.1704705 1.6071484 -200 45 -200 45 -200 45
1361458809.8016 -2.1748803 1.6245997 -200 45 -200 45 -200 45
1362458926.4877 -2.1784658 1.6377743 -200 45 -200 45 -200 45
1363459043.1739 -2.1834629 1.6548074 -200 45 -200 45 -200 45
1364459159.86 -2.1851039 1.6589844 -200 45 -200 45 -200 45
1365459276.5461 -2.1848483 1.6701143 -200 45 -200 45 -200 45
1366459393.2322 -2.1888649 1.689798 -200 45 -200 45 -200 45
1367459509.9183 -2.1905274 1.7084025 -200 45 -200 45 -200 45
1368459626.6044 -2.1887681 1.7202421 -200 45 -200 45 -200 45
1369459743.2905 -2.1816139 1.7033076 -200 45 -200 45 -200 45
1370459859.9767 -2.1754203 1.6847966 -200 45 -200 45 -200 45
1371459976.6628 -2.1756587 1.6988353 -200 45 -200 45 -200 45
1372460093.3489 -2.1772323 1.7142171 -200 45 -200 45 -200 45
1373460210.035 -2.1841912 1.7304196 -200 45 -200 45 -200 45
1374460326.7211 -2.1871111 1.7423033 -200 45 -200 45 -200 45
1375460443.4072 -2.1866574 1.750103 -200 45 -200 45 -200 45
1376460560.0933 -2.1881742 1.7688702 -200 45 -200 45 -200 45
1377460676.7795 -2.1932585 1.7868481 -200 45 -200 45 -200 45
1378460793.4656 -2.1987219 1.7984471 -200 45 -200 45 -200 45
1379460910.1517 -2.2015858 1.8063419 -200 45 -200 45 -200 45
1380461026.8378 -2.200737 1.8317833 -200 45 -200 45 -200 45
1381461143.5239 -2.2038381 1.8422468 -200 45 -200 45 -200 45
1382461260.21 -2.2070742 1.8583105 -200 45 -200 45 -200 45
1383461376.8961 -2.2085481 1.86982 -200 45 -200 45 -200 45
1384461493.5823 -2.2077351 1.8739406 -200 45 -200 45 -200 45
1385461610.2684 -2.2029438 1.8529639 -200 45 -200 45 -200 45
1386461726.9545 -2.1956716 1.840812 -200 45 -200 45 -200 45
1387461843.6406 -2.1942053 1.8486829 -200 45 -200 45 -200 45
1388461960.3267 -2.197185 1.8733436 -200 45 -200 45 -200 45
1389462077.0128 -2.2040627 1.8970659 -200 45 -200 45 -200 45
1390462193.6989 -2.2049568 1.9079307 -200 45 -200 45 -200 45
1391462310.3851 -2.2050045 1.9171203 -200 45 -200 45 -200 45
1392462427.0712 -2.2064085 1.9361471 -200 45 -200 45 -200 45
1393462543.7573 -2.2104366 1.9466368 -200 45 -200 45 -200 45
1394462660.4434 -2.2143435 1.96429 -200 45 -200 45 -200 45
1395462777.1295 -2.2202203 1.9795951 -200 45 -200 45 -200 45
1396462893.8156 -2.2213309 1.9848391 -200 45 -200 45 -200 45
1397463010.5018 -2.2215593 1.999154 -200 45 -200 45 -200 45
1398463127.1879 -2.224761 2.018141 -200 45 -200 45 -200 45
1399463243.874 -2.2260778 2.0343866 -200 45 -200 45 -200 45
1400463360.5601 -2.2277467 2.0464013 -200 45 -200 45 -200 45
1401463477.2462 -2.219651 2.0241077 -200 45 -200 45 -200 45
1402463593.9323 -2.2130365 2.0113547 -200 45 -200 45 -200 45
1403463710.6184 -2.2121916 2.019696 -200 45 -200 45 -200 45
1404463827.3046 -2.2146897 2.0132372 -200 45 -200 45 -200 45
1405463943.9907 -2.22194 2.0419567 -200 45 -200 45 -200 45
1406464060.6768 -2.2239881 2.06429 -200 45 -200 45 -200 45
1407464177.3629 -2.2245631 2.0694728 -200 45 -200 45 -200 45
1408464294.049 -2.2238266 2.0775414 -200 45 -200 45 -200 45
1409464410.7351 -2.2289398 2.0998769 -200 45 -200 45 -200 45
1410464527.4212 -2.2307858 2.1202402 -200 45 -200 45 -200 45
1411464644.1074 -2.2380528 2.1332936 -200 45 -200 45 -200 45
1412464760.7935 -2.2371337 2.1379514 -200 45 -200 45 -200 45
1413464877.4796 -2.241226 2.1489584 -200 45 -200 45 -200 45
1414464994.1657 -2.2415168 2.1698289 -200 45 -200 45 -200 45
1415465110.8518 -2.2452981 2.1806543 -200 45 -200 45 -200 45
1416465227.5379 -2.2443058 2.1950946 -200 45 -200 45 -200 45
1417465344.224 -2.23826 2.1841316 -200 45 -200 45 -200 45
1418465460.9102 -2.2329206 2.168952 -200 45 -200 45 -200 45
1419465577.5963 -2.2290132 2.1631722 -200 45 -200 45 -200 45
1420465694.2824 -2.2336397 2.1674132 -200 45 -200 45 -200 45
1421465810.9685 -2.2379723 2.1989903 -200 45 -200 45 -200 45
1422465927.6546 -2.2415416 2.2206016 -200 45 -200 45 -200 45
1423466044.3407 -2.2425337 2.2250853 -200 45 -200 45 -200 45
1424466161.0268 -2.2426765 2.2340703 -200 45 -200 45 -200 45
1425466277.713 -2.2462344 2.2557991 -200 45 -200 45 -200 45
1426466394.3991 -2.2508042 2.2742326 -200 45 -200 45 -200 45
1427466511.0852 -2.2569563 2.2989197 -200 45 -200 45 -200 45
1428466627.7713 -2.2563932 2.297617 -200 45 -200 45 -200 45
1429466744.4574 -2.2578945 2.3089879 -200 45 -200 45 -200 45
1430466861.1435 -2.2597635 2.3253994 -200 45 -200 45 -200 45
1431466977.8296 -2.2633848 2.3523555 -200 45 -200 45 -200 45
1432467094.5158 -2.2624581 2.3575387 -200 45 -200 45 -200 45
1433467211.2019 -2.2585692 2.3432469 -200 45 -200 45 -200 45
1434467327.888 -2.2501578 2.3279042 -200 45 -200 45 -200 45
1435467444.5741 -2.2488065 2.322494 -200 45 -200 45 -200 45
1436467561.2602 -2.2497754 2.3315501 -200 45 -200 45 -200 45
1437467677.9463 -2.2551599 2.3554742 -200 45 -200 45 -200 45
1438467794.6324 -2.2582567 2.3681529 -200 45 -200 45 -200 45
1439467911.3186 -2.2599986 2.3881986 -200 45 -200 45 -200 45
1440468028.0047 -2.2594137 2.3927772 -200 45 -200 45 -200 45
1441468144.6908 -2.2642503 2.4089718 -200 45 -200 45 -200 45
1442468261.3769 -2.2684331 2.4286869 -200 45 -200 45 -200 45
1443468378.063 -2.2719917 2.4542058 -200 45 -200 45 -200 45
1444468494.7491 -2.2747943 2.4490707 -200 45 -200 45 -200 45
1445468611.4352 -2.2762752 2.4585731 -200 45 -200 45 -200 45
1446468728.1214 -2.2762613 2.4751728 -200 45 -200 45 -200 45
1447468844.8075 -2.2799857 2.4951923 -200 45 -200 45 -200 45
1448468961.4936 -2.2805357 2.5014007 -200 45 -200 45 -200 45
1449469078.1797 -2.2768624 2.4899786 -200 45 -200 45 -200 45
1450469194.8658 -2.2680852 2.483098 -200 45 -200 45 -200 45
1451469311.5519 -2.263952 2.4809568 -200 45 -200 45 -200 45
1452469428.238 -2.2679002 2.4979081 -200 45 -200 45 -200 45
1453469544.9242 -2.2724457 2.5194333 -200 45 -200 45 -200 45
1454469661.6103 -2.2769582 2.5235953 -200 45 -200 45 -200 45
1455469778.2964 -2.2765775 2.5274231 -200 45 -200 45 -200 45
1456469894.9825 -2.2760172 2.5401285 -200 45 -200 45 -200 45
1457470011.6686 -2.279808 2.5563877 -200 45 -200 45 -200 45
1458470128.3547 -2.2839384 2.5901165 -200 45 -200 45 -200 45
1459470245.0408 -2.2892418 2.6019533 -200 45 -200 45 -200 45
1460470361.727 -2.2920663 2.5987232 -200 45 -200 45 -200 45
1461470478.4131 -2.2923696 2.6176133 -200 45 -200 45 -200 45
1462470595.0992 -2.2952893 2.6437118 -200 45 -200 45 -200 45
1463470711.7853 -2.2989368 2.659833 -200 45 -200 45 -200 45
1464470828.4714 -2.3003025 2.6575742 -200 45 -200 45 -200 45
1465470945.1575 -2.2948883 2.6554291 -200 45 -200 45 -200 45
1466471061.8436 -2.2871838 2.6443896 -200 45 -200 45 -200 45
1467471178.5298 -2.2827027 2.6320777 -200 45 -200 45 -200 45
1468471295.2159 -2.2843997 2.6482065 -200 45 -200 45 -200 45
1469471411.902 -2.28899 2.6676149 -200 45 -200 45 -200 45
1470471528.5881 -2.2925608 2.6907675 -200 45 -200 45 -200 45
1471471645.2742 -2.2943268 2.6941268 -200 45 -200 45 -200 45
1472471761.9603 -2.2945313 2.7045648 -200 45 -200 45 -200 45
1473471878.6464 -2.2961266 2.7290616 -200 45 -200 45 -200 45
1474471995.3326 -2.3004599 2.7513463 -200 45 -200 45 -200 45
1475472112.0187 -2.3058398 2.7672865 -200 45 -200 45 -200 45
1476472228.7048 -2.307718 2.77478 -200 45 -200 45 -200 45
1477472345.3909 -2.3093953 2.7828491 -200 45 -200 45 -200 45
1478472462.077 -2.3121052 2.8095751 -200 45 -200 45 -200 45
1479472578.7631 -2.3146832 2.8136764 -200 45 -200 45 -200 45
1480472695.4492 -2.3148105 2.8289764 -200 45 -200 45 -200 45
1481472812.1354 -2.3113034 2.8284299 -200 45 -200 45 -200 45
1482472928.8215 -2.3053441 2.8053243 -200 45 -200 45 -200 45
1483473045.5076 -2.2995605 2.8006699 -200 45 -200 45 -200 45
1484473162.1937 -2.3010099 2.8132744 -200 45 -200 45 -200 45
1485473278.8798 -2.3058288 2.8308198 -200 45 -200 45 -200 45
1486473395.5659 -2.3106048 2.8523364 -200 45 -200 45 -200 45
1487473512.252 -2.3120048 2.8614867 -200 45 -200 45 -200 45
1488473628.9382 -2.31059 2.8737698 -200 45 -200 45 -200 45
1489473745.6243 -2.3134835 2.8861711 -200 45 -200 45 -200 45
1490473862.3104 -2.3179493 2.9102325 -200 45 -200 45 -200 45
1491473978.9965 -2.3209808 2.9175589 -200 45 -200 45 -200 45
1492474095.6826 -2.3254583 2.9393599 -200 45 -200 45 -200 45
1493474212.3687 -2.3262491 2.9465067 -200 45 -200 45 -200 45
1494474329.0548 -2.3283124 2.9568086 -200 45 -200 45 -200 45
1495474445.741 -2.3299994 2.9777594 -200 45 -200 45 -200 45
1496474562.4271 -2.3329129 3.0009832 -200 45 -200 45 -200 45
1497474679.1132 -2.3297157 2.9927518 -200 45 -200 45 -200 45
1498474795.7993 -2.323667 2.9797182 -200 45 -200 45 -200 45
1499474912.4854 -2.3162091 2.9677961 -200 45 -200 45 -200 45
1500475029.1715 -2.3175998 2.9825459 -200 45 -200 45 -200 45
1501475145.8576 -2.3204818 2.9916685 -200 45 -200 45 -200 45
1502475262.5438 -2.3274407 3.0163481 -200 45 -200 45 -200 45
1503475379.2299 -2.328815 3.0291359 -200 45 -200 45 -200 45
1504475495.916 -2.3278265 3.0201576 -200 45 -200 45 -200 45
1505475612.6021 -2.3285618 3.0470002 -200 45 -200 45 -200 45
1506475729.2882 -2.3346913 3.0775244 -200 45 -200 45 -200 45
1507475845.9743 -2.3387878 3.0966828 -200 45 -200 45 -200 45
1508475962.6604 -2.3427501 3.1012058 -200 45 -200 45 -200 45
1509476079.3466 -2.3430755 3.115432 -200 45 -200 45 -200 45
1510476196.0327 -2.3441825 3.122273 -200 45 -200 45 -200 45
1511476312.7188 -2.3468297 3.1424487 -200 45 -200 45 -200 45
1512476429.4049 -2.3503096 3.1617618 -200 45 -200 45 -200 45
1513476546.091 -2.3470683 3.1619408 -200 45 -200 45 -200 45
1514476662.7771 -2.3417437 3.1375947 -200 45 -200 45 -200 45
1515476779.4632 -2.3336072 3.1298602 -200 45 -200 45 -200 45
1516476896.1494 -2.3345745 3.1384094 -200 45 -200 45 -200 45
1517477012.8355 -2.33795 3.1563342 -200 45 -200 45 -200 45
1518477129.5216 -2.3441918 3.1850429 -200 45 -200 45 -200 45
1519477246.2077 -2.3450179 3.1862605 -200 45 -200 45 -200 45
1520477362.8938 -2.344902 3.1912315 -200 45 -200 45 -200 45
1521477479.5799 -2.3454156 3.2128654 -200 45 -200 45 -200 45
1522477596.266 -2.3515093 3.2347646 -200 45 -200 45 -200 45
1523477712.9522 -2.3558674 3.2467868 -200 45 -200 45 -200 45
1524477829.6383 -2.3595271 3.2657595 -200 45 -200 45 -200 45
1525477946.3244 -2.3595841 3.2735081 -200 45 -200 45 -200 45
1526478063.0105 -2.3635459 3.2956975 -200 45 -200 45 -200 45
1527478179.6966 -2.3626976 3.3097906 -200 45 -200 45 -200 45
1528478296.3827 -2.3671691 3.3302824 -200 45 -200 45 -200 45
1529478413.0688 -2.36444 3.3269603 -200 45 -200 45 -200 45
1530478529.755 -2.3590384 3.3130472 -200 45 -200 45 -200 45
1531478646.4411 -2.3519568 3.2999825 -200 45 -200 45 -200 45
1532478763.1272 -2.3516161 3.2936239 -200 45 -200 45 -200 45
1533478879.8133 -2.3551662 3.3262203 -200 45 -200 45 -200 45
1534478996.4994 -2.359885 3.3423336 -200 45 -200 45 -200 45
1535479113.1855 -2.3610878 3.3616347 -200 45 -200 45 -200 45
1536479229.8716 -2.3631911 3.360348 -200 45 -200 45 -200 45
1537479346.5578 -2.3624046 3.3690679 -200 45 -200 45 -200 45
1538479463.2439 -2.3675125 3.4002347 -200 45 -200 45 -200 45
1539479579.93 -2.3711023 3.4093413 -200 45 -200 45 -200 45
1540479696.6161 -2.3768833 3.4288554 -200 45 -200 45 -200 45
1541479813.3022 -2.3764582 3.4391503 -200 45 -200 45 -200 45
1542479929.9883 -2.3777421 3.4548388 -200 45 -200 45 -200 45
1543480046.6744 -2.3817616 3.4754303 -200 45 -200 45 -200 45
1544480163.3606 -2.381676 3.4921672 -200 45 -200 45 -200 45
1545480280.0467 -2.3820662 3.4862309 -200 45 -200 45 -200 45
1546480396.7328 -2.3786533 3.473012 -200 45 -200 45 -200 45
1547480513.4189 -2.3708737 3.454128 -200 45 -200 45 -200 45
1548480630.105 -2.3679993 3.4609137 -200 45 -200 45 -200 45
1549480746.7911 -2.3702722 3.4863803 -200 45 -200 45 -200 45
1550480863.4772 -2.3753202 3.5105221 -200 45 -200 45 -200 45
1551480980.1634 -2.3785181 3.514874 -200 45 -200 45 -200 45
1552481096.8495 -2.379602 3.5262883 -200 45 -200 45 -200 45
1553481213.5356 -2.3775518 3.5194783 -200 45 -200 45 -200 45
1554481330.2217 -2.3845704 3.5574267 -200 45 -200 45 -200 45
1555481446.9078 -2.3881366 3.5685046 -200 45 -200 45 -200 45
1556481563.5939 -2.3919103 3.602865 -200 45 -200 45 -200 45
1557481680.28 -2.3942976 3.6000071 -200 45 -200 45 -200 45
1558481796.9662 -2.3936148 3.6145852 -200 45 -200 45 -200 45
1559481913.6523 -2.3971517 3.6258268 -200 45 -200 45 -200 45
1560482030.3384 -2.4000514 3.6554365 -200 45 -200 45 -200 45
1561482147.0245 -2.3982568 3.6499448 -200 45 -200 45 -200 45
1562482263.7106 -2.3949783 3.6406126 -200 45 -200 45 -200 45
1563482380.3967 -2.3882389 3.6146603 -200 45 -200 45 -200 45
1564482497.0828 -2.3857539 3.6253331 -200 45 -200 45 -200 45
1565482613.769 -2.3883457 3.631922 -200 45 -200 45 -200 45
1566482730.4551 -2.3913572 3.6609404 -200 45 -200 45 -200 45
1567482847.1412 -2.3935981 3.6771281 -200 45 -200 45 -200 45
1568482963.8273 -2.3967772 3.6812854 -200 45 -200 45 -200 45
1569483080.5134 -2.3954909 3.6929028 -200 45 -200 45 -200 45
1570483197.1995 -2.4006383 3.7105412 -200 45 -200 45 -200 45
1571483313.8856 -2.4040596 3.7325754 -200 45 -200 45 -200 45
1572483430.5718 -2.4079881 3.7427776 -200 45 -200 45 -200 45
1573483547.2579 -2.4096708 3.7514877 -200 45 -200 45 -200 45
1574483663.944 -2.4111581 3.7705138 -200 45 -200 45 -200 45
1575483780.6301 -2.4113655 3.7906885 -200 45 -200 45 -200 45
1576483897.3162 -2.4148316 3.8087726 -200 45 -200 45 -200 45
1577484014.0023 -2.4151278 3.8197415 -200 45 -200 45 -200 45
1578484130.6884 -2.4128537 3.8045807 -200 45 -200 45 -200 45
1579484247.3746 -2.4045265 3.786545 -200 45 -200 45 -200 45
1580484364.0607 -2.4018466 3.7817447 -200 45 -200 45 -200 45
1581484480.7468 -2.4026182 3.7918346 -200 45 -200 45 -200 45
1582484597.4329 -2.4078827 3.827508 -200 45 -200 45 -200 45
1583484714.119 -2.4105604 3.8360827 -200 45 -200 45 -200 45
1584484830.8051 -2.4126835 3.8510256 -200 45 -200 45 -200 45
1585484947.4912 -2.4115477 3.8524189 -200 45 -200 45 -200 45
1586485064.1774 -2.4141576 3.8705945 -200 45 -200 45 -200 45
1587485180.8635 -2.4181755 3.891619 -200 45 -200 45 -200 45
1588485297.5496 -2.4235711 3.9118347 -200 45 -200 45 -200 45
1589485414.2357 -2.4259639 3.9296784 -200 45 -200 45 -200 45
1590485530.9218 -2.4270315 3.9450598 -200 45 -200 45 -200 45
1591485647.6079 -2.4273176 3.9503031 -200 45 -200 45 -200 45
1592485764.294 -2.4298077 3.9770007 -200 45 -200 45 -200 45
1593485880.9802 -2.4299335 3.9741046 -200 45 -200 45 -200 45
1594485997.6663 -2.426981 3.9770391 -200 45 -200 45 -200 45
1595486114.3524 -2.4195108 3.9625378 -200 45 -200 45 -200 45
1596486231.0385 -2.4162116 3.9463067 -200 45 -200 45 -200 45
1597486347.7246 -2.4191887 3.9649193 -200 45 -200 45 -200 45
1598486464.4107 -2.4218369 3.9907634 -200 45 -200 45 -200 45
1599486581.0968 -2.4263287 4.0159488 -200 45 -200 45 -200 45
1600486697.783 -2.4270213 4.0242352 -200 45 -200 45 -200 45
1601486814.4691 -2.426116 4.0331836 -200 45 -200 45 -200 45
1602486931.1552 -2.4293656 4.0401998 -200 45 -200 45 -200 45
1603487047.8413 -2.4324117 4.0685811 -200 45 -200 45 -200 45
1604487164.5274 -2.4387226 4.0887389 -200 45 -200 45 -200 45
1605487281.2135 -2.4394155 4.1010051 -200 45 -200 45 -200 45
1606487397.8997 -2.4427018 4.1057601 -200 45 -200 45 -200 45
1607487514.5858 -2.4419501 4.1313648 -200 45 -200 45 -200 45
1608487631.2719 -2.4438486 4.1374664 -200 45 -200 45 -200 45
1609487747.958 -2.4463494 4.1559925 -200 45 -200 45 -200 45
1610487864.6441 -2.4426973 4.1498923 -200 45 -200 45 -200 45
1611487981.3302 -2.4382052 4.1287155 -200 45 -200 45 -200 45
1612488098.0163 -2.431489 4.1193986 -200 45 -200 45 -200 45
1613488214.7025 -2.4351861 4.1373525 -200 45 -200 45 -200 45
1614488331.3886 -2.4384658 4.1563621 -200 45 -200 45 -200 45
1615488448.0747 -2.4400623 4.1861634 -200 45 -200 45 -200 45
1616488564.7608 -2.4437895 4.208724 -200 45 -200 45 -200 45
1617488681.4469 -2.4413011 4.2062602 -200 45 -200 45 -200 45
1618488798.133 -2.4458244 4.2204518 -200 45 -200 45 -200 45
1619488914.8191 -2.4488399 4.2372785 -200 45 -200 45 -200 45
1620489031.5053 -2.4530332 4.2586174 -200 45 -200 45 -200 45
1621489148.1914 -2.4544284 4.2728782 -200 45 -200 45 -200 45
1622489264.8775 -2.4570954 4.2809091 -200 45 -200 45 -200 45
1623489381.5636 -2.4570251 4.2940454 -200 45 -200 45 -200 45
1624489498.2497 -2.4601157 4.3158312 -200 45 -200 45 -200 45
1625489614.9358 -2.4615431 4.3312635 -200 45 -200 45 -200 45
1626489731.6219 -2.4601817 4.3273172 -200 45 -200 45 -200 45
1627489848.3081 -2.4536717 4.2993999 -200 45 -200 45 -200 45
1628489964.9942 -2.4481289 4.2969365 -200 45 -200 45 -200 45
1629490081.6803 -2.4473217 4.3074546 -200 45 -200 45 -200 45
1630490198.3664 -2.452862 4.3420448 -200 45 -200 45 -200 45
1631490315.0525 -2.4574983 4.3600483 -200 45 -200 45 -200 45
1632490431.7386 -2.457216 4.3685026 -200 45 -200 45 -200 45
1633490548.4247 -2.455991 4.3677034 -200 45 -200 45 -200 45
1634490665.1109 -2.4581561 4.3893147 -200 45 -200 45 -200 45
1635490781.797 -2.4650137 4.4101639 -200 45 -200 45 -200 45
1636490898.4831 -2.4696753 4.4332948 -200 45 -200 45 -200 45
1637491015.1692 -2.4703724 4.4372177 -200 45 -200 45 -200 45
1638491131.8553 -2.4735365 4.4557395 -200 45 -200 45 -200 45
1639491248.5414 -2.4733667 4.4592319 -200 45 -200 45 -200 45
1640491365.2275 -2.4762223 4.4869933 -200 45 -200 45 -200 45
1641491481.9137 -2.477566 4.4966245 -200 45 -200 45 -200 45
1642491598.5998 -2.4749556 4.4913301 -200 45 -200 45 -200 45
1643491715.2859 -2.4695387 4.475769 -200 45 -200 45 -200 45
1644491831.972 -2.4644873 4.4587927 -200 45 -200 45 -200 45
1645491948.6581 -2.4641898 4.4626818 -200 45 -200 45 -200 45
1646492065.3442 -2.4681969 4.4987664 -200 45 -200 45 -200 45
1647492182.0303 -2.4723833 4.5213571 -200 45 -200 45 -200 45
1648492298.7165 -2.4746389 4.5388155 -200 45 -200 45 -200 45
1649492415.4026 -2.4729111 4.5392723 -200 45 -200 45 -200 45
1650492532.0887 -2.4750023 4.5487051 -200 45 -200 45 -200 45
1651492648.7748 -2.4793246 4.5617905 -200 45 -200 45 -200 45
1652492765.4609 -2.4839876 4.5916896 -200 45 -200 45 -200 45
1653492882.147 -2.4864099 4.6009884 -200 45 -200 45 -200 45
1654492998.8331 -2.4880025 4.6130924 -200 45 -200 45 -200 45
1655493115.5193 -2.4893813 4.6204195 -200 45 -200 45 -200 45
1656493232.2054 -2.4920325 4.6455593 -200 45 -200 45 -200 45
1657493348.8915 -2.4932573 4.6677308 -200 45 -200 45 -200 45
1658493465.5776 -2.4920096 4.6568689 -200 45 -200 45 -200 45
1659493582.2637 -2.4860892 4.6453171 -200 45 -200 45 -200 45
1660493698.9498 -2.4803495 4.6126776 -200 45 -200 45 -200 45
1661493815.6359 -2.4795821 4.6386652 -200 45 -200 45 -200 45
1662493932.3221 -2.4826317 4.658917 -200 45 -200 45 -200 45
1663494049.0082 -2.4890928 4.6798015 -200 45 -200 45 -200 45
1664494165.6943 -2.4901867 4.6856046 -200 45 -200 45 -200 45
1665494282.3804 -2.4892902 4.6903067 -200 45 -200 45 -200 45
1666494399.0665 -2.4897239 4.7106552 -200 45 -200 45 -200 45
1667494515.7526 -2.4935541 4.7320113 -200 45 -200 45 -200 45
1668494632.4387 -2.4988511 4.7526469 -200 45 -200 45 -200 45
1669494749.1249 -2.5031073 4.7656927 -200 45 -200 45 -200 45
1670494865.811 -2.5027242 4.7715893 -200 45 -200 45 -200 45
1671494982.4971 -2.502584 4.7875004 -200 45 -200 45 -200 45
1672495099.1832 -2.5068891 4.8017097 -200 45 -200 45 -200 45
1673495215.8693 -2.5095217 4.8291464 -200 45 -200 45 -200 45
1674495332.5554 -2.5060246 4.8208022 -200 45 -200 45 -200 45
1675495449.2415 -2.5011652 4.8052359 -200 45 -200 45 -200 45
1676495565.9277 -2.4949338 4.7889395 -200 45 -200 45 -200 45
1677495682.6138 -2.4949591 4.7991056 -200 45 -200 45 -200 45
1678495799.2999 -2.4976225 4.8148484 -200 45 -200 45 -200 45
1679495915.986 -2.5038559 4.8378363 -200 45 -200 45 -200 45
1680496032.6721 -2.5052807 4.8540163 -200 45 -200 45 -200 45
1681496149.3582 -2.5038173 4.8640838 -200 45 -200 45 -200 45
1682496266.0443 -2.5042582 4.8741112 -200 45 -200 45 -200 45
1683496382.7305 -2.5083923 4.8966608 -200 45 -200 45 -200 45
1684496499.4166 -2.5119364 4.902688 -200 45 -200 45 -200 45
1685496616.1027 -2.5179925 4.9225731 -200 45 -200 45 -200 45
1686496732.7888 -2.5178738 4.9383955 -200 45 -200 45 -200 45
1687496849.4749 -2.5194924 4.9541354 -200 45 -200 45 -200 45
1688496966.161 -2.5213633 4.9744058 -200 45 -200 45 -200 45
1689497082.8471 -2.524441 4.9869142 -200 45 -200 45 -200 45
1690497199.5333 -2.5223575 4.9940414 -200 45 -200 45 -200 45
1691497316.2194 -2.5176477 4.9742875 -200 45 -200 45 -200 45
1692497432.9055 -2.5108361 4.9570708 -200 45 -200 45 -200 45
1693497549.5916 -2.5113845 4.9543018 -200 45 -200 45 -200 45
1694497666.2777 -2.5114901 4.9797845 -200 45 -200 45 -200 45
1695497782.9638 -2.5186265 5.0004926 -200 45 -200 45 -200 45
1696497899.6499 -2.5195446 5.0156436 -200 45 -200 45 -200 45
1697498016.3361 -2.5205107 5.0193257 -200 45 -200 45 -200 45
1698498133.0222 -2.518337 5.0361743 -200 45 -200 45 -200 45
1699498249.7083 -2.5225081 5.0564871 -200 45 -200 45 -200 45
1700498366.3944 -2.5271962 5.0736828 -200 45 -200 45 -200 45
1701498483.0805 -2.5316565 5.0886116 -200 45 -200 45 -200 45
1702498599.7666 -2.532156 5.1077461 -200 45 -200 45 -200 45
1703498716.4527 -2.5335832 5.1171803 -200 45 -200 45 -200 45
1704498833.1389 -2.5339937 5.1207452 -200 45 -200 45 -200 45
1705498949.825 -2.5388055 5.1461849 -200 45 -200 45 -200 45
1706499066.5111 -2.5376108 5.1519637 -200 45 -200 45 -200 45
1707499183.1972 -2.533313 5.1468143 -200 45 -200 45 -200 45
1708499299.8833 -2.5263662 5.1144075 -200 45 -200 45 -200 45
1709499416.5694 -2.5251431 5.1248522 -200 45 -200 45 -200 45
1710499533.2555 -2.5275459 5.1493406 -200 45 -200 45 -200 45
1711499649.9417 -2.5307639 5.1795917 -200 45 -200 45 -200 45
1712499766.6278 -2.5336754 5.177072 -200 45 -200 45 -200 45
1713499883.3139 -2.5340044 5.2018242 -200 45 -200 45 -200 45
1714500000 -2.5344081 5.1923466 -200 45 -200 45 -200 45
1715500116.6861 -2.5377779 5.2293572 -200 45 -200 45 -200 45
1716500233.3722 -2.5417595 5.2467933 -200 45 -200 45 -200 45
1717500350.0583 -2.5449393 5.2587309 -200 45 -200 45 -200 45
1718500466.7445 -2.547205 5.2807875 -200 45 -200 45 -200 45
1719500583.4306 -2.5484285 5.2882271 -200 45 -200 45 -200 45
1720500700.1167 -2.5491693 5.3018265 -200 45 -200 45 -200 45
1721500816.8028 -2.5532663 5.3295946 -200 45 -200 45 -200 45
1722500933.4889 -2.5526619 5.3347492 -200 45 -200 45 -200 45
1723501050.175 -2.5483224 5.3253617 -200 45 -200 45 -200 45
1724501166.8611 -2.543375 5.2981281 -200 45 -200 45 -200 45
1725501283.5473 -2.5393863 5.2926731 -200 45 -200 45 -200 45
1726501400.2334 -2.5415092 5.310154 -200 45 -200 45 -200 45
1727501516.9195 -2.5459096 5.3367281 -200 45 -200 45 -200 45
1728501633.6056 -2.5469639 5.362154 -200 45 -200 45 -200 45
1729501750.2917 -2.5503273 5.3702588 -200 45 -200 45 -200 45
1730501866.9778 -2.5488658 5.363102 -200 45 -200 45 -200 45
1731501983.6639 -2.5511708 5.4021997 -200 45 -200 45 -200 45
1732502100.3501 -2.5556698 5.4039412 -200 45 -200 45 -200 45
1733502217.0362 -2.5602112 5.4409661 -200 45 -200 45 -200 45
1734502333.7223 -2.5631027 5.4383759 -200 45 -200 45 -200 45
1735502450.4084 -2.5631652 5.4600062 -200 45 -200 45 -200 45
1736502567.0945 -2.5636754 5.4715619 -200 45 -200 45 -200 45
1737502683.7806 -2.5667446 5.4987783 -200 45 -200 45 -200 45
1738502800.4667 -2.5677917 5.5008655 -200 45 -200 45 -200 45
1739502917.1529 -2.5625865 5.5003757 -200 45 -200 45 -200 45
1740503033.839 -2.5575407 5.4704585 -200 45 -200 45 -200 45
1741503150.5251 -2.5530422 5.4672146 -200 45 -200 45 -200 45
1742503267.2112 -2.556329 5.489943 -200 45 -200 45 -200 45
1743503383.8973 -2.560317 5.5126185 -200 45 -200 45 -200 45
1744503500.5834 -2.5637245 5.5339756 -200 45 -200 45 -200 45
1745503617.2695 -2.5642612 5.5391507 -200 45 -200 45 -200 45
1746503733.9557 -2.5643144 5.5534658 -200 45 -200 45 -200 45
1747503850.6418 -2.5677392 5.5604653 -200 45 -200 45 -200 45
1748503967.3279 -2.5702448 5.5780506 -200 45 -200 45 -200 45
1749504084.014 -2.5743802 5.6003094 -200 45 -200 45 -200 45
1750504200.7001 -2.5750222 5.6022868 -200 45 -200 45 -200 45
1751504317.3862 -2.5782132 5.6238699 -200 45 -200 45 -200 45
1752504434.0723 -2.5762813 5.6382308 -200 45 -200 45 -200 45
1753504550.7585 -2.581485 5.6682539 -200 45 -200 45 -200 45
1754504667.4446 -2.5819972 5.6650186 -200 45 -200 45 -200 45
1755504784.1307 -2.580261 5.6752105 -200 45 -200 45 -200 45
1756504900.8168 -2.5742102 5.6374984 -200 45 -200 45 -200 45
1757505017.5029 -2.5695786 5.6481566 -200 45 -200 45 -200 45
1758505134.189 -2.5708694 5.6526504 -200 45 -200 45 -200 45
1759505250.8751 -2.575573 5.6775861 -200 45 -200 45 -200 45
1760505367.5613 -2.5780408 5.6922407 -200 45 -200 45 -200 45
1761505484.2474 -2.5812402 5.7077398 -200 45 -200 45 -200 45
1762505600.9335 -2.5788834 5.7190914 -200 45 -200 45 -200 45
1763505717.6196 -2.5812149 5.7198129 -200 45 -200 45 -200 45
1764505834.3057 -2.5849178 5.7526746 -200 45 -200 45 -200 45
1765505950.9918 -2.5893466 5.7723484 -200 45 -200 45 -200 45
1766506067.6779 -2.5903218 5.7872281 -200 45 -200 45 -200 45
1767506184.3641 -2.5927699 5.7928686 -200 45 -200 45 -200 45
1768506301.0502 -2.5933888 5.8079977 -200 45 -200 45 -200 45
1769506417.7363 -2.5963476 5.8201094 -200 45 -200 45 -200 45
1770506534.4224 -2.5987933 5.8362923 -200 45 -200 45 -200 45
1771506651.1085 -2.5937965 5.8423681 -200 45 -200 45 -200 45
1772506767.7946 -2.5873356 5.8228126 -200 45 -200 45 -200 45
1773506884.4807 -2.5838828 5.8115616 -200 45 -200 45 -200 45
1774507001.1669 -2.584522 5.8201346 -200 45 -200 45 -200 45
1775507117.853 -2.5881302 5.8350415 -200 45 -200 45 -200 45
1776507234.5391 -2.5927918 5.8620939 -200 45 -200 45 -200 45
1777507351.2252 -2.5936306 5.8757563 -200 45 -200 45 -200 45
1778507467.9113 -2.5932386 5.8818946 -200 45 -200 45 -200 45
1779507584.5974 -2.5948474 5.8944831 -200 45 -200 45 -200 45
1780507701.2835 -2.5995562 5.9239941 -200 45 -200 45 -200 45
1781507817.9697 -2.603555 5.9354239 -200 45 -200 45 -200 45
1782507934.6558 -2.6063807 5.945539 -200 45 -200 45 -200 45
1783508051.3419 -2.6060915 5.9559221 -200 45 -200 45 -200 45
1784508168.028 -2.6087174 5.9678135 -200 45 -200 45 -200 45
1785508284.7141 -2.6115811 5.9972563 -200 45 -200 45 -200 45
1786508401.4002 -2.6109619 5.9949584 -200 45 -200 45 -200 45
1787508518.0863 -2.6096091 6.0086074 -200 45 -200 45 -200 45
1788508634.7725 -2.6042123 5.9823041 -200 45 -200 45 -200 45
1789508751.4586 -2.5986342 5.9647217 -200 45 -200 45 -200 45
1790508868.1447 -2.600471 5.9883218 -200 45 -200 45 -200 45
1791508984.8308 -2.6030991 6.0178685 -200 45 -200 45 -200 45
1792509101.5169 -2.6073346 6.0248656 -200 45 -200 45 -200 45
1793509218.203 -2.6070411 6.0455685 -200 45 -200 45 -200 45
1794509334.8891 -2.6085994 6.038681 -200 45 -200 45 -200 45
1795509451.5753 -2.6092904 6.0614252 -200 45 -200 45 -200 45
1796509568.2614 -2.613009 6.0742922 -200 45 -200 45 -200 45
1797509684.9475 -2.6172614 6.099215 -200 45 -200 45 -200 45
1798509801.6336 -2.6211557 6.105267 -200 45 -200 45 -200 45
1799509918.3197 -2.6202507 6.1238241 -200 45 -200 45 -200 45
1800510035.0058 -2.6218936 6.1398883 -200 45 -200 45 -200 45
1801510151.6919 -2.6232545 6.1645875 -200 45 -200 45 -200 45
1802510268.3781 -2.6259377 6.1744723 -200 45 -200 45 -200 45
1803510385.0642 -2.6243832 6.1750336 -200 45 -200 45 -200 45
1804510501.7503 -2.6195996 6.1576986 -200 45 -200 45 -200 45
1805510618.4364 -2.6136503 6.1327281 -200 45 -200 45 -200 45
1806510735.1225 -2.6144819 6.1605401 -200 45 -200 45 -200 45
1807510851.8086 -2.6166339 6.1597791 -200 45 -200 45 -200 45
1808510968.4947 -2.6237926 6.199492 -200 45 -200 45 -200 45
1809511085.1809 -2.62377 6.2060227 -200 45 -200 45 -200 45
1810511201.867 -2.6216197 6.2081132 -200 45 -200 45 -200 45
1811511318.5531 -2.6223676 6.2203369 -200 45 -200 45 -200 45
1812511435.2392 -2.6273203 6.2511134 -200 45 -200 45 -200 45
1813511551.9253 -2.6318457 6.2766743 -200 45 -200 45 -200 45
1814511668.6114 -2.6351006 6.287478 -200 45 -200 45 -200 45
1815511785.2975 -2.633589 6.2995043 -200 45 -200 45 -200 45
1816511901.9837 -2.636965 6.309278 -200 45 -200 45 -200 45
1817512018.6698 -2.6382744 6.3335037 -200 45 -200 45 -200 45
1818512135.3559 -2.6392729 6.3449359 -200 45 -200 45 -200 45
1819512252.042 -2.6375504 6.3413353 -200 45 -200 45 -200 45
1820512368.7281 -2.635191 6.3363624 -200 45 -200 45 -200 45
1821512485.4142 -2.6278009 6.3100061 -200 45 -200 45 -200 45
1822512602.1004 -2.6271966 6.3150506 -200 45 -200 45 -200 45
1823512718.7865 -2.6293974 6.3275166 -200 45 -200 45 -200 45
1824512835.4726 -2.6335111 6.3678031 -200 45 -200 45 -200 45
1825512952.1587 -2.6345556 6.3743773 -200 45 -200 45 -200 45
1826513068.8448 -2.635294 6.3905773 -200 45 -200 45 -200 45
1827513185.5309 -2.6371179 6.3968096 -200 45 -200 45 -200 45
1828513302.217 -2.6402137 6.4176197 -200 45 -200 45 -200 45
1829513418.9032 -2.6432796 6.4426441 -200 45 -200 45 -200 45
1830513535.5893 -2.6480241 6.4651294 -200 45 -200 45 -200 45
1831513652.2754 -2.6479511 6.4658904 -200 45 -200 45 -200 45
1832513768.9615 -2.6499066 6.4920583 -200 45 -200 45 -200 45
1833513885.6476 -2.6503255 6.5047355 -200 45 -200 45 -200 45
1834514002.3337 -2.6526482 6.5222244 -200 45 -200 45 -200 45
1835514119.0198 -2.6530583 6.5231299 -200 45 -200 45 -200 45
1836514235.706 -2.6502712 6.5044885 -200 45 -200 45 -200 45
1837514352.3921 -2.6423762 6.4906878 -200 45 -200 45 -200 45
1838514469.0782 -2.6413484 6.5031548 -200 45 -200 45 -200 45
1839514585.7643 -2.6428103 6.5108452 -200 45 -200 45 -200 45
1840514702.4504 -2.6481683 6.5391889 -200 45 -200 45 -200 45
1841514819.1365 -2.6490681 6.5510964 -200 45 -200 45 -200 45
1842514935.8226 -2.6501696 6.5595331 -200 45 -200 45 -200 45
1843515052.5088 -2.6512172 6.5630007 -200 45 -200 45 -200 45
1844515169.1949 -2.653563 6.5845184 -200 45 -200 45 -200 45
1845515285.881 -2.6574886 6.6110554 -200 45 -200 45 -200 45
1846515402.5671 -2.6605966 6.6479878 -200 45 -200 45 -200 45
1847515519.2532 -2.6649182 6.6405778 -200 45 -200 45 -200 45
1848515635.9393 -2.6632249 6.6517467 -200 45 -200 45 -200 45
1849515752.6254 -2.6656184 6.670682 -200 45 -200 45 -200 45
1850515869.3116 -2.6676981 6.6972218 -200 45 -200 45 -200 45
1851515985.9977 -2.6668935 6.6930475 -200 45 -200 45 -200 45
1852516102.6838 -2.6638966 6.6878886 -200 45 -200 45 -200 45
1853516219.3699 -2.6559479 6.6627312 -200 45 -200 45 -200 45
1854516336.056 -2.6556289 6.6682386 -200 45 -200 45 -200 45
1855516452.7421 -2.6575191 6.6865273 -200 45 -200 45 -200 45
1856516569.4282 -2.6614478 6.6989956 -200 45 -200 45 -200 45
1857516686.1144 -2.6632962 6.724113 -200 45 -200 45 -200 45
1858516802.8005 -2.6635108 6.7435794 -200 45 -200 45 -200 45
1859516919.4866 -2.6621952 6.7442465 -200 45 -200 45 -200 45
1860517036.1727 -2.6668112 6.7637992 -200 45 -200 45 -200 45
1861517152.8588 -2.6719406 6.7964916 -200 45 -200 45 -200 45
1862517269.5449 -2.6755886 6.8055158 -200 45 -200 45 -200 45
1863517386.231 -2.6770287 6.8259702 -200 45 -200 45 -200 45
1864517502.9172 -2.6778023 6.825603 -200 45 -200 45 -200 45
1865517619.6033 -2.6789136 6.850605 -200 45 -200 45 -200 45
1866517736.2894 -2.6824291 6.8594203 -200 45 -200 45 -200 45
1867517852.9755 -2.6805193 6.868597 -200 45 -200 45 -200 45
1868517969.6616 -2.6787093 6.8667984 -200 45 -200 45 -200 45
1869518086.3477 -2.6735227 6.8429484 -200 45 -200 45 -200 45
1870518203.0338 -2.6700144 6.8414001 -200 45 -200 45 -200 45
1871518319.72 -2.671545 6.8582325 -200 45 -200 45 -200 45
1872518436.4061 -2.677294 6.882484 -200 45 -200 45 -200 45
1873518553.0922 -2.6775122 6.8922153 -200 45 -200 45 -200 45
1874518669.7783 -2.6787825 6.9133177 -200 45 -200 45 -200 45
1875518786.4644 -2.6786113 6.9177055 -200 45 -200 45 -200 45
1876518903.1505 -2.6828573 6.9356637 -200 45 -200 45 -200 45
1877519019.8366 -2.6859105 6.9501109 -200 45 -200 45 -200 45
1878519136.5228 -2.6895044 6.9870605 -200 45 -200 45 -200 45
1879519253.2089 -2.6927509 6.9877863 -200 45 -200 45 -200 45
1880519369.895 -2.6928139 6.9982152 -200 45 -200 45 -200 45
1881519486.5811 -2.6929731 7.0107412 -200 45 -200 45 -200 45
1882519603.2672 -2.696456 7.0328493 -200 45 -200 45 -200 45
1883519719.9533 -2.6980355 7.0427856 -200 45 -200 45 -200 45
1884519836.6394 -2.6948769 7.0360861 -200 45 -200 45 -200 45
1885519953.3256 -2.6895285 7.011528 -200 45 -200 45 -200 45
1886520070.0117 -2.6846206 7.0133033 -200 45 -200 45 -200 45
1887520186.6978 -2.6871729 7.0224428 -200 45 -200 45 -200 45
1888520303.3839 -2.6903682 7.054183 -200 45 -200 45 -200 45
1889520420.07 -2.6946344 7.0678501 -200 45 -200 45 -200 45
1890520536.7561 -2.6945467 7.0770526 -200 45 -200 45 -200 45
1891520653.4422 -2.6956453 7.0747886 -200 45 -200 45 -200 45
1892520770.1284 -2.6975942 7.0982943 -200 45 -200 45 -200 45
1893520886.8145 -2.7018352 7.1204596 -200 45 -200 45 -200 45
1894521003.5006 -2.7049921 7.1448631 -200 45 -200 45 -200 45
1895521120.1867 -2.7059472 7.1501956 -200 45 -200 45 -200 45
1896521236.8728 -2.7079139 7.1733446 -200 45 -200 45 -200 45
1897521353.5589 -2.7089455 7.1722717 -200 45 -200 45 -200 45
1898521470.245 -2.7131009 7.1886821 -200 45 -200 45 -200 45
1899521586.9312 -2.7140245 7.2081256 -200 45 -200 45 -200 45
1900521703.6173 -2.7104151 7.2073636 -200 45 -200 45 -200 45
1901521820.3034 -2.7074659 7.1788731 -200 45 -200 45 -200 45
1902521936.9895 -2.7028286 7.1688781 -200 45 -200 45 -200 45
1903522053.6756 -2.7052641 7.1925206 -200 45 -200 45 -200 45
1904522170.3617 -2.7094934 7.2119884 -200 45 -200 45 -200 45
1905522287.0478 -2.7133524 7.2417364 -200 45 -200 45 -200 45
1906522403.734 -2.7159684 7.2643948 -200 45 -200 45 -200 45
1907522520.4201 -2.7151136 7.2727871 -200 45 -200 45 -200 45
1908522637.1062 -2.7181339 7.2982903 -200 45 -200 45 -200 45
1909522753.7923 -2.7217338 7.3243337 -200 45 -200 45 -200 45
1910522870.4784 -2.7276711 7.3529644 -200 45 -200 45 -200 45
1911522987.1645 -2.7298534 7.3790727 -200 45 -200 45 -200 45
1912523103.8506 -2.7292142 7.391438 -200 45 -200 45 -200 45
1913523220.5368 -2.7263768 7.4206223 -200 45 -200 45 -200 45
1914523337.2229 -2.7285697 7.4503679 -200 45 -200 45 -200 45
1915523453.909 -2.728647 7.4694576 -200 45 -200 45 -200 45
1916523570.5951 -2.7272763 7.4658298 -200 45 -200 45 -200 45
1917523687.2812 -2.7200198 7.4431586 -200 45 -200 45 -200 45
1918523803.9673 -2.7129626 7.4241519 -200 45 -200 45 -200 45
1919523920.6534 -2.7142291 7.4458694 -200 45 -200 45 -200 45
1920524037.3396 -2.7172763 7.4651809 -200 45 -200 45 -200 45
1921524154.0257 -2.7197344 7.4961061 -200 45 -200 45 -200 45
1922524270.7118 -2.7227342 7.5132236 -200 45 -200 45 -200 45
1923524387.3979 -2.7185163 7.5143256 -200 45 -200 45 -200 45
1924524504.084 -2.7180605 7.5355105 -200 45 -200 45 -200 45
1925524620.7701 -2.7208412 7.5607157 -200 45 -200 45 -200 45
1926524737.4562 -2.7254951 7.5681539 -200 45 -200 45 -200 45
1927524854.1424 -2.7261643 7.5858617 -200 45 -200 45 -200 45
1928524970.8285 -2.7260299 7.5817423 -200 45 -200 45 -200 45
1929525087.5146 -2.7250874 7.5958209 -200 45 -200 45 -200 45
1930525204.2007 -2.7258885 7.6043186 -200 45 -200 45 -200 45
1931525320.8868 -2.7292883 7.6231236 -200 45 -200 45 -200 45
1932525437.5729 -2.7269034 7.6115766 -200 45 -200 45 -200 45
1933525554.259 -2.7217023 7.597373 -200 45 -200 45 -200 45
1934525670.9452 -2.7169924 7.5856891 -200 45 -200 45 -200 45
1935525787.6313 -2.7168868 7.592381 -200 45 -200 45 -200 45
1936525904.3174 -2.7191176 7.6001735 -200 45 -200 45 -200 45
1937526021.0035 -2.7233632 7.6014771 -200 45 -200 45 -200 45
1938526137.6896 -2.7244422 7.6242995 -200 45 -200 45 -200 45
1939526254.3757 -2.7241621 7.6193862 -200 45 -200 45 -200 45
1940526371.0618 -2.7259326 7.6258225 -200 45 -200 45 -200 45
1941526487.748 -2.7290065 7.6494389 -200 45 -200 45 -200 45
1942526604.4341 -2.7343969 7.6767373 -200 45 -200 45 -200 45
1943526721.1202 -2.7386425 7.6852374 -200 45 -200 45 -200 45
1944526837.8063 -2.7392545 7.6941571 -200 45 -200 45 -200 45
1945526954.4924 -2.7403164 7.7021122 -200 45 -200 45 -200 45
1946527071.1785 -2.7415562 7.7247043 -200 45 -200 45 -200 45
1947527187.8646 -2.7445364 7.7384133 -200 45 -200 45 -200 45
1948527304.5508 -2.7428601 7.757442 -200 45 -200 45 -200 45
1949527421.2369 -2.7384562 7.7365751 -200 45 -200 45 -200 45
1950527537.923 -2.7332554 7.7007933 -200 45 -200 45 -200 45
1951527654.6091 -2.7348332 7.7291427 -200 45 -200 45 -200 45
1952527771.2952 -2.7356527 7.7390518 -200 45 -200 45 -200 45
1953527887.9813 -2.7403007 7.7601733 -200 45 -200 45 -200 45
1954528004.6674 -2.7417192 7.7912278 -200 45 -200 45 -200 45
1955528121.3536 -2.7416399 7.7862597 -200 45 -200 45 -200 45
1956528238.0397 -2.7427232 7.7934294 -200 45 -200 45 -200 45
1957528354.7258 -2.7456191 7.8235884 -200 45 -200 45 -200 45
1958528471.4119 -2.7483869 7.8475108 -200 45 -200 45 -200 45
1959528588.098 -2.7519968 7.866015 -200 45 -200 45 -200 45
1960528704.7841 -2.7543097 7.8715096 -200 45 -200 45 -200 45
1961528821.4702 -2.7557068 7.8936138 -200 45 -200 45 -200 45
1962528938.1564 -2.7554622 7.9060917 -200 45 -200 45 -200 45
1963529054.8425 -2.7574348 7.923625 -200 45 -200 45 -200 45
1964529171.5286 -2.7555628 7.9173651 -200 45 -200 45 -200 45
1965529288.2147 -2.7529993 7.914207 -200 45 -200 45 -200 45
1966529404.9008 -2.7468512 7.8885212 -200 45 -200 45 -200 45
1967529521.5869 -2.7477951 7.9110122 -200 45 -200 45 -200 45
1968529638.273 -2.7484589 7.917172 -200 45 -200 45 -200 45
1969529754.9592 -2.7538407 7.9408154 -200 45 -200 45 -200 45
1970529871.6453 -2.7550461 7.9507127 -200 45 -200 45 -200 45
1971529988.3314 -2.7548835 7.9599342 -200 45 -200 45 -200 45
1972530105.0175 -2.7538805 7.9690089 -200 45 -200 45 -200 45
1973530221.7036 -2.7570457 7.9886107 -200 45 -200 45 -200 45
1974530338.3897 -2.7623534 8.0053568 -200 45 -200 45 -200 45
1975530455.0758 -2.7649136 8.0335283 -200 45 -200 45 -200 45
1976530571.762 -2.7663155 8.035368 -200 45 -200 45 -200 45
1977530688.4481 -2.7673929 8.0622873 -200 45 -200 45 -200 45
1978530805.1342 -2.7689207 8.0743952 -200 45 -200 45 -200 45
1979530921.8203 -2.7718575 8.0970201 -200 45 -200 45 -200 45
1980531038.5064 -2.7705805 8.0995646 -200 45 -200 45 -200 45
1981531155.1925 -2.7669592 8.0884972 -200 45 -200 45 -200 45
1982531271.8786 -2.7624683 8.0631495 -200 45 -200 45 -200 45
1983531388.5648 -2.7601593 8.0704212 -200 45 -200 45 -200 45
1984531505.2509 -2.7603343 8.0908489 -200 45 -200 45 -200 45
1985531621.937 -2.7683363 8.1137333 -200 45 -200 45 -200 45
1986531738.6231 -2.7679839 8.1285677 -200 45 -200 45 -200 45
1987531855.3092 -2.7674713 8.1281767 -200 45 -200 45 -200 45
1988531971.9953 -2.7660682 8.1497898 -200 45 -200 45 -200 45
1989532088.6814 -2.7714679 8.1754103 -200 45 -200 45 -200 45
1990532205.3676 -2.7754164 8.1926298 -200 45 -200 45 -200 45
1991532322.0537 -2.7788846 8.2083216 -200 45 -200 45 -200 45
1992532438.7398 -2.7797773 8.2166719 -200 45 -200 45 -200 45
1993532555.4259 -2.7811348 8.2265968 -200 45 -200 45 -200 45
1994532672.112 -2.7827415 8.2511482 -200 45 -200 45 -200 45
1995532788.7981 -2.7834218 8.27456 -200 45 -200 45 -200 45
1996532905.4842 -2.7825801 8.2824259 -200 45 -200 45 -200 45
1997533022.1704 -2.7813618 8.270771 -200 45 -200 45 -200 45
1998533138.8565 -2.776854 8.2470589 -200 45 -200 45 -200 45
1999533255.5426 -2.7744355 8.2509851 -200 45 -200 45 -200 45
2000533372.2287 -2.7740707 8.2641468 -200 45 -200 45 -200 45
2001533488.9148 -2.7810411 8.2888327 -200 45 -200 45 -200 45
2002533605.6009 -2.7809787 8.3094358 -200 45 -200 45 -200 45
2003533722.287 -2.7814808 8.3175669 -200 45 -200 45 -200 45
2004533838.9732 -2.7812941 8.3194504 -200 45 -200 45 -200 45
2005533955.6593 -2.7854686 8.3379717 -200 45 -200 45 -200 45
2006534072.3454 -2.7882957 8.3599319 -200 45 -200 45 -200 45
2007534189.0315 -2.7916543 8.3878813 -200 45 -200 45 -200 45
2008534305.7176 -2.7939117 8.3866482 -200 45 -200 45 -200 45
2009534422.4037 -2.7951813 8.4011707 -200 45 -200 45 -200 45
2010534539.0898 -2.7961993 8.4226694 -200 45 -200 45 -200 45
2011534655.776 -2.8002472 8.4485397 -200 45 -200 45 -200 45
2012534772.4621 -2.7991059 8.4449873 -200 45 -200 45 -200 45
2013534889.1482 -2.7959015 8.4361305 -200 45 -200 45 -200 45
2014535005.8343 -2.7912941 8.424489 -200 45 -200 45 -200 45
2015535122.5204 -2.7889984 8.4178448 -200 45 -200 45 -200 45
2016535239.2065 -2.7906208 8.4393082 -200 45 -200 45 -200 45
2017535355.8926 -2.7961845 8.4673119 -200 45 -200 45 -200 45
2018535472.5788 -2.7984939 8.476552 -200 45 -200 45 -200 45
2019535589.2649 -2.7981892 8.4892759 -200 45 -200 45 -200 45
2020535705.951 -2.8000848 8.5087862 -200 45 -200 45 -200 45
2021535822.6371 -2.8042026 8.5370531 -200 45 -200 45 -200 45
2022535939.3232 -2.8078656 8.5578194 -200 45 -200 45 -200 45
2023536056.0093 -2.8103697 8.5966797 -200 45 -200 45 -200 45
2024536172.6954 -2.8114991 8.6066284 -200 45 -200 45 -200 45
2025536289.3816 -2.8125551 8.6425114 -200 45 -200 45 -200 45
2026536406.0677 -2.8094022 8.6546621 -200 45 -200 45 -200 45
2027536522.7538 -2.81124 8.6680126 -200 45 -200 45 -200 45
2028536639.4399 -2.811229 8.6866846 -200 45 -200 45 -200 45
2029536756.126 -2.8054929 8.6731424 -200 45 -200 45 -200 45
2030536872.8121 -2.8016315 8.6421156 -200 45 -200 45 -200 45
2031536989.4982 -2.797456 8.6354332 -200 45 -200 45 -200 45
2032537106.1844 -2.798456 8.6559191 -200 45 -200 45 -200 45
2033537222.8705 -2.8014071 8.6843557 -200 45 -200 45 -200 45
2034537339.5566 -2.803241 8.7047434 -200 45 -200 45 -200 45
2035537456.2427 -2.8022246 8.7083292 -200 45 -200 45 -200 45
2036537572.9288 -2.8006852 8.7022438 -200 45 -200 45 -200 45
2037537689.6149 -2.8039749 8.7210627 -200 45 -200 45 -200 45
2038537806.3011 -2.8072898 8.7338333 -200 45 -200 45 -200 45
2039537922.9872 -2.8132253 8.758544 -200 45 -200 45 -200 45
2040538039.6733 -2.8150816 8.76157 -200 45 -200 45 -200 45
2041538156.3594 -2.8139803 8.7824183 -200 45 -200 45 -200 45
2042538273.0455 -2.8148172 8.7909679 -200 45 -200 45 -200 45
2043538389.7316 -2.8185105 8.8116703 -200 45 -200 45 -200 45
2044538506.4177 -2.8184061 8.8212004 -200 45 -200 45 -200 45
2045538623.1039 -2.8152974 8.815587 -200 45 -200 45 -200 45
2046538739.79 -2.8110135 8.8002634 -200 45 -200 45 -200 45
2047538856.4761 -2.806793 8.7747097 -200 45 -200 45 -200 45
2048538973.1622 -2.8055146 8.7930622 -200 45 -200 45 -200 45
2049539089.8483 -2.8117161 8.8155422 -200 45 -200 45 -200 45
2050539206.5344 -2.8142452 8.833581 -200 45 -200 45 -200 45
2051539323.2205 -2.8142176 8.8415327 -200 45 -200 45 -200 45
2052539439.9067 -2.8137503 8.8386908 -200 45 -200 45 -200 45
2053539556.5928 -2.8160667 8.8720808 -200 45 -200 45 -200 45
2054539673.2789 -2.8209589 8.8809557 -200 45 -200 45 -200 45
2055539789.965 -2.8228848 8.9027662 -200 45 -200 45 -200 45
2056539906.6511 -2.8255246 8.9213552 -200 45 -200 45 -200 45
2057540023.3372 -2.8264265 8.9370308 -200 45 -200 45 -200 45
2058540140.0233 -2.8276455 8.9527578 -200 45 -200 45 -200 45
2059540256.7095 -2.8293531 8.9696922 -200 45 -200 45 -200 45
2060540373.3956 -2.8302848 8.9868746 -200 45 -200 45 -200 45
2061540490.0817 -2.8279543 8.9843636 -200 45 -200 45 -200 45
2062540606.7678 -2.8243265 8.9624119 -200 45 -200 45 -200 45
2063540723.4539 -2.820164 8.9434834 -200 45 -200 45 -200 45
2064540840.14 -2.8204806 8.9667473 -200 45 -200 45 -200 45
2065540956.8261 -2.822634 8.9848166 -200 45 -200 45 -200 45
2066541073.5123 -2.825989 9.0167322 -200 45 -200 45 -200 45
2067541190.1984 -2.8258128 9.0122423 -200 45 -200 45 -200 45
2068541306.8845 -2.8259363 9.0197554 -200 45 -200 45 -200 45
2069541423.5706 -2.8285496 9.0428371 -200 45 -200 45 -200 45
2070541540.2567 -2.8317702 9.0545492 -200 45 -200 45 -200 45
2071541656.9428 -2.8361354 9.0834656 -200 45 -200 45 -200 45
2072541773.6289 -2.8385453 9.090456 -200 45 -200 45 -200 45
2073541890.3151 -2.8391998 9.1073217 -200 45 -200 45 -200 45
2074542007.0012 -2.8400061 9.1151295 -200 45 -200 45 -200 45
2075542123.6873 -2.8410575 9.1416101 -200 45 -200 45 -200 45
2076542240.3734 -2.8437965 9.168685 -200 45 -200 45 -200 45
2077542357.0595 -2.8418329 9.1525021 -200 45 -200 45 -200 45
2078542473.7456 -2.8377128 9.1427193 -200 45 -200 45 -200 45
2079542590.4317 -2.8319018 9.1257648 -200 45 -200 45 -200 45
2080542707.1179 -2.8335369 9.1355839 -200 45 -200 45 -200 45
2081542823.804 -2.8357842 9.1570377 -200 45 -200 45 -200 45
2082542940.4901 -2.8398969 9.1815176 -200 45 -200 45 -200 45
2083543057.1762 -2.8399568 9.1855011 -200 45 -200 45 -200 45
2084543173.8623 -2.8392951 9.1926289 -200 45 -200 45 -200 45
2085543290.5484 -2.8395083 9.2143927 -200 45 -200 45 -200 45
2086543407.2345 -2.8426807 9.2409563 -200 45 -200 45 -200 45
2087543523.9207 -2.8494956 9.2600021 -200 45 -200 45 -200 45
2088543640.6068 -2.8513017 9.2781839 -200 45 -200 45 -200 45
2089543757.2929 -2.8509068 9.2950916 -200 45 -200 45 -200 45
2090543873.979 -2.8504586 9.2876005 -200 45 -200 45 -200 45
2091543990.6651 -2.853312 9.313612 -200 45 -200 45 -200 45
2092544107.3512 -2.8547978 9.3317299 -200 45 -200 45 -200 45
2093544224.0373 -2.8542359 9.3375111 -200 45 -200 45 -200 45
2094544340.7235 -2.8510265 9.3251095 -200 45 -200 45 -200 45
2095544457.4096 -2.8450861 9.3126869 -200 45 -200 45 -200 45
2096544574.0957 -2.8462043 9.3181009 -200 45 -200 45 -200 45
2097544690.7818 -2.8458085 9.3283119 -200 45 -200 45 -200 45
2098544807.4679 -2.8499093 9.3601446 -200 45 -200 45 -200 45
2099544924.154 -2.8514035 9.369401 -200 45 -200 45 -200 45
2100545040.8401 -2.8523488 9.3690538 -200 45 -200 45 -200 45
2101545157.5263 -2.8520463 9.3848095 -200 45 -200 45 -200 45
2102545274.2124 -2.85463 9.4154644 -200 45 -200 45 -200 45
2103545390.8985 -2.8582368 9.4380074 -200 45 -200 45 -200 45
2104545507.5846 -2.8605955 9.4583158 -200 45 -200 45 -200 45
2105545624.2707 -2.8628633 9.477746 -200 45 -200 45 -200 45
2106545740.9568 -2.8631687 9.4748106 -200 45 -200 45 -200 45
2107545857.6429 -2.8640301 9.508028 -200 45 -200 45 -200 45
2108545974.3291 -2.866688 9.5162659 -200 45 -200 45 -200 45
2109546091.0152 -2.8654904 9.5230961 -200 45 -200 45 -200 45
2110546207.7013 -2.8619726 9.4988413 -200 45 -200 45 -200 45
2111546324.3874 -2.8561246 9.4900742 -200 45 -200 45 -200 45
2112546441.0735 -2.8577938 9.4931393 -200 45 -200 45 -200 45
2113546557.7596 -2.8573132 9.5148392 -200 45 -200 45 -200 45
2114546674.4457 -2.8618422 9.539917 -200 45 -200 45 -200 45
2115546791.1319 -2.8621459 9.557457 -200 45 -200 45 -200 45
2116546907.818 -2.8634679 9.5604811 -200 45 -200 45 -200 45
2117547024.5041 -2.8615415 9.5653429 -200 45 -200 45 -200 45
2118547141.1902 -2.8663459 9.5949402 -200 45 -200 45 -200 45
2119547257.8763 -2.8688893 9.6130133 -200 45 -200 45 -200 45
2120547374.5624 -2.8725095 9.636034 -200 45 -200 45 -200 45
2121547491.2485 -2.873858 9.639719 -200 45 -200 45 -200 45
2122547607.9347 -2.8734536 9.6609011 -200 45 -200 45 -200 45
2123547724.6208 -2.8765709 9.6628485 -200 45 -200 45 -200 45
2124547841.3069 -2.8765419 9.6894245 -200 45 -200 45 -200 45
2125547957.993 -2.8755155 9.6889849 -200 45 -200 45 -200 45
2126548074.6791 -2.8744178 9.6796474 -200 45 -200 45 -200 45
2127548191.3652 -2.8679879 9.6532412 -200 45 -200 45 -200 45
2128548308.0513 -2.8665576 9.6668301 -200 45 -200 45 -200 45
2129548424.7375 -2.8680074 9.6846228 -200 45 -200 45 -200 45
2130548541.4236 -2.8742838 9.70996 -200 45 -200 45 -200 45
2131548658.1097 -2.8758848 9.7152328 -200 45 -200 45 -200 45
2132548774.7958 -2.8741033 9.7378922 -200 45 -200 45 -200 45
2133548891.4819 -2.8730276 9.7323446 -200 45 -200 45 -200 45
2134549008.168 -2.8767753 9.763588 -200 45 -200 45 -200 45
2135549124.8541 -2.8805895 9.7780533 -200 45 -200 45 -200 45
2136549241.5403 -2.8847837 9.7947187 -200 45 -200 45 -200 45
2137549358.2264 -2.8847389 9.8072767 -200 45 -200 45 -200 45
2138549474.9125 -2.8888652 9.8192444 -200 45 -200 45 -200 45
2139549591.5986 -2.8868182 9.842144 -200 45 -200 45 -200 45
2140549708.2847 -2.8898783 9.8564425 -200 45 -200 45 -200 45
2141549824.9708 -2.8891156 9.8553104 -200 45 -200 45 -200 45
2142549941.6569 -2.8856966 9.8469505 -200 45 -200 45 -200 45
2143550058.3431 -2.8816419 9.8308573 -200 45 -200 45 -200 45
2144550175.0292 -2.8789597 9.8236952 -200 45 -200 45 -200 45
2145550291.7153 -2.8811724 9.847887 -200 45 -200 45 -200 45
2146550408.4014 -2.8848264 9.8693285 -200 45 -200 45 -200 45
2147550525.0875 -2.8849275 9.8767776 -200 45 -200 45 -200 45
2148550641.7736 -2.8856671 9.8839855 -200 45 -200 45 -200 45
2149550758.4597 -2.8850892 9.9003582 -200 45 -200 45 -200 45
2150550875.1459 -2.8883226 9.9244804 -200 45 -200 45 -200 45
2151550991.832 -2.8916936 9.9382124 -200 45 -200 45 -200 45
2152551108.5181 -2.8963399 9.9595261 -200 45 -200 45 -200 45
2153551225.2042 -2.8964579 9.9765444 -200 45 -200 45 -200 45
2154551341.8903 -2.8968558 9.9868536 -200 45 -200 45 -200 45
2155551458.5764 -2.8987954 10.007028 -200 45 -200 45 -200 45
2156551575.2625 -2.9007244 10.018237 -200 45 -200 45 -200 45
2157551691.9487 -2.9016907 10.033073 -200 45 -200 45 -200 45
2158551808.6348 -2.8982999 10.021552 -200 45 -200 45 -200 45
2159551925.3209 -2.8933301 10.005947 -200 45 -200 45 -200 45
2160552042.007 -2.8923924 10.009809 -200 45 -200 45 -200 45
2161552158.6931 -2.8916113 10.008975 -200 45 -200 45 -200 45
2162552275.3792 -2.8951559 10.040467 -200 45 -200 45 -200 45
2163552392.0653 -2.8982279 10.059428 -200 45 -200 45 -200 45
2164552508.7515 -2.8976905 10.073039 -200 45 -200 45 -200 45
2165552625.4376 -2.896543 10.079998 -200 45 -200 45 -200 45
2166552742.1237 -2.899183 10.086962 -200 45 -200 45 -200 45
2167552858.8098 -2.903126 10.116651 -200 45 -200 45 -200 45
2168552975.4959 -2.9066668 10.135744 -200 45 -200 45 -200 45
2169553092.182 -2.9077992 10.14597 -200 45 -200 45 -200 45
2170553208.8681 -2.9077249 10.166129 -200 45 -200 45 -200 45
2171553325.5543 -2.9103525 10.173225 -200 45 -200 45 -200 45
2172553442.2404 -2.9124506 10.186218 -200 45 -200 45 -200 45
2173553558.9265 -2.9133785 10.200919 -200 45 -200 45 -200 45
2174553675.6126 -2.9106767 10.205885 -200 45 -200 45 -200 45
2175553792.2987 -2.9059086 10.189776 -200 45 -200 45 -200 45
2176553908.9848 -2.9022281 10.179829 -200 45 -200 45 -200 45
2177554025.6709 -2.9034059 10.18961 -200 45 -200 45 -200 45
2178554142.3571 -2.9054956 10.223174 -200 45 -200 45 -200 45
2179554259.0432 -2.9084945 10.23793 -200 45 -200 45 -200 45
2180554375.7293 -2.9095674 10.244632 -200 45 -200 45 -200 45
2181554492.4154 -2.9079044 10.24111 -200 45 -200 45 -200 45
2182554609.1015 -2.9107916 10.269216 -200 45 -200 45 -200 45
2183554725.7876 -2.914526 10.285602 -200 45 -200 45 -200 45
2184554842.4737 -2.9178555 10.31871 -200 45 -200 45 -200 45
2185554959.1599 -2.9179087 10.322397 -200 45 -200 45 -200 45
2186555075.846 -2.9209034 10.332457 -200 45 -200 45 -200 45
2187555192.5321 -2.9206676 10.356963 -200 45 -200 45 -200 45
2188555309.2182 -2.9220529 10.360777 -200 45 -200 45 -200 45
2189555425.9043 -2.9242964 10.384089 -200 45 -200 45 -200 45
2190555542.5904 -2.921227 10.387253 -200 45 -200 45 -200 45
2191555659.2765 -2.917856 10.357338 -200 45 -200 45 -200 45
2192555775.9627 -2.9134059 10.345505 -200 45 -200 45 -200 45
2193555892.6488 -2.9145446 10.361126 -200 45 -200 45 -200 45
2194556009.3349 -2.9154122 10.386738 -200 45 -200 45 -200 45
2195556126.021 -2.9193418 10.409967 -200 45 -200 45 -200 45
2196556242.7071 -2.9192529 10.427451 -200 45 -200 45 -200 45
2197556359.3932 -2.919945 10.417375 -200 45 -200 45 -200 45
2198556476.0793 -2.9206281 10.438812 -200 45 -200 45 -200 45
2199556592.7655 -2.9231677 10.453002 -200 45 -200 45 -200 45
2200556709.4516 -2.9284396 10.484828 -200 45 -200 45 -200 45
2201556826.1377 -2.9305561 10.502466 -200 45 -200 45 -200 45
2202556942.8238 -2.9304285 10.503749 -200 45 -200 45 -200 45
2203557059.5099 -2.9307756 10.526969 -200 45 -200 45 -200 45
2204557176.196 -2.9315159 10.540788 -200 45 -200 45 -200 45
2205557292.8821 -2.9346955 10.552515 -200 45 -200 45 -200 45
2206557409.5683 -2.9313612 10.552853 -200 45 -200 45 -200 45
2207557526.2544 -2.9279158 10.532318 -200 45 -200 45 -200 45
2208557642.9405 -2.9243512 10.529107 -200 45 -200 45 -200 45
2209557759.6266 -2.9244511 10.528138 -200 45 -200 45 -200 45
2210557876.3127 -2.9256873 10.556757 -200 45 -200 45 -200 45
2211557992.9988 -2.9299862 10.580441 -200 45 -200 45 -200 45
2212558109.6849 -2.9313822 10.589247 -200 45 -200 45 -200 45
2213558226.3711 -2.9310935 10.59981 -200 45 -200 45 -200 45
2214558343.0572 -2.9319434 10.60417 -200 45 -200 45 -200 45
2215558459.7433 -2.9335876 10.636434 -200 45 -200 45 -200 45
2216558576.4294 -2.9373782 10.637649 -200 45 -200 45 -200 45
2217558693.1155 -2.9398143 10.674707 -200 45 -200 45 -200 45
2218558809.8016 -2.9406097 10.677128 -200 45 -200 45 -200 45
2219558926.4877 -2.9414892 10.678507 -200 45 -200 45 -200 45
2220559043.1739 -2.9434993 10.713769 -200 45 -200 45 -200 45
2221559159.86 -2.9446635 10.718754 -200 45 -200 45 -200 45
2222559276.5461 -2.9411309 10.729445 -200 45 -200 45 -200 45
2223559393.2322 -2.9393024 10.717253 -200 45 -200 45 -200 45
2224559509.9183 -2.9348147 10.698023 -200 45 -200 45 -200 45
2225559626.6044 -2.9345002 10.707006 -200 45 -200 45 -200 45
2226559743.2905 -2.9374917 10.733926 -200 45 -200 45 -200 45
2227559859.9767 -2.9397886 10.752861 -200 45 -200 45 -200 45
2228559976.6628 -2.9409642 10.750416 -200 45 -200 45 -200 45
2229560093.3489 -2.9396005 10.757446 -200 45 -200 45 -200 45
2230560210.035 -2.9409428 10.779917 -200 45 -200 45 -200 45
2231560326.7211 -2.9455326 10.809252 -200 45 -200 45 -200 45
2232560443.4072 -2.9474554 10.817672 -200 45 -200 45 -200 45
2233560560.0933 -2.9503617 10.827004 -200 45 -200 45 -200 45
2234560676.7795 -2.9509175 10.845478 -200 45 -200 45 -200 45
2235560793.4656 -2.9507356 10.862778 -200 45 -200 45 -200 45
2236560910.1517 -2.9527986 10.870854 -200 45 -200 45 -200 45
2237561026.8378 -2.9549179 10.882026 -200 45 -200 45 -200 45
2238561143.5239 -2.9551082 10.885666 -200 45 -200 45 -200 45
2239561260.21 -2.9508979 10.87532 -200 45 -200 45 -200 45
2240561376.8961 -2.9447134 10.856311 -200 45 -200 45 -200 45
2241561493.5823 -2.9442239 10.861623 -200 45 -200 45 -200 45
2242561610.2684 -2.9465702 10.872929 -200 45 -200 45 -200 45
2243561726.9545 -2.9505217 10.907801 -200 45 -200 45 -200 45
2244561843.6406 -2.9501102 10.910932 -200 45 -200 45 -200 45
2245561960.3267 -2.9515104 10.921667 -200 45 -200 45 -200 45
2246562077.0128 -2.9508808 10.93887 -200 45 -200 45 -200 45
2247562193.6989 -2.9550223 10.959717 -200 45 -200 45 -200 45
2248562310.3851 -2.9589381 10.973698 -200 45 -200 45 -200 45
2249562427.0712 -2.9626403 10.986937 -200 45 -200 45 -200 45
2250562543.7573 -2.9643991 11.004175 -200 45 -200 45 -200 45
2251562660.4434 -2.9630017 11.002181 -200 45 -200 45 -200 45
2252562777.1295 -2.9651101 11.034897 -200 45 -200 45 -200 45
2253562893.8156 -2.9669852 11.054265 -200 45 -200 45 -200 45
2254563010.5018 -2.9655809 11.046892 -200 45 -200 45 -200 45
2255563127.1879 -2.9631119 11.038361 -200 45 -200 45 -200 45
2256563243.874 -2.9580729 11.008076 -200 45 -200 45 -200 45
2257563360.5601 -2.9581804 11.031425 -200 45 -200 45 -200 45
2258563477.2462 -2.9589257 11.037779 -200 45 -200 45 -200 45
2259563593.9323 -2.9624252 11.072645 -200 45 -200 45 -200 45
2260563710.6184 -2.9646096 11.076543 -200 45 -200 45 -200 45
2261563827.3046 -2.9637051 11.085768 -200 45 -200 45 -200 45
2262563943.9907 -2.9646399 11.102432 -200 45 -200 45 -200 45
2263564060.6768 -2.9650042 11.115903 -200 45 -200 45 -200 45
2264564177.3629 -2.9705026 11.134805 -200 45 -200 45 -200 45
2265564294.049 -2.973022 11.152117 -200 45 -200 45 -200 45
2266564410.7351 -2.9745827 11.168548 -200 45 -200 45 -200 45
2267564527.4212 -2.9750459 11.175729 -200 45 -200 45 -200 45
2268564644.1074 -2.9754603 11.189566 -200 45 -200 45 -200 45
2269564760.7935 -2.977561 11.205088 -200 45 -200 45 -200 45
2270564877.4796 -2.9793048 11.214471 -200 45 -200 45 -200 45
2271564994.1657 -2.9760966 11.199842 -200 45 -200 45 -200 45
2272565110.8518 -2.9724045 11.18806 -200 45 -200 45 -200 45
2273565227.5379 -2.9689181 11.183243 -200 45 -200 45 -200 45
2274565344.224 -2.970259 11.197392 -200 45 -200 45 -200 45
2275565460.9102 -2.9742284 11.219982 -200 45 -200 45 -200 45
2276565577.5963 -2.9757552 11.242908 -200 45 -200 45 -200 45
2277565694.2824 -2.9764645 11.245014 -200 45 -200 45 -200 45
2278565810.9685 -2.9770405 11.265353 -200 45 -200 45 -200 45
2279565927.6546 -2.9795539 11.287351 -200 45 -200 45 -200 45
2280566044.3407 -2.9816864 11.305813 -200 45 -200 45 -200 45
2281566161.0268 -2.9860983 11.321381 -200 45 -200 45 -200 45
2282566277.713 -2.9888496 11.330719 -200 45 -200 45 -200 45
2283566394.3991 -2.9894476 11.346346 -200 45 -200 45 -200 45
2284566511.0852 -2.9865499 11.355233 -200 45 -200 45 -200 45
2285566627.7713 -2.9899414 11.372244 -200 45 -200 45 -200 45
2286566744.4574 -2.9907839 11.39079 -200 45 -200 45 -200 45
2287566861.1435 -2.9885075 11.383232 -200 45 -200 45 -200 45
2288566977.8296 -2.9821014 11.369753 -200 45 -200 45 -200 45
2289567094.5158 -2.9824364 11.359565 -200 45 -200 45 -200 45
2290567211.2019 -2.9815233 11.3852 -200 45 -200 45 -200 45
2291567327.888 -2.9860942 11.400043 -200 45 -200 45 -200 45
2292567444.5741 -2.9894359 11.414037 -200 45 -200 45 -200 45
2293567561.2602 -2.9886703 11.420231 -200 45 -200 45 -200 45
2294567677.9463 -2.9873223 11.425546 -200 45 -200 45 -200 45
2295567794.6324 -2.9900718 11.438848 -200 45 -200 45 -200 45
2296567911.3186 -2.9942734 11.469351 -200 45 -200 45 -200 45
2297568028.0047 -3.0006568 11.495832 -200 45 -200 45 -200 45
2298568144.6908 -3.0001407 11.508449 -200 45 -200 45 -200 45
2299568261.3769 -2.9992065 11.521153 -200 45 -200 45 -200 45
2300568378.063 -3.0002279 11.527314 -200 45 -200 45 -200 45
2301568494.7491 -3.0017092 11.535959 -200 45 -200 45 -200 45
2302568611.4352 -3.004174 11.561619 -200 45 -200 45 -200 45
2303568728.1214 -3.0017788 11.543243 -200 45 -200 45 -200 45
2304568844.8075 -2.9965756 11.532075 -200 45 -200 45 -200 45
2305568961.4936 -2.9939377 11.523386 -200 45 -200 45 -200 45
2306569078.1797 -2.9932549 11.548173 -200 45 -200 45 -200 45
2307569194.8658 -2.9995751 11.559948 -200 45 -200 45 -200 45
2308569311.5519 -2.9988832 11.579311 -200 45 -200 45 -200 45
2309569428.238 -3.0018895 11.580701 -200 45 -200 45 -200 45
2310569544.9242 -3.0005922 11.586005 -200 45 -200 45 -200 45
2311569661.6103 -3.0032389 11.620755 -200 45 -200 45 -200 45
2312569778.2964 -3.0055857 11.639779 -200 45 -200 45 -200 45
2313569894.9825 -3.0117843 11.652492 -200 45 -200 45 -200 45
2314570011.6686 -3.009963 11.662349 -200 45 -200 45 -200 45
2315570128.3547 -3.0122237 11.682162 -200 45 -200 45 -200 45
2316570245.0408 -3.0131631 11.689608 -200 45 -200 45 -200 45
2317570361.727 -3.0149815 11.704759 -200 45 -200 45 -200 45
2318570478.4131 -3.0172937 11.712608 -200 45 -200 45 -200 45
2319570595.0992 -3.0153356 11.724584 -200 45 -200 45 -200 45
2320570711.7853 -3.0108185 11.710574 -200 45 -200 45 -200 45
2321570828.4714 -3.0053678 11.695101 -200 45 -200 45 -200 45
2322570945.1575 -3.0062962 11.694061 -200 45 -200 45 -200 45
2323571061.8436 -3.0101628 11.736855 -200 45 -200 45 -200 45
2324571178.5298 -3.0126834 11.751826 -200 45 -200 45 -200 45
2325571295.2159 -3.0135043 11.753488 -200 45 -200 45 -200 45
2326571411.902 -3.0127909 11.75601 -200 45 -200 45 -200 45
2327571528.5881 -3.0161321 11.78599 -200 45 -200 45 -200 45
2328571645.2742 -3.0187137 11.792633 -200 45 -200 45 -200 45
2329571761.9603 -3.0223179 11.822045 -200 45 -200 45 -200 45
2330571878.6464 -3.0226398 11.833611 -200 45 -200 45 -200 45
2331571995.3326 -3.0253863 11.848582 -200 45 -200 45 -200 45
2332572112.0187 -3.0242376 11.867159 -200 45 -200 45 -200 45
2333572228.7048 -3.0267749 11.899018 -200 45 -200 45 -200 45
2334572345.3909 -3.0274038 11.889203 -200 45 -200 45 -200 45
2335572462.077 -3.027226 11.889152 -200 45 -200 45 -200 45
2336572578.7631 -3.0232008 11.87771 -200 45 -200 45 -200 45
2337572695.4492 -3.0188534 11.866558 -200 45 -200 45 -200 45
2338572812.1354 -3.0195475 11.88306 -200 45 -200 45 -200 45
2339572928.8215 -3.0217667 11.900832 -200 45 -200 45 -200 45
2340573045.5076 -3.0255594 11.916843 -200 45 -200 45 -200 45
2341573162.1937 -3.025929 11.92668 -200 45 -200 45 -200 45
2342573278.8798 -3.0246758 11.932079 -200 45 -200 45 -200 45
2343573395.5659 -3.0288911 11.951233 -200 45 -200 45 -200 45
2344573512.252 -3.0313938 11.978762 -200 45 -200 45 -200 45
2345573628.9382 -3.033591 11.986304 -200 45 -200 45 -200 45
2346573745.6243 -3.0365078 12.003355 -200 45 -200 45 -200 45
2347573862.3104 -3.0371473 12.015821 -200 45 -200 45 -200 45
2348573978.9965 -3.0377145 12.030996 -200 45 -200 45 -200 45
2349574095.6826 -3.0387189 12.048409 -200 45 -200 45 -200 45
2350574212.3687 -3.0409451 12.069073 -200 45 -200 45 -200 45
2351574329.0548 -3.0381334 12.062412 -200 45 -200 45 -200 45
2352574445.741 -3.0355151 12.051971 -200 45 -200 45 -200 45
2353574562.4271 -3.031755 12.041946 -200 45 -200 45 -200 45
2354574679.1132 -3.0320289 12.050969 -200 45 -200 45 -200 45
2355574795.7993 -3.0329688 12.061525 -200 45 -200 45 -200 45
2356574912.4854 -3.0387244 12.092953 -200 45 -200 45 -200 45
2357575029.1715 -3.0383976 12.114482 -200 45 -200 45 -200 45
2358575145.8576 -3.0391402 12.110675 -200 45 -200 45 -200 45
2359575262.5438 -3.040132 12.126769 -200 45 -200 45 -200 45
2360575379.2299 -3.0427661 12.150199 -200 45 -200 45 -200 45
2361575495.916 -3.0463254 12.171038 -200 45 -200 45 -200 45
2362575612.6021 -3.0478635 12.188328 -200 45 -200 45 -200 45
2363575729.2882 -3.0503912 12.192927 -200 45 -200 45 -200 45
2364575845.9743 -3.049974 12.202044 -200 45 -200 45 -200 45
2365575962.6604 -3.0515306 12.232344 -200 45 -200 45 -200 45
2366576079.3466 -3.0532436 12.237209 -200 45 -200 45 -200 45
2367576196.0327 -3.0540953 12.242069 -200 45 -200 45 -200 45
2368576312.7188 -3.0495243 12.21332 -200 45 -200 45 -200 45
2369576429.4049 -3.0440919 12.20892 -200 45 -200 45 -200 45
2370576546.091 -3.0443599 12.211828 -200 45 -200 45 -200 45
2371576662.7771 -3.0462465 12.243984 -200 45 -200 45 -200 45
2372576779.4632 -3.0490785 12.260897 -200 45 -200 45 -200 45
2373576896.1494 -3.0519314 12.267714 -200 45 -200 45 -200 45
2374577012.8355 -3.0500841 12.272099 -200 45 -200 45 -200 45
2375577129.5216 -3.0528526 12.28843 -200 45 -200 45 -200 45
2376577246.2077 -3.0558641 12.303226 -200 45 -200 45 -200 45
2377577362.8938 -3.057941 12.326474 -200 45 -200 45 -200 45
2378577479.5799 -3.0622857 12.3442 -200 45 -200 45 -200 45
2379577596.266 -3.0616269 12.35274 -200 45 -200 45 -200 45
2380577712.9522 -3.0607047 12.368902 -200 45 -200 45 -200 45
2381577829.6383 -3.062674 12.390941 -200 45 -200 45 -200 45
2382577946.3244 -3.0656354 12.400763 -200 45 -200 45 -200 45
2383578063.0105 -3.0661256 12.406652 -200 45 -200 45 -200 45
2384578179.6966 -3.0622582 12.397753 -200 45 -200 45 -200 45
2385578296.3827 -3.058006 12.37457 -200 45 -200 45 -200 45
2386578413.0688 -3.0570638 12.39247 -200 45 -200 45 -200 45
2387578529.755 -3.057574 12.404696 -200 45 -200 45 -200 45
2388578646.4411 -3.0633831 12.425357 -200 45 -200 45 -200 45
2389578763.1272 -3.0636585 12.433234 -200 45 -200 45 -200 45
2390578879.8133 -3.0632253 12.434165 -200 45 -200 45 -200 45
2391578996.4994 -3.0644989 12.454023 -200 45 -200 45 -200 45
2392579113.1855 -3.0679641 12.472775 -200 45 -200 45 -200 45
2393579229.8716 -3.0701046 12.49187 -200 45 -200 45 -200 45
2394579346.5578 -3.0749109 12.504855 -200 45 -200 45 -200 45
2395579463.2439 -3.0766196 12.515997 -200 45 -200 45 -200 45
2396579579.93 -3.0759909 12.533478 -200 45 -200 45 -200 45
2397579696.6161 -3.0773864 12.555609 -200 45 -200 45 -200 45
2398579813.3022 -3.0805776 12.576528 -200 45 -200 45 -200 45
2399579929.9883 -3.0770888 12.575888 -200 45 -200 45 -200 45
2400580046.6744 -3.0756235 12.581285 -200 45 -200 45 -200 45
2401580163.3606 -3.0715075 12.540538 -200 45 -200 45 -200 45
2402580280.0467 -3.0705817 12.55971 -200 45 -200 45 -200 45
2403580396.7328 -3.0711691 12.567078 -200 45 -200 45 -200 45
2404580513.4189 -3.0750587 12.60865 -200 45 -200 45 -200 45
2405580630.105 -3.0782664 12.614338 -200 45 -200 45 -200 45
2406580746.7911 -3.0771499 12.61874 -200 45 -200 45 -200 45
2407580863.4772 -3.0754011 12.615784 -200 45 -200 45 -200 45
2408580980.1634 -3.0801678 12.646924 -200 45 -200 45 -200 45
2409581096.8495 -3.0826216 12.654684 -200 45 -200 45 -200 45
2410581213.5356 -3.0891855 12.67228 -200 45 -200 45 -200 45
2411581330.2217 -3.0891132 12.68448 -200 45 -200 45 -200 45
2412581446.9078 -3.089658 12.698533 -200 45 -200 45 -200 45
2413581563.5939 -3.0911508 12.724484 -200 45 -200 45 -200 45
2414581680.28 -3.0917611 12.736352 -200 45 -200 45 -200 45
2415581796.9662 -3.0925992 12.758226 -200 45 -200 45 -200 45
2416581913.6523 -3.0903933 12.739181 -200 45 -200 45 -200 45
2417582030.3384 -3.0862064 12.736021 -200 45 -200 45 -200 45
2418582147.0245 -3.0841687 12.72294 -200 45 -200 45 -200 45
2419582263.7106 -3.0848062 12.738077 -200 45 -200 45 -200 45
2420582380.3967 -3.0879672 12.76446 -200 45 -200 45 -200 45
2421582497.0828 -3.0908935 12.769101 -200 45 -200 45 -200 45
2422582613.769 -3.0920339 12.792446 -200 45 -200 45 -200 45
2423582730.4551 -3.0899577 12.779174 -200 45 -200 45 -200 45
2424582847.1412 -3.0950434 12.806195 -200 45 -200 45 -200 45
2425582963.8273 -3.0975463 12.828568 -200 45 -200 45 -200 45
2426583080.5134 -3.1007514 12.851365 -200 45 -200 45 -200 45
2427583197.1995 -3.1031129 12.851665 -200 45 -200 45 -200 45
2428583313.8856 -3.1031945 12.873576 -200 45 -200 45 -200 45
2429583430.5718 -3.1032164 12.887397 -200 45 -200 45 -200 45
2430583547.2579 -3.1072094 12.906422 -200 45 -200 45 -200 45
2431583663.944 -3.1080656 12.931219 -200 45 -200 45 -200 45
2432583780.6301 -3.105 12.906575 -200 45 -200 45 -200 45
2433583897.3162 -3.0997672 12.888917 -200 45 -200 45 -200 45
2434584014.0023 -3.0969379 12.901073 -200 45 -200 45 -200 45
2435584130.6884 -3.0990858 12.905246 -200 45 -200 45 -200 45
2436584247.3746 -3.1055155 12.928207 -200 45 -200 45 -200 45
2437584364.0607 -3.1060081 12.944629 -200 45 -200 45 -200 45
2438584480.7468 -3.1072848 12.96213 -200 45 -200 45 -200 45
2439584597.4329 -3.1041403 12.965833 -200 45 -200 45 -200 45
2440584714.119 -3.1096222 12.974532 -200 45 -200 45 -200 45
2441584830.8051 -3.1105826 13.002318 -200 45 -200 45 -200 45
2442584947.4912 -3.1147857 13.030726 -200 45 -200 45 -200 45
2443585064.1774 -3.1193614 13.032394 -200 45 -200 45 -200 45
2444585180.8635 -3.1178429 13.035896 -200 45 -200 45 -200 45
2445585297.5496 -3.1181538 13.057933 -200 45 -200 45 -200 45
2446585414.2357 -3.1228883 13.084531 -200 45 -200 45 -200 45
2447585530.9218 -3.1212006 13.077602 -200 45 -200 45 -200 45
2448585647.6079 -3.1204479 13.083932 -200 45 -200 45 -200 45
2449585764.294 -3.1167965 13.065422 -200 45 -200 45 -200 45
2450585880.9802 -3.113852 13.065359 -200 45 -200 45 -200 45
2451585997.6663 -3.1152461 13.08035 -200 45 -200 45 -200 45
2452586114.3524 -3.118818 13.099085 -200 45 -200 45 -200 45
2453586231.0385 -3.1212308 13.117759 -200 45 -200 45 -200 45
2454586347.7246 -3.121702 13.12406 -200 45 -200 45 -200 45
2455586464.4107 -3.1215966 13.12267 -200 45 -200 45 -200 45
2456586581.0968 -3.1233351 13.1582 -200 45 -200 45 -200 45
2457586697.783 -3.1267622 13.163683 -200 45 -200 45 -200 45
2458586814.4691 -3.1306424 13.191104 -200 45 -200 45 -200 45
2459586931.1552 -3.1338811 13.201545 -200 45 -200 45 -200 45
2460587047.8413 -3.1348407 13.213078 -200 45 -200 45 -200 45
2461587164.5274 -3.1338947 13.234434 -200 45 -200 45 -200 45
2462587281.2135 -3.1363344 13.246896 -200 45 -200 45 -200 45
2463587397.8997 -3.1357214 13.260003 -200 45 -200 45 -200 45
2464587514.5858 -3.1357555 13.249196 -200 45 -200 45 -200 45
2465587631.2719 -3.1324003 13.230092 -200 45 -200 45 -200 45
2466587747.958 -3.1278884 13.227193 -200 45 -200 45 -200 45
2467587864.6441 -3.131973 13.245869 -200 45 -200 45 -200 45
2468587981.3302 -3.1350815 13.263519 -200 45 -200 45 -200 45
2469588098.0163 -3.1377261 13.28241 -200 45 -200 45 -200 45
2470588214.7025 -3.1380949 13.296181 -200 45 -200 45 -200 45
2471588331.3886 -3.1363921 13.294274 -200 45 -200 45 -200 45
2472588448.0747 -3.1384485 13.323341 -200 45 -200 45 -200 45
2473588564.7608 -3.1423554 13.32785 -200 45 -200 45 -200 45
2474588681.4469 -3.1456633 13.357525 -200 45 -200 45 -200 45
2475588798.133 -3.1471109 13.368458 -200 45 -200 45 -200 45
2476588914.8191 -3.1484437 13.381483 -200 45 -200 45 -200 45
2477589031.5053 -3.150434 13.397068 -200 45 -200 45 -200 45
2478589148.1914 -3.1527436 13.414837 -200 45 -200 45 -200 45
2479589264.8775 -3.15255 13.427039 -200 45 -200 45 -200 45
2480589381.5636 -3.1518226 13.424872 -200 45 -200 45 -200 45
2481589498.2497 -3.149816 13.419372 -200 45 -200 45 -200 45
2482589614.9358 -3.1459124 13.392076 -200 45 -200 45 -200 45
2483589731.6219 -3.1481574 13.413192 -200 45 -200 45 -200 45
2484589848.3081 -3.1515589 13.433322 -200 45 -200 45 -200 45
2485589964.9942 -3.154402 13.456331 -200 45 -200 45 -200 45
2486590081.6803 -3.1555624 13.463238 -200 45 -200 45 -200 45
2487590198.3664 -3.1549938 13.46249 -200 45 -200 45 -200 45
2488590315.0525 -3.1563427 13.487597 -200 45 -200 45 -200 45
2489590431.7386 -3.1590917 13.505854 -200 45 -200 45 -200 45
2490590548.4247 -3.165231 13.52947 -200 45 -200 45 -200 45
2491590665.1109 -3.1669123 13.542443 -200 45 -200 45 -200 45
2492590781.797 -3.1670611 13.545743 -200 45 -200 45 -200 45
2493590898.4831 -3.1683633 13.55894 -200 45 -200 45 -200 45
2494591015.1692 -3.1714151 13.587398 -200 45 -200 45 -200 45
2495591131.8553 -3.173979 13.585736 -200 45 -200 45 -200 45
2496591248.5414 -3.1730106 13.602052 -200 45 -200 45 -200 45
2497591365.2275 -3.1700704 13.578339 -200 45 -200 45 -200 45
2498591481.9137 -3.1650634 13.552652 -200 45 -200 45 -200 45
2499591598.5998 -3.1668839 13.583961 -200 45 -200 45 -200 45
2500591715.2859 -3.1729946 13.595735 -200 45 -200 45 -200 45
2501591831.972 -3.1723943 13.618205 -200 45 -200 45 -200 45
2502591948.6581 -3.1745477 13.629629 -200 45 -200 45 -200 45
2503592065.3442 -3.1759117 13.633903 -200 45 -200 45 -200 45
2504592182.0303 -3.1785321 13.636316 -200 45 -200 45 -200 45
2505592298.7165 -3.1827478 13.669072 -200 45 -200 45 -200 45
2506592415.4026 -3.1856949 13.685337 -200 45 -200 45 -200 45
2507592532.0887 -3.188869 13.706739 -200 45 -200 45 -200 45
2508592648.7748 -3.1887863 13.71962 -200 45 -200 45 -200 45
2509592765.4609 -3.1912072 13.734455 -200 45 -200 45 -200 45
2510592882.147 -3.1932404 13.75472 -200 45 -200 45 -200 45
2511592998.8331 -3.1947725 13.760303 -200 45 -200 45 -200 45
2512593115.5193 -3.1930456 13.739255 -200 45 -200 45 -200 45
2513593232.2054 -3.1884534 13.741213 -200 45 -200 45 -200 45
2514593348.8915 -3.1882603 13.736242 -200 45 -200 45 -200 45
2515593465.5776 -3.1885133 13.74278 -200 45 -200 45 -200 45
2516593582.2637 -3.1934967 13.77133 -200 45 -200 45 -200 45
2517593698.9498 -3.1967824 13.784571 -200 45 -200 45 -200 45
2518593815.6359 -3.1969838 13.800715 -200 45 -200 45 -200 45
2519593932.3221 -3.199084 13.794766 -200 45 -200 45 -200 45
2520594049.0082 -3.2019639 13.821982 -200 45 -200 45 -200 45
2521594165.6943 -3.2050843 13.828699 -200 45 -200 45 -200 45
2522594282.3804 -3.2107811 13.858027 -200 45 -200 45 -200 45
2523594399.0665 -3.2118788 13.861443 -200 45 -200 45 -200 45
2524594515.7526 -3.213501 13.881968 -200 45 -200 45 -200 45
2525594632.4387 -3.2168391 13.887928 -200 45 -200 45 -200 45
2526594749.1249 -3.2186568 13.914211 -200 45 -200 45 -200 45
2527594865.811 -3.222966 13.918822 -200 45 -200 45 -200 45
2528594982.4971 -3.218986 13.904795 -200 45 -200 45 -200 45
2529595099.1832 -3.2163961 13.899867 -200 45 -200 45 -200 45
2530595215.8693 -3.2152669 13.886847 -200 45 -200 45 -200 45
2531595332.5554 -3.2181671 13.908295 -200 45 -200 45 -200 45
2532595449.2415 -3.2227356 13.935027 -200 45 -200 45 -200 45
2533595565.9277 -3.2249441 13.942831 -200 45 -200 45 -200 45
2534595682.6138 -3.226109 13.968734 -200 45 -200 45 -200 45
2535595799.2999 -3.2303822 13.94611 -200 45 -200 45 -200 45
2536595915.986 -3.2324119 13.978292 -200 45 -200 45 -200 45
2537596032.6721 -3.2356384 13.995776 -200 45 -200 45 -200 45
2538596149.3582 -3.2444882 14.017701 -200 45 -200 45 -200 45
2539596266.0443 -3.2460172 14.025417 -200 45 -200 45 -200 45
2540596382.7305 -3.2480123 14.041712 -200 45 -200 45 -200 45
2541596499.4166 -3.2493691 14.042705 -200 45 -200 45 -200 45
2542596616.1027 -3.2535567 14.07139 -200 45 -200 45 -200 45
2543596732.7888 -3.2562227 14.070652 -200 45 -200 45 -200 45
2544596849.4749 -3.2559023 14.070794 -200 45 -200 45 -200 45
2545596966.161 -3.2544227 14.053611 -200 45 -200 45 -200 45
2546597082.8471 -3.2573247 14.04965 -200 45 -200 45 -200 45
2547597199.5333 -3.2557957 14.066033 -200 45 -200 45 -200 45
2548597316.2194 -3.2649922 14.084944 -200 45 -200 45 -200 45
2549597432.9055 -3.2670195 14.087869 -200 45 -200 45 -200 45
2550597549.5916 -3.2705779 14.103157 -200 45 -200 45 -200 45
2551597666.2777 -3.2741568 14.097578 -200 45 -200 45 -200 45
2552597782.9638 -3.2800047 14.128289 -200 45 -200 45 -200 45
2553597899.6499 -3.2853782 14.146078 -200 45 -200 45 -200 45
2554598016.3361 -3.2921622 14.159013 -200 45 -200 45 -200 45
2555598133.0222 -3.2978423 14.171298 -200 45 -200 45 -200 45
2556598249.7083 -3.3001287 14.191458 -200 45 -200 45 -200 45
2557598366.3944 -3.3050063 14.207946 -200 45 -200 45 -200 45
2558598483.0805 -3.3114054 14.214045 -200 45 -200 45 -200 45
2559598599.7666 -3.3147373 14.211576 -200 45 -200 45 -200 45
2560598716.4527 -3.3200676 14.204275 -200 45 -200 45 -200 45
2561598833.1389 -3.3183441 14.194532 -200 45 -200 45 -200 45
2562598949.825 -3.3216243 14.199569 -200 45 -200 45 -200 45
2563599066.5111 -3.3285694 14.201982 -200 45 -200 45 -200 45
2564599183.1972 -3.3370235 14.228092 -200 45 -200 45 -200 45
2565599299.8833 -3.3463516 14.231493 -200 45 -200 45 -200 45
2566599416.5694 -3.3532929 14.244291 -200 45 -200 45 -200 45
2567599533.2555 -3.3596897 14.252884 -200 45 -200 45 -200 45
2568599649.9417 -3.3707364 14.273772 -200 45 -200 45 -200 45
2569599766.6278 -3.3829675 14.290135 -200 45 -200 45 -200 45
2570599883.3139 -3.3943806 14.294984 -200 45 -200 45 -200 45
2571600000 -3.4085808 14.303907 -200 45 -200 45 -200 45
2572600116.6861 -3.4199536 14.327818 -200 45 -200 45 -200 45
2573600233.3722 -3.4311066 14.335964 -200 45 -200 45 -200 45
2574600350.0583 -3.4490499 14.344092 -200 45 -200 45 -200 45
2575600466.7445 -3.4644258 14.3733 -200 45 -200 45 -200 45
2576600583.4306 -3.4825597 14.373826 -200 45 -200 45 -200 45
2577600700.1167 -3.498877 14.366469 -200 45 -200 45 -200 45
2578600816.8028 -3.524092 14.390215 -200 45 -200 45 -200 45
2579600933.4889 -3.5521967 14.430473 -200 45 -200 45 -200 45
2580601050.175 -3.5934331 14.526088 -200 45 -200 45 -200 45
2581601166.8611 -3.6366107 14.603996 -200 45 -200 45 -200 45
2582601283.5473 -3.685895 14.764531 -200 45 -200 45 -200 45
2583601400.2334 -3.7446318 15.021149 -200 45 -200 45 -200 45
2584601516.9195 -3.8115275 15.427225 -200 45 -200 45 -200 45
2585601633.6056 -3.8751254 16.083414 -200 45 -200 45 -200 45
2586601750.2917 -3.9009969 16.991467 -200 45 -200 45 -200 45
2587601866.9778 -3.8675823 17.947906 -200 45 -200 45 -200 45
2588601983.6639 -3.7781641 18.706268 -200 45 -200 45 -200 45
2589602100.3501 -3.6719553 19.120243 -200 45 -200 45 -200 45
2590602217.0362 -3.5798798 19.308695 -200 45 -200 45 -200 45
2591602333.7223 -3.5087116 19.382288 -200 45 -200 45 -200 45
2592602450.4084 -3.4396253 19.44693 -200 45 -200 45 -200 45
2593602567.0945 -3.3676767 19.497564 -200 45 -200 45 -200 45
2594602683.7806 -3.2976017 19.505398 -200 45 -200 45 -200 45
2595602800.4667 -3.2308514 19.412228 -200 45 -200 45 -200 45
2596602917.1529 -3.1790853 19.273373 -200 45 -200 45 -200 45
2597603033.839 -3.1359165 19.104193 -200 45 -200 45 -200 45
2598603150.5251 -3.0967467 18.960981 -200 45 -200 45 -200 45
2599603267.2112 -3.0559812 18.810831 -200 45 -200 45 -200 45
2600603383.8973 -3.0196612 18.634773 -200 45 -200 45 -200 45
2601603500.5834 -2.9902728 18.42857 -200 45 -200 45 -200 45
2602603617.2695 -2.9639201 18.184839 -200 45 -200 45 -200 45
2603603733.9557 -2.9447505 17.893459 -200 45 -200 45 -200 45
2604603850.6418 -2.9355214 17.603159 -200 45 -200 45 -200 45
2605603967.3279 -2.941263 17.347908 -200 45 -200 45 -200 45
2606604084.014 -2.9529157 17.155434 -200 45 -200 45 -200 45
2607604200.7001 -2.9645057 16.996908 -200 45 -200 45 -200 45
2608604317.3862 -2.9720869 16.878183 -200 45 -200 45 -200 45
2609604434.0723 -2.9761939 16.779406 -200 45 -200 45 -200 45
2610604550.7585 -2.9869192 16.719225 -200 45 -200 45 -200 45
2611604667.4446 -2.9945362 16.693169 -200 45 -200 45 -200 45
2612604784.1307 -3.0027645 16.697008 -200 45 -200 45 -200 45
2613604900.8168 -3.0063071 16.689447 -200 45 -200 45 -200 45
2614605017.5029 -3.0062802 16.689722 -200 45 -200 45 -200 45
2615605134.189 -3.0074189 16.670979 -200 45 -200 45 -200 45
2616605250.8751 -3.0100753 16.688894 -200 45 -200 45 -200 45
2617605367.5613 -3.0116425 16.70532 -200 45 -200 45 -200 45
2618605484.2474 -3.0114949 16.736563 -200 45 -200 45 -200 45
2619605600.9335 -3.0074861 16.784241 -200 45 -200 45 -200 45
2620605717.6196 -2.9939992 16.840391 -200 45 -200 45 -200 45
2621605834.3057 -2.9699152 16.896036 -200 45 -200 45 -200 45
2622605950.9918 -2.9402189 16.832153 -200 45 -200 45 -200 45
2623606067.6779 -2.9122126 16.664497 -200 45 -200 45 -200 45
2624606184.3641 -2.893059 16.422009 -200 45 -200 45 -200 45
2625606301.0502 -2.8877473 16.162382 -200 45 -200 45 -200 45
2626606417.7363 -2.8964977 15.973936 -200 45 -200 45 -200 45
2627606534.4224 -2.9081244 15.839468 -200 45 -200 45 -200 45
2628606651.1085 -2.9268627 15.742377 -200 45 -200 45 -200 45
2629606767.7946 -2.9404144 15.673611 -200 45 -200 45 -200 45
2630606884.4807 -2.9535477 15.59654 -200 45 -200 45 -200 45
2631607001.1669 -2.9646854 15.563158 -200 45 -200 45 -200 45
2632607117.853 -2.9794183 15.553757 -200 45 -200 45 -200 45
2633607234.5391 -2.9918468 15.534388 -200 45 -200 45 -200 45
2634607351.2252 -3.0044701 15.517571 -200 45 -200 45 -200 45
2635607467.9113 -3.0115824 15.511927 -200 45 -200 45 -200 45
2636607584.5974 -3.0192919 15.512089 -200 45 -200 45 -200 45
2637607701.2835 -3.0276241 15.508304 -200 45 -200 45 -200 45
2638607817.9697 -3.0357199 15.501186 -200 45 -200 45 -200 45
2639607934.6558 -3.0386152 15.49338 -200 45 -200 45 -200 45
2640608051.3419 -3.0441082 15.462607 -200 45 -200 45 -200 45
2641608168.028 -3.0444293 15.439872 -200 45 -200 45 -200 45
2642608284.7141 -3.0486577 15.447513 -200 45 -200 45 -200 45
2643608401.4002 -3.0530233 15.462186 -200 45 -200 45 -200 45
2644608518.0863 -3.0605216 15.481286 -200 45 -200 45 -200 45
2645608634.7725 -3.0669599 15.481864 -200 45 -200 45 -200 45
2646608751.4586 -3.0698335 15.465432 -200 45 -200 45 -200 45
2647608868.1447 -3.0741911 15.477719 -200 45 -200 45 -200 45
2648608984.8308 -3.0797126 15.486833 -200 45 -200 45 -200 45
2649609101.5169 -3.0875411 15.515791 -200 45 -200 45 -200 45
2650609218.203 -3.093914 15.5222 -200 45 -200 45 -200 45
2651609334.8891 -3.0951648 15.530408 -200 45 -200 45 -200 45
2652609451.5753 -3.097908 15.536655 -200 45 -200 45 -200 45
2653609568.2614 -3.1026127 15.540079 -200 45 -200 45 -200 45
2654609684.9475 -3.106777 15.56859 -200 45 -200 45 -200 45
2655609801.6336 -3.1078839 15.563394 -200 45 -200 45 -200 45
2656609918.3197 -3.1065331 15.5684 -200 45 -200 45 -200 45
2657610035.0058 -3.1070139 15.529929 -200 45 -200 45 -200 45
2658610151.6919 -3.1074312 15.53748 -200 45 -200 45 -200 45
2659610268.3781 -3.1113756 15.547259 -200 45 -200 45 -200 45
2660610385.0642 -3.1151361 15.565143 -200 45 -200 45 -200 45
2661610501.7503 -3.1189847 15.581339 -200 45 -200 45 -200 45
2662610618.4364 -3.1191401 15.581342 -200 45 -200 45 -200 45
2663610735.1225 -3.1231651 15.592624 -200 45 -200 45 -200 45
2664610851.8086 -3.1269174 15.6083 -200 45 -200 45 -200 45
2665610968.4947 -3.132652 15.636005 -200 45 -200 45 -200 45
2666611085.1809 -3.1367333 15.642952 -200 45 -200 45 -200 45
2667611201.867 -3.1410749 15.655738 -200 45 -200 45 -200 45
2668611318.5531 -3.1400778 15.664056 -200 45 -200 45 -200 45
2669611435.2392 -3.1429489 15.679559 -200 45 -200 45 -200 45
2670611551.9253 -3.1461465 15.698836 -200 45 -200 45 -200 45
2671611668.6114 -3.1456757 15.695763 -200 45 -200 45 -200 45
2672611785.2975 -3.1451735 15.677859 -200 45 -200 45 -200 45
2673611901.9837 -3.1408007 15.652238 -200 45 -200 45 -200 45
2674612018.6698 -3.1439033 15.665787 -200 45 -200 45 -200 45
2675612135.3559 -3.1464014 15.698531 -200 45 -200 45 -200 45
2676612252.042 -3.1506853 15.715769 -200 45 -200 45 -200 45
2677612368.7281 -3.1512003 15.711078 -200 45 -200 45 -200 45
2678612485.4142 -3.1520269 15.728285 -200 45 -200 45 -200 45
2679612602.1004 -3.1546533 15.730704 -200 45 -200 45 -200 45
2680612718.7865 -3.1593275 15.757377 -200 45 -200 45 -200 45
2681612835.4726 -3.1645491 15.776663 -200 45 -200 45 -200 45
2682612952.1587 -3.1669121 15.790303 -200 45 -200 45 -200 45
2683613068.8448 -3.1679504 15.803156 -200 45 -200 45 -200 45
2684613185.5309 -3.1698031 15.808439 -200 45 -200 45 -200 45
2685613302.217 -3.1724265 15.840519 -200 45 -200 45 -200 45
2686613418.9032 -3.174433 15.853195 -200 45 -200 45 -200 45
2687613535.5893 -3.1759157 15.840334 -200 45 -200 45 -200 45
2688613652.2754 -3.1726911 15.826645 -200 45 -200 45 -200 45
2689613768.9615 -3.1690481 15.814041 -200 45 -200 45 -200 45
2690613885.6476 -3.1712918 15.817108 -200 45 -200 45 -200 45
2691614002.3337 -3.1724603 15.852835 -200 45 -200 45 -200 45
2692614119.0198 -3.1765149 15.854811 -200 45 -200 45 -200 45
2693614235.706 -3.1782775 15.877311 -200 45 -200 45 -200 45
2694614352.3921 -3.1799188 15.871968 -200 45 -200 45 -200 45
2695614469.0782 -3.1817064 15.888422 -200 45 -200 45 -200 45
2696614585.7643 -3.184885 15.91989 -200 45 -200 45 -200 45
2697614702.4504 -3.1892903 15.92982 -200 45 -200 45 -200 45
2698614819.1365 -3.1914856 15.93713 -200 45 -200 45 -200 45
2699614935.8226 -3.1943123 15.963503 -200 45 -200 45 -200 45
2700615052.5088 -3.1949024 15.969553 -200 45 -200 45 -200 45
2701615169.1949 -3.1966891 15.989325 -200 45 -200 45 -200 45
2702615285.881 -3.1998954 16.010538 -200 45 -200 45 -200 45
2703615402.5671 -3.1973746 16.009956 -200 45 -200 45 -200 45
2704615519.2532 -3.1957073 15.99493 -200 45 -200 45 -200 45
2705615635.9393 -3.1926169 15.986225 -200 45 -200 45 -200 45
2706615752.6254 -3.1942606 15.997946 -200 45 -200 45 -200 45
2707615869.3116 -3.1955092 16.01392 -200 45 -200 45 -200 45
2708615985.9977 -3.1995971 16.033253 -200 45 -200 45 -200 45
2709616102.6838 -3.1998782 16.039574 -200 45 -200 45 -200 45
2710616219.3699 -3.2012084 16.050526 -200 45 -200 45 -200 45
2711616336.056 -3.2031701 16.071587 -200 45 -200 45 -200 45
2712616452.7421 -3.2056978 16.091597 -200 45 -200 45 -200 45
2713616569.4282 -3.2106628 16.112696 -200 45 -200 45 -200 45
2714616686.1144 -3.2132423 16.120775 -200 45 -200 45 -200 45
2715616802.8005 -3.2159886 16.131777 -200 45 -200 45 -200 45
2716616919.4866 -3.2156529 16.148199 -200 45 -200 45 -200 45
2717617036.1727 -3.2168148 16.173386 -200 45 -200 45 -200 45
2718617152.8588 -3.2181311 16.171146 -200 45 -200 45 -200 45
2719617269.5449 -3.2195146 16.171049 -200 45 -200 45 -200 45
2720617386.231 -3.2156281 16.150757 -200 45 -200 45 -200 45
2721617502.9172 -3.2133856 16.157497 -200 45 -200 45 -200 45
2722617619.6033 -3.2140818 16.176641 -200 45 -200 45 -200 45
2723617736.2894 -3.2173538 16.180782 -200 45 -200 45 -200 45
2724617852.9755 -3.2206128 16.195885 -200 45 -200 45 -200 45
2725617969.6616 -3.2215669 16.218384 -200 45 -200 45 -200 45
2726618086.3477 -3.2201331 16.21389 -200 45 -200 45 -200 45
2727618203.0338 -3.2238603 16.233309 -200 45 -200 45 -200 45
2728618319.72 -3.2277496 16.256308 -200 45 -200 45 -200 45
2729618436.4061 -3.2324195 16.282202 -200 45 -200 45 -200 45
2730618553.0922 -3.2337687 16.289499 -200 45 -200 45 -200 45
2731618669.7783 -3.2311871 16.298904 -200 45 -200 45 -200 45
2732618786.4644 -3.2351332 16.319298 -200 45 -200 45 -200 45
2733618903.1505 -3.2368064 16.34149 -200 45 -200 45 -200 45
2734619019.8366 -3.2396374 16.353924 -200 45 -200 45 -200 45
2735619136.5228 -3.2379091 16.353989 -200 45 -200 45 -200 45
2736619253.2089 -3.2359262 16.335146 -200 45 -200 45 -200 45
2737619369.895 -3.2319903 16.326031 -200 45 -200 45 -200 45
2738619486.5811 -3.2331014 16.345617 -200 45 -200 45 -200 45
2739619603.2672 -3.2361727 16.368793 -200 45 -200 45 -200 45
2740619719.9533 -3.2368934 16.38839 -200 45 -200 45 -200 45
2741619836.6394 -3.2394905 16.392195 -200 45 -200 45 -200 45
2742619953.3256 -3.239464 16.395454 -200 45 -200 45 -200 45
2743620070.0117 -3.2423136 16.421345 -200 45 -200 45 -200 45
2744620186.6978 -3.2450204 16.433466 -200 45 -200 45 -200 45
2745620303.3839 -3.2496555 16.461227 -200 45 -200 45 -200 45
2746620420.07 -3.2540159 16.463465 -200 45 -200 45 -200 45
2747620536.7561 -3.2536809 16.483295 -200 45 -200 45 -200 45
2748620653.4422 -3.2537615 16.497231 -200 45 -200 45 -200 45
2749620770.1284 -3.256633 16.515596 -200 45 -200 45 -200 45
2750620886.8145 -3.2589829 16.527399 -200 45 -200 45 -200 45
2751621003.5006 -3.2569335 16.536833 -200 45 -200 45 -200 45
2752621120.1867 -3.2541142 16.515434 -200 45 -200 45 -200 45
2753621236.8728 -3.2518766 16.506804 -200 45 -200 45 -200 45
2754621353.5589 -3.2527204 16.51059 -200 45 -200 45 -200 45
2755621470.245 -3.2562168 16.536489 -200 45 -200 45 -200 45
2756621586.9312 -3.2579787 16.56282 -200 45 -200 45 -200 45
2757621703.6173 -3.2587023 16.574749 -200 45 -200 45 -200 45
2758621820.3034 -3.2601428 16.57073 -200 45 -200 45 -200 45
2759621936.9895 -3.2622919 16.592749 -200 45 -200 45 -200 45
2760622053.6756 -3.2671394 16.612352 -200 45 -200 45 -200 45
2761622170.3617 -3.271486 16.629498 -200 45 -200 45 -200 45
2762622287.0478 -3.2741945 16.644491 -200 45 -200 45 -200 45
2763622403.734 -3.2758276 16.658535 -200 45 -200 45 -200 45
2764622520.4201 -3.2762983 16.665751 -200 45 -200 45 -200 45
2765622637.1062 -3.2785149 16.697256 -200 45 -200 45 -200 45
2766622753.7923 -3.2816303 16.699717 -200 45 -200 45 -200 45
2767622870.4784 -3.2802413 16.697626 -200 45 -200 45 -200 45
2768622987.1645 -3.2771099 16.671104 -200 45 -200 45 -200 45
2769623103.8506 -3.2752218 16.684097 -200 45 -200 45 -200 45
2770623220.5368 -3.2794533 16.703394 -200 45 -200 45 -200 45
2771623337.2229 -3.2825115 16.714481 -200 45 -200 45 -200 45
2772623453.909 -3.2857242 16.742369 -200 45 -200 45 -200 45
2773623570.5951 -3.2875354 16.747265 -200 45 -200 45 -200 45
2774623687.2812 -3.2876594 16.74612 -200 45 -200 45 -200 45
2775623803.9673 -3.2923563 16.762232 -200 45 -200 45 -200 45
2776623920.6534 -3.2954071 16.791721 -200 45 -200 45 -200 45
2777624037.3396 -3.301868 16.806131 -200 45 -200 45 -200 45
2778624154.0257 -3.305321 16.821455 -200 45 -200 45 -200 45
2779624270.7118 -3.3067446 16.845543 -200 45 -200 45 -200 45
2780624387.3979 -3.310128 16.834332 -200 45 -200 45 -200 45
2781624504.084 -3.3141682 16.861387 -200 45 -200 45 -200 45
2782624620.7701 -3.3181212 16.873854 -200 45 -200 45 -200 45
2783624737.4562 -3.3197901 16.876558 -200 45 -200 45 -200 45
2784624854.1424 -3.317759 16.872868 -200 45 -200 45 -200 45
2785624970.8285 -3.3181045 16.856216 -200 45 -200 45 -200 45
2786625087.5146 -3.323293 16.895073 -200 45 -200 45 -200 45
2787625204.2007 -3.3312221 16.915852 -200 45 -200 45 -200 45
2788625320.8868 -3.3385513 16.949644 -200 45 -200 45 -200 45
2789625437.5729 -3.3443131 16.960831 -200 45 -200 45 -200 45
2790625554.259 -3.3469906 16.975218 -200 45 -200 45 -200 45
2791625670.9452 -3.3579245 17.037968 -200 45 -200 45 -200 45
2792625787.6313 -3.3671188 17.09511 -200 45 -200 45 -200 45
2793625904.3174 -3.3787749 17.156075 -200 45 -200 45 -200 45
2794626021.0035 -3.3868484 17.234518 -200 45 -200 45 -200 45
2795626137.6896 -3.3939297 17.324539 -200 45 -200 45 -200 45
2796626254.3757 -3.3973203 17.413866 -200 45 -200 45 -200 45
2797626371.0618 -3.398473 17.522762 -200 45 -200 45 -200 45
2798626487.748 -3.398787 17.628017 -200 45 -200 45 -200 45
2799626604.4341 -3.3946891 17.728199 -200 45 -200 45 -200 45
2800626721.1202 -3.3823016 17.813833 -200 45 -200 45 -200 45
2801626837.8063 -3.3714826 17.891415 -200 45 -200 45 -200 45
2802626954.4924 -3.3611283 17.978262 -200 45 -200 45 -200 45
2803627071.1785 -3.3508065 18.075766 -200 45 -200 45 -200 45
2804627187.8646 -3.3408034 18.121859 -200 45 -200 45 -200 45
2805627304.5508 -3.3268409 18.169292 -200 45 -200 45 -200 45
2806627421.2369 -3.3128555 18.184278 -200 45 -200 45 -200 45
2807627537.923 -3.303535 18.218906 -200 45 -200 45 -200 45
2808627654.6091 -3.2934718 18.230827 -200 45 -200 45 -200 45
2809627771.2952 -3.285991 18.258417 -200 45 -200 45 -200 45
2810627887.9813 -3.275806 18.251348 -200 45 -200 45 -200 45
2811628004.6674 -3.2635806 18.245405 -200 45 -200 45 -200 45
2812628121.3536 -3.2548921 18.221476 -200 45 -200 45 -200 45
2813628238.0397 -3.2482002 18.197887 -200 45 -200 45 -200 45
2814628354.7258 -3.2387836 18.173933 -200 45 -200 45 -200 45
2815628471.4119 -3.2278836 18.124968 -200 45 -200 45 -200 45
2816628588.098 -3.217854 18.067417 -200 45 -200 45 -200 45
2817628704.7841 -3.2093167 18.010721 -200 45 -200 45 -200 45
2818628821.4702 -3.2053642 17.972139 -200 45 -200 45 -200 45
2819628938.1564 -3.2044928 17.95302 -200 45 -200 45 -200 45
2820629054.8425 -3.2031348 17.916807 -200 45 -200 45 -200 45
2821629171.5286 -3.2014794 17.872185 -200 45 -200 45 -200 45
2822629288.2147 -3.1991396 17.812113 -200 45 -200 45 -200 45
2823629404.9008 -3.2027037 17.78829 -200 45 -200 45 -200 45
2824629521.5869 -3.2050076 17.762421 -200 45 -200 45 -200 45
2825629638.273 -3.2124915 17.73505 -200 45 -200 45 -200 45
2826629754.9592 -3.2127192 17.71973 -200 45 -200 45 -200 45
2827629871.6453 -3.2147369 17.68631 -200 45 -200 45 -200 45
2828629988.3314 -3.2159255 17.67326 -200 45 -200 45 -200 45
2829630105.0175 -3.2197843 17.666473 -200 45 -200 45 -200 45
2830630221.7036 -3.2219067 17.637184 -200 45 -200 45 -200 45
2831630338.3897 -3.2229376 17.613396 -200 45 -200 45 -200 45
2832630455.0758 -3.221524 17.576685 -200 45 -200 45 -200 45
2833630571.762 -3.2209044 17.554449 -200 45 -200 45 -200 45
2834630688.4481 -3.2267003 17.540018 -200 45 -200 45 -200 45
2835630805.1342 -3.2317681 17.565359 -200 45 -200 45 -200 45
2836630921.8203 -3.2339969 17.561821 -200 45 -200 45 -200 45
2837631038.5064 -3.2380888 17.56357 -200 45 -200 45 -200 45
2838631155.1925 -3.2405767 17.555286 -200 45 -200 45 -200 45
2839631271.8786 -3.2457013 17.567055 -200 45 -200 45 -200 45
2840631388.5648 -3.2501547 17.585041 -200 45 -200 45 -200 45
2841631505.2509 -3.2572 17.594095 -200 45 -200 45 -200 45
2842631621.937 -3.2594283 17.602621 -200 45 -200 45 -200 45
2843631738.6231 -3.2624683 17.616253 -200 45 -200 45 -200 45
2844631855.3092 -3.2644875 17.637966 -200 45 -200 45 -200 45
2845631971.9953 -3.2671113 17.652834 -200 45 -200 45 -200 45
2846632088.6814 -3.2682917 17.651991 -200 45 -200 45 -200 45
2847632205.3676 -3.2673066 17.646408 -200 45 -200 45 -200 45
2848632322.0537 -3.2650247 17.629812 -200 45 -200 45 -200 45
2849632438.7398 -3.2638438 17.629606 -200 45 -200 45 -200 45
2850632555.4259 -3.266355 17.644938 -200 45 -200 45 -200 45
2851632672.112 -3.2710693 17.671232 -200 45 -200 45 -200 45
2852632788.7981 -3.2730305 17.681625 -200 45 -200 45 -200 45
2853632905.4842 -3.2741055 17.688185 -200 45 -200 45 -200 45
2854633022.1704 -3.2738969 17.6957 -200 45 -200 45 -200 45
2855633138.8565 -3.2773585 17.714983 -200 45 -200 45 -200 45
2856633255.5426 -3.2817259 17.73778 -200 45 -200 45 -200 45
2857633372.2287 -3.2833152 17.761263 -200 45 -200 45 -200 45
2858633488.9148 -3.2868876 17.766542 -200 45 -200 45 -200 45
2859633605.6009 -3.2879155 17.782436 -200 45 -200 45 -200 45
2860633722.287 -3.2900684 17.796942 -200 45 -200 45 -200 45
2861633838.9732 -3.2915604 17.817158 -200 45 -200 45 -200 45
2862633955.6593 -3.2939951 17.821983 -200 45 -200 45 -200 45
2863634072.3454 -3.2927825 17.811314 -200 45 -200 45 -200 45
2864634189.0315 -3.2877235 17.80415 -200 45 -200 45 -200 45
2865634305.7176 -3.2879806 17.80024 -200 45 -200 45 -200 45
2866634422.4037 -3.2883799 17.813391 -200 45 -200 45 -200 45
2867634539.0898 -3.2928517 17.850145 -200 45 -200 45 -200 45
2868634655.776 -3.2939532 17.856194 -200 45 -200 45 -200 45
2869634772.4621 -3.2954373 17.86751 -200 45 -200 45 -200 45
2870634889.1482 -3.2941935 17.862913 -200 45 -200 45 -200 45
2871635005.8343 -3.2994082 17.89467 -200 45 -200 45 -200 45
2872635122.5204 -3.3012633 17.918278 -200 45 -200 45 -200 45
2873635239.2065 -3.3041832 17.925514 -200 45 -200 45 -200 45
2874635355.8926 -3.3056705 17.940342 -200 45 -200 45 -200 45
2875635472.5788 -3.3063219 17.952688 -200 45 -200 45 -200 45
2876635589.2649 -3.3098814 17.971552 -200 45 -200 45 -200 45
2877635705.951 -3.3107204 17.9827 -200 45 -200 45 -200 45
2878635822.6371 -3.3115149 18 -200 45 -200 45 -200 45
2879635939.3232 -3.3083735 17.985638 -200 45 -200 45 -200 45
2880636056.0093 -3.3047104 17.962393 -200 45 -200 45 -200 45
2881636172.6954 -3.3058562 17.97336 -200 45 -200 45 -200 45
2882636289.3816 -3.3044517 17.988132 -200 45 -200 45 -200 45
2883636406.0677 -3.3107243 18.016598 -200 45 -200 45 -200 45
2884636522.7538 -3.3096249 18.025425 -200 45 -200 45 -200 45
2885636639.4399 -3.313092 18.039017 -200 45 -200 45 -200 45
2886636756.126 -3.3106928 18.021629 -200 45 -200 45 -200 45
2887636872.8121 -3.3170278 18.062668 -200 45 -200 45 -200 45
2888636989.4983 -3.3156509 18.080282 -200 45 -200 45 -200 45
2889637106.1844 -3.3218441 18.111225 -200 45 -200 45 -200 45
2890637222.8705 -3.3246489 18.098358 -200 45 -200 45 -200 45
2891637339.5566 -3.3233151 18.138096 -200 45 -200 45 -200 45
2892637456.2427 -3.3257399 18.139425 -200 45 -200 45 -200 45
2893637572.9288 -3.3267632 18.157021 -200 45 -200 45 -200 45
2894637689.6149 -3.3282523 18.161165 -200 45 -200 45 -200 45
2895637806.3011 -3.3250017 18.151262 -200 45 -200 45 -200 45
2896637922.9872 -3.3194282 18.133184 -200 45 -200 45 -200 45
2897638039.6733 -3.3219864 18.141966 -200 45 -200 45 -200 45
2898638156.3594 -3.32072 18.160675 -200 45 -200 45 -200 45
2899638273.0455 -3.3266699 18.174059 -200 45 -200 45 -200 45
2900638389.7316 -3.3259935 18.195686 -200 45 -200 45 -200 45
2901638506.4177 -3.3273535 18.201881 -200 45 -200 45 -200 45
2902638623.1039 -3.3248622 18.212748 -200 45 -200 45 -200 45
2903638739.79 -3.3297584 18.235315 -200 45 -200 45 -200 45
2904638856.4761 -3.333272 18.248814 -200 45 -200 45 -200 45
2905638973.1622 -3.3365574 18.267645 -200 45 -200 45 -200 45
2906639089.8483 -3.3380575 18.275518 -200 45 -200 45 -200 45
2907639206.5344 -3.3367331 18.286631 -200 45 -200 45 -200 45
2908639323.2205 -3.338376 18.306143 -200 45 -200 45 -200 45
2909639439.9067 -3.3422551 18.330957 -200 45 -200 45 -200 45
2910639556.5928 -3.3417516 18.327124 -200 45 -200 45 -200 45
2911639673.2789 -3.3390305 18.314487 -200 45 -200 45 -200 45
2912639789.965 -3.3363545 18.300909 -200 45 -200 45 -200 45
2913639906.6511 -3.3366454 18.312967 -200 45 -200 45 -200 45
2914640023.3372 -3.3362019 18.320824 -200 45 -200 45 -200 45
2915640140.0233 -3.3410687 18.354618 -200 45 -200 45 -200 45
2916640256.7095 -3.340555 18.358694 -200 45 -200 45 -200 45
2917640373.3956 -3.3411162 18.362194 -200 45 -200 45 -200 45
2918640490.0817 -3.3414183 18.384752 -200 45 -200 45 -200 45
2919640606.7678 -3.3438218 18.405289 -200 45 -200 45 -200 45
2920640723.4539 -3.3478906 18.433546 -200 45 -200 45 -200 45
2921640840.14 -3.3525863 18.433802 -200 45 -200 45 -200 45
2922640956.8261 -3.3518167 18.439375 -200 45 -200 45 -200 45
2923641073.5123 -3.3535521 18.456022 -200 45 -200 45 -200 45
2924641190.1984 -3.3554904 18.472176 -200 45 -200 45 -200 45
2925641306.8845 -3.3560936 18.484818 -200 45 -200 45 -200 45
2926641423.5706 -3.3560309 18.494991 -200 45 -200 45 -200 45
2927641540.2567 -3.3546798 18.478983 -200 45 -200 45 -200 45
2928641656.9428 -3.3514309 18.474573 -200 45 -200 45 -200 45
2929641773.6289 -3.3512428 18.485317 -200 45 -200 45 -200 45
2930641890.3151 -3.3519051 18.504971 -200 45 -200 45 -200 45
2931642007.0012 -3.3554459 18.523077 -200 45 -200 45 -200 45
2932642123.6873 -3.3554037 18.540665 -200 45 -200 45 -200 45
2933642240.3734 -3.356842 18.529762 -200 45 -200 45 -200 45
2934642357.0595 -3.3560891 18.544727 -200 45 -200 45 -200 45
2935642473.7456 -3.3623331 18.574341 -200 45 -200 45 -200 45
2936642590.4317 -3.3641193 18.58363 -200 45 -200 45 -200 45
2937642707.1179 -3.3673372 18.611774 -200 45 -200 45 -200 45
2938642823.804 -3.3680332 18.623146 -200 45 -200 45 -200 45
2939642940.4901 -3.3684731 18.628263 -200 45 -200 45 -200 45
2940643057.1762 -3.370327 18.650177 -200 45 -200 45 -200 45
2941643173.8623 -3.3709688 18.669283 -200 45 -200 45 -200 45
2942643290.5484 -3.3720849 18.670275 -200 45 -200 45 -200 45
2943643407.2345 -3.3693171 18.664392 -200 45 -200 45 -200 45
2944643523.9207 -3.3661494 18.647455 -200 45 -200 45 -200 45
2945643640.6068 -3.3664052 18.653564 -200 45 -200 45 -200 45
2946643757.2929 -3.3656764 18.672796 -200 45 -200 45 -200 45
2947643873.979 -3.3700588 18.708271 -200 45 -200 45 -200 45
2948643990.6651 -3.3723638 18.711248 -200 45 -200 45 -200 45
2949644107.3512 -3.3721805 18.700941 -200 45 -200 45 -200 45
2950644224.0373 -3.3736236 18.718622 -200 45 -200 45 -200 45
2951644340.7235 -3.377744 18.752829 -200 45 -200 45 -200 45
2952644457.4096 -3.3786883 18.763081 -200 45 -200 45 -200 45
2953644574.0957 -3.3828042 18.782717 -200 45 -200 45 -200 45
2954644690.7818 -3.3828185 18.78488 -200 45 -200 45 -200 45
2955644807.4679 -3.3831103 18.818884 -200 45 -200 45 -200 45
2956644924.154 -3.3845851 18.822876 -200 45 -200 45 -200 45
2957645040.8401 -3.3887041 18.84841 -200 45 -200 45 -200 45
2958645157.5263 -3.3865759 18.850042 -200 45 -200 45 -200 45
2959645274.2124 -3.3865979 18.84066 -200 45 -200 45 -200 45
2960645390.8985 -3.3829873 18.82332 -200 45 -200 45 -200 45
2961645507.5846 -3.3820088 18.845089 -200 45 -200 45 -200 45
2962645624.2707 -3.38223 18.857477 -200 45 -200 45 -200 45
2963645740.9568 -3.3866889 18.88493 -200 45 -200 45 -200 45
2964645857.6429 -3.3878088 18.892122 -200 45 -200 45 -200 45
2965645974.3291 -3.3871346 18.904211 -200 45 -200 45 -200 45
2966646091.0152 -3.3901763 18.911608 -200 45 -200 45 -200 45
2967646207.7013 -3.3913295 18.92561 -200 45 -200 45 -200 45
2968646324.3874 -3.3971508 18.950266 -200 45 -200 45 -200 45
2969646441.0735 -3.3980348 18.963644 -200 45 -200 45 -200 45
2970646557.7596 -3.3997827 18.974583 -200 45 -200 45 -200 45
2971646674.4457 -3.400316 18.994455 -200 45 -200 45 -200 45
2972646791.1319 -3.4027061 19.005911 -200 45 -200 45 -200 45
2973646907.818 -3.4046948 19.028336 -200 45 -200 45 -200 45
2974647024.5041 -3.4052029 19.031279 -200 45 -200 45 -200 45
2975647141.1902 -3.4016416 19.014366 -200 45 -200 45 -200 45
2976647257.8763 -3.3982437 19.010921 -200 45 -200 45 -200 45
2977647374.5624 -3.4016025 19.025621 -200 45 -200 45 -200 45
2978647491.2485 -3.4012105 19.027077 -200 45 -200 45 -200 45
2979647607.9347 -3.4048128 19.048126 -200 45 -200 45 -200 45
2980647724.6208 -3.4061344 19.057137 -200 45 -200 45 -200 45
2981647841.3069 -3.4063425 19.07696 -200 45 -200 45 -200 45
2982647957.993 -3.405654 19.086737 -200 45 -200 45 -200 45
2983648074.6791 -3.4096534 19.106514 -200 45 -200 45 -200 45
2984648191.3652 -3.4140766 19.124645 -200 45 -200 45 -200 45
2985648308.0513 -3.4189672 19.133316 -200 45 -200 45 -200 45
2986648424.7375 -3.4192059 19.148481 -200 45 -200 45 -200 45
2987648541.4236 -3.4216716 19.16301 -200 45 -200 45 -200 45
2988648658.1097 -3.4231493 19.168978 -200 45 -200 45 -200 45
2989648774.7958 -3.4254627 19.18331 -200 45 -200 45 -200 45
2990648891.4819 -3.425539 19.200375 -200 45 -200 45 -200 45
2991649008.168 -3.4221642 19.191774 -200 45 -200 45 -200 45
2992649124.8541 -3.4179008 19.175861 -200 45 -200 45 -200 45
2993649241.5403 -3.4214807 19.191229 -200 45 -200 45 -200 45
2994649358.2264 -3.4226367 19.207981 -200 45 -200 45 -200 45
2995649474.9125 -3.426559 19.224512 -200 45 -200 45 -200 45
2996649591.5986 -3.4275162 19.235662 -200 45 -200 45 -200 45
2997649708.2847 -3.4289033 19.23579 -200 45 -200 45 -200 45
2998649824.9708 -3.4311454 19.257679 -200 45 -200 45 -200 45
2999649941.6569 -3.4328992 19.272856 -200 45 -200 45 -200 45
3000650058.3431 -3.4382973 19.307976 -200 45 -200 45 -200 45
3001650175.0292 -3.4425654 19.310282 -200 45 -200 45 -200 45
3002650291.7153 -3.4453673 19.303171 -200 45 -200 45 -200 45
3003650408.4014 -3.4441316 19.334826 -200 45 -200 45 -200 45
3004650525.0875 -3.4478683 19.363499 -200 45 -200 45 -200 45
3005650641.7736 -3.4483228 19.369112 -200 45 -200 45 -200 45
3006650758.4597 -3.4491291 19.350618 -200 45 -200 45 -200 45
3007650875.1459 -3.447892 19.355398 -200 45 -200 45 -200 45
3008650991.832 -3.4456372 19.343042 -200 45 -200 45 -200 45
3009651108.5181 -3.4473319 19.354313 -200 45 -200 45 -200 45
3010651225.2042 -3.4501207 19.369137 -200 45 -200 45 -200 45
3011651341.8903 -3.4545603 19.386539 -200 45 -200 45 -200 45
3012651458.5764 -3.4548919 19.405191 -200 45 -200 45 -200 45
3013651575.2625 -3.4601336 19.410156 -200 45 -200 45 -200 45
3014651691.9487 -3.4616311 19.418167 -200 45 -200 45 -200 45
3015651808.6348 -3.4636889 19.442072 -200 45 -200 45 -200 45
3016651925.3209 -3.47173 19.464966 -200 45 -200 45 -200 45
3017652042.007 -3.4735503 19.472504 -200 45 -200 45 -200 45
3018652158.6931 -3.4783933 19.486328 -200 45 -200 45 -200 45
3019652275.3792 -3.4786222 19.495319 -200 45 -200 45 -200 45
3020652392.0653 -3.4836864 19.51709 -200 45 -200 45 -200 45
3021652508.7515 -3.4894755 19.522083 -200 45 -200 45 -200 45
3022652625.4376 -3.4900031 19.527403 -200 45 -200 45 -200 45
3023652742.1237 -3.4883058 19.524529 -200 45 -200 45 -200 45
3024652858.8098 -3.489645 19.507711 -200 45 -200 45 -200 45
3025652975.4959 -3.4934661 19.527399 -200 45 -200 45 -200 45
3026653092.182 -3.4985685 19.547192 -200 45 -200 45 -200 45
3027653208.8681 -3.5057213 19.564617 -200 45 -200 45 -200 45
3028653325.5543 -3.5093062 19.590555 -200 45 -200 45 -200 45
3029653442.2404 -3.513386 19.583614 -200 45 -200 45 -200 45
3030653558.9265 -3.5209732 19.61503 -200 45 -200 45 -200 45
3031653675.6126 -3.528414 19.635445 -200 45 -200 45 -200 45
3032653792.2987 -3.536917 19.669811 -200 45 -200 45 -200 45
3033653908.9848 -3.5472536 19.705517 -200 45 -200 45 -200 45
3034654025.6709 -3.5532651 19.744577 -200 45 -200 45 -200 45
3035654142.3571 -3.5627077 19.788021 -200 45 -200 45 -200 45
3036654259.0432 -3.5738716 19.847925 -200 45 -200 45 -200 45
3037654375.7293 -3.5838008 19.917803 -200 45 -200 45 -200 45
3038654492.4154 -3.5894203 20.003355 -200 45 -200 45 -200 45
3039654609.1015 -3.5928266 20.103237 -200 45 -200 45 -200 45
3040654725.7876 -3.5884321 20.200008 -200 45 -200 45 -200 45
3041654842.4737 -3.5845692 20.331636 -200 45 -200 45 -200 45
3042654959.1599 -3.5779548 20.450678 -200 45 -200 45 -200 45
3043655075.846 -3.5672326 20.544445 -200 45 -200 45 -200 45
3044655192.5321 -3.5557191 20.59734 -200 45 -200 45 -200 45
3045655309.2182 -3.5390358 20.611816 -200 45 -200 45 -200 45
3046655425.9043 -3.5283093 20.63818 -200 45 -200 45 -200 45
3047655542.5904 -3.5201979 20.624447 -200 45 -200 45 -200 45
3048655659.2765 -3.5139527 20.607101 -200 45 -200 45 -200 45
3049655775.9627 -3.51085 20.583593 -200 45 -200 45 -200 45
3050655892.6488 -3.5085313 20.54627 -200 45 -200 45 -200 45
3051656009.3349 -3.5076306 20.500101 -200 45 -200 45 -200 45
3052656126.021 -3.5092325 20.464931 -200 45 -200 45 -200 45
3053656242.7071 -3.514241 20.430029 -200 45 -200 45 -200 45
3054656359.3932 -3.5165119 20.405258 -200 45 -200 45 -200 45
3055656476.0793 -3.5161102 20.363655 -200 45 -200 45 -200 45
3056656592.7655 -3.5182662 20.341791 -200 45 -200 45 -200 45
3057656709.4516 -3.5248666 20.32233 -200 45 -200 45 -200 45
3058656826.1377 -3.5325859 20.316835 -200 45 -200 45 -200 45
3059656942.8238 -3.5420704 20.297453 -200 45 -200 45 -200 45
3060657059.5099 -3.5517828 20.279146 -200 45 -200 45 -200 45
3061657176.196 -3.561995 20.262978 -200 45 -200 45 -200 45
3062657292.8821 -3.577199 20.280003 -200 45 -200 45 -200 45
3063657409.5683 -3.5933065 20.291826 -200 45 -200 45 -200 45
3064657526.2544 -3.6124229 20.31061 -200 45 -200 45 -200 45
3065657642.9405 -3.6334062 20.341785 -200 45 -200 45 -200 45
3066657759.6266 -3.6562185 20.380299 -200 45 -200 45 -200 45
3067657876.3127 -3.6814427 20.465387 -200 45 -200 45 -200 45
3068657992.9988 -3.7097173 20.560427 -200 45 -200 45 -200 45
3069658109.6849 -3.7403767 20.713223 -200 45 -200 45 -200 45
3070658226.3711 -3.7696967 20.911337 -200 45 -200 45 -200 45
3071658343.0572 -3.791523 21.203936 -200 45 -200 45 -200 45
3072658459.7433 -3.8033335 21.588213 -200 45 -200 45 -200 45
3073658576.4294 -3.7978294 22.022259 -200 45 -200 45 -200 45
3074658693.1155 -3.7745829 22.406725 -200 45 -200 45 -200 45
3075658809.8016 -3.7413061 22.69009 -200 45 -200 45 -200 45
3076658926.4877 -3.7041383 22.897833 -200 45 -200 45 -200 45
3077659043.1739 -3.6663208 23.027788 -200 45 -200 45 -200 45
3078659159.86 -3.6338506 23.127516 -200 45 -200 45 -200 45
3079659276.5461 -3.6100583 23.211405 -200 45 -200 45 -200 45
3080659393.2322 -3.5909469 23.288551 -200 45 -200 45 -200 45
3081659509.9183 -3.5720155 23.385262 -200 45 -200 45 -200 45
3082659626.6044 -3.5480731 23.528667 -200 45 -200 45 -200 45
3083659743.2905 -3.515357 23.680521 -200 45 -200 45 -200 45
3084659859.9767 -3.4759595 23.821182 -200 45 -200 45 -200 45
3085659976.6628 -3.425251 23.873688 -200 45 -200 45 -200 45
3086660093.3489 -3.3726344 23.800158 -200 45 -200 45 -200 45
3087660210.035 -3.3207793 23.668715 -200 45 -200 45 -200 45
3088660326.7211 -3.2836206 23.467859 -200 45 -200 45 -200 45
3089660443.4072 -3.2610445 23.288055 -200 45 -200 45 -200 45
3090660560.0933 -3.2491851 23.125917 -200 45 -200 45 -200 45
3091660676.7795 -3.2418885 22.96628 -200 45 -200 45 -200 45
3092660793.4656 -3.237649 22.847078 -200 45 -200 45 -200 45
3093660910.1517 -3.2300506 22.767719 -200 45 -200 45 -200 45
3094661026.8378 -3.2266757 22.710165 -200 45 -200 45 -200 45
3095661143.5239 -3.2173035 22.673275 -200 45 -200 45 -200 45
3096661260.21 -3.2070069 22.61705 -200 45 -200 45 -200 45
3097661376.8961 -3.1907353 22.526882 -200 45 -200 45 -200 45
3098661493.5823 -3.1773243 22.408716 -200 45 -200 45 -200 45
3099661610.2684 -3.1661592 22.249123 -200 45 -200 45 -200 45
3100661726.9545 -3.1668613 22.10512 -200 45 -200 45 -200 45
3101661843.6406 -3.169728 21.965231 -200 45 -200 45 -200 45
3102661960.3267 -3.1735082 21.837452 -200 45 -200 45 -200 45
3103662077.0128 -3.1778948 21.73645 -200 45 -200 45 -200 45
3104662193.6989 -3.1817405 21.675903 -200 45 -200 45 -200 45
3105662310.3851 -3.188189 21.630447 -200 45 -200 45 -200 45
3106662427.0712 -3.1949573 21.63615 -200 45 -200 45 -200 45
3107662543.7573 -3.1933465 21.609768 -200 45 -200 45 -200 45
3108662660.4434 -3.190269 21.569006 -200 45 -200 45 -200 45
3109662777.1295 -3.1882188 21.524137 -200 45 -200 45 -200 45
3110662893.8156 -3.1858077 21.497469 -200 45 -200 45 -200 45
3111663010.5018 -3.1844645 21.424522 -200 45 -200 45 -200 45
3112663127.1879 -3.1860538 21.342945 -200 45 -200 45 -200 45
3113663243.874 -3.1866937 21.241312 -200 45 -200 45 -200 45
3114663360.5601 -3.1926932 21.154856 -200 45 -200 45 -200 45
3115663477.2462 -3.1975074 21.071037 -200 45 -200 45 -200 45
3116663593.9323 -3.2109871 21.005884 -200 45 -200 45 -200 45
3117663710.6184 -3.221705 20.967436 -200 45 -200 45 -200 45
3118663827.3046 -3.2285738 20.905619 -200 45 -200 45 -200 45
3119663943.9907 -3.2340076 20.869602 -200 45 -200 45 -200 45
3120664060.6768 -3.2396867 20.841915 -200 45 -200 45 -200 45
3121664177.3629 -3.2469676 20.829723 -200 45 -200 45 -200 45
3122664294.049 -3.2587216 20.835423 -200 45 -200 45 -200 45
3123664410.7351 -3.2659626 20.828281 -200 45 -200 45 -200 45
3124664527.4212 -3.2722306 20.84173 -200 45 -200 45 -200 45
3125664644.1074 -3.2766612 20.823082 -200 45 -200 45 -200 45
3126664760.7935 -3.2856224 20.830881 -200 45 -200 45 -200 45
3127664877.4796 -3.2917817 20.832853 -200 45 -200 45 -200 45
3128664994.1657 -3.3015919 20.850882 -200 45 -200 45 -200 45
3129665110.8518 -3.3082802 20.854527 -200 45 -200 45 -200 45
3130665227.5379 -3.310951 20.856043 -200 45 -200 45 -200 45
3131665344.224 -3.312325 20.868483 -200 45 -200 45 -200 45
3132665460.9102 -3.319288 20.890583 -200 45 -200 45 -200 45
3133665577.5963 -3.3249667 20.888527 -200 45 -200 45 -200 45
3134665694.2824 -3.3239641 20.87532 -200 45 -200 45 -200 45
3135665810.9685 -3.3244474 20.859619 -200 45 -200 45 -200 45
3136665927.6546 -3.3248589 20.867105 -200 45 -200 45 -200 45
3137666044.3407 -3.3279426 20.872349 -200 45 -200 45 -200 45
3138666161.0268 -3.3325791 20.890146 -200 45 -200 45 -200 45
3139666277.713 -3.3364758 20.896946 -200 45 -200 45 -200 45
3140666394.3991 -3.3386588 20.905798 -200 45 -200 45 -200 45
3141666511.0852 -3.3393409 20.906837 -200 45 -200 45 -200 45
3142666627.7713 -3.3454893 20.925053 -200 45 -200 45 -200 45
3143666744.4574 -3.3497043 20.941633 -200 45 -200 45 -200 45
3144666861.1435 -3.3560271 20.966421 -200 45 -200 45 -200 45
3145666977.8296 -3.3608713 20.96377 -200 45 -200 45 -200 45
3146667094.5158 -3.3607845 20.966658 -200 45 -200 45 -200 45
3147667211.2019 -3.3635569 20.97966 -200 45 -200 45 -200 45
3148667327.888 -3.3689497 21.0119 -200 45 -200 45 -200 45
3149667444.5741 -3.3687942 21.006498 -200 45 -200 45 -200 45
3150667561.2602 -3.3706443 21.001352 -200 45 -200 45 -200 45
3151667677.9463 -3.36691 20.9939 -200 45 -200 45 -200 45
3152667794.6324 -3.3668299 20.993958 -200 45 -200 45 -200 45
3153667911.3186 -3.3698831 21.009361 -200 45 -200 45 -200 45
3154668028.0047 -3.3731868 21.023945 -200 45 -200 45 -200 45
3155668144.6908 -3.3767543 21.040529 -200 45 -200 45 -200 45
3156668261.3769 -3.3772264 21.041878 -200 45 -200 45 -200 45
3157668378.063 -3.3803296 21.042587 -200 45 -200 45 -200 45
3158668494.7491 -3.383431 21.07559 -200 45 -200 45 -200 45
3159668611.4352 -3.3870447 21.093998 -200 45 -200 45 -200 45
3160668728.1214 -3.3911746 21.117487 -200 45 -200 45 -200 45
3161668844.8075 -3.3925657 21.123747 -200 45 -200 45 -200 45
3162668961.4936 -3.3944249 21.140303 -200 45 -200 45 -200 45
3163669078.1797 -3.3958943 21.145163 -200 45 -200 45 -200 45
3164669194.8658 -3.3983233 21.169516 -200 45 -200 45 -200 45
3165669311.5519 -3.3996067 21.181541 -200 45 -200 45 -200 45
3166669428.238 -3.3989525 21.16312 -200 45 -200 45 -200 45
3167669544.9242 -3.397768 21.15336 -200 45 -200 45 -200 45
3168669661.6103 -3.3967173 21.146143 -200 45 -200 45 -200 45
3169669778.2964 -3.3979602 21.16181 -200 45 -200 45 -200 45
3170669894.9825 -3.401777 21.202681 -200 45 -200 45 -200 45
3171670011.6686 -3.4036419 21.204639 -200 45 -200 45 -200 45
3172670128.3547 -3.4047484 21.213179 -200 45 -200 45 -200 45
3173670245.0408 -3.4066877 21.220583 -200 45 -200 45 -200 45
3174670361.727 -3.4087708 21.232708 -200 45 -200 45 -200 45
3175670478.4131 -3.4108753 21.262703 -200 45 -200 45 -200 45
3176670595.0992 -3.4155529 21.277575 -200 45 -200 45 -200 45
3177670711.7853 -3.4191244 21.293451 -200 45 -200 45 -200 45
3178670828.4714 -3.4191182 21.302097 -200 45 -200 45 -200 45
3179670945.1575 -3.4220934 21.31039 -200 45 -200 45 -200 45
3180671061.8436 -3.4225657 21.31933 -200 45 -200 45 -200 45
3181671178.5298 -3.4230256 21.331409 -200 45 -200 45 -200 45
3182671295.2159 -3.4242489 21.33556 -200 45 -200 45 -200 45
3183671411.902 -3.4198577 21.32066 -200 45 -200 45 -200 45
3184671528.5881 -3.4188066 21.328766 -200 45 -200 45 -200 45
3185671645.2742 -3.4207704 21.342182 -200 45 -200 45 -200 45
3186671761.9603 -3.4243004 21.365463 -200 45 -200 45 -200 45
3187671878.6464 -3.4268987 21.366734 -200 45 -200 45 -200 45
3188671995.3326 -3.4249365 21.391655 -200 45 -200 45 -200 45
3189672112.0187 -3.427146 21.39941 -200 45 -200 45 -200 45
3190672228.7048 -3.4297736 21.415943 -200 45 -200 45 -200 45
3191672345.3909 -3.4349442 21.434868 -200 45 -200 45 -200 45
3192672462.077 -3.4379666 21.457012 -200 45 -200 45 -200 45
3193672578.7631 -3.4373877 21.457428 -200 45 -200 45 -200 45
3194672695.4492 -3.4411688 21.482857 -200 45 -200 45 -200 45
3195672812.1354 -3.4406378 21.504023 -200 45 -200 45 -200 45
3196672928.8215 -3.4439571 21.513145 -200 45 -200 45 -200 45
3197673045.5076 -3.44556 21.525583 -200 45 -200 45 -200 45
3198673162.1937 -3.443774 21.508444 -200 45 -200 45 -200 45
3199673278.8798 -3.4389153 21.504246 -200 45 -200 45 -200 45
3200673395.5659 -3.4397814 21.514402 -200 45 -200 45 -200 45
3201673512.252 -3.440455 21.531172 -200 45 -200 45 -200 45
3202673628.9382 -3.4458225 21.544014 -200 45 -200 45 -200 45
3203673745.6243 -3.445657 21.557547 -200 45 -200 45 -200 45
3204673862.3104 -3.4471374 21.565224 -200 45 -200 45 -200 45
3205673978.9965 -3.4466355 21.579634 -200 45 -200 45 -200 45
3206674095.6826 -3.4507205 21.599361 -200 45 -200 45 -200 45
3207674212.3687 -3.4548054 21.623013 -200 45 -200 45 -200 45
3208674329.0548 -3.4578137 21.635035 -200 45 -200 45 -200 45
3209674445.741 -3.4586418 21.643757 -200 45 -200 45 -200 45
3210674562.4271 -3.4597285 21.66114 -200 45 -200 45 -200 45
3211674679.1132 -3.4604845 21.683487 -200 45 -200 45 -200 45
3212674795.7993 -3.4621358 21.696543 -200 45 -200 45 -200 45
3213674912.4854 -3.4638555 21.704571 -200 45 -200 45 -200 45
3214675029.1715 -3.4616735 21.689718 -200 45 -200 45 -200 45
3215675145.8576 -3.4574585 21.687082 -200 45 -200 45 -200 45
3216675262.5438 -3.4590631 21.693203 -200 45 -200 45 -200 45
3217675379.2299 -3.4599493 21.708902 -200 45 -200 45 -200 45
3218675495.916 -3.4641328 21.740458 -200 45 -200 45 -200 45
3219675612.6021 -3.4646046 21.735773 -200 45 -200 45 -200 45
3220675729.2882 -3.4646637 21.753174 -200 45 -200 45 -200 45
3221675845.9743 -3.4652314 21.756931 -200 45 -200 45 -200 45
3222675962.6604 -3.4686301 21.77886 -200 45 -200 45 -200 45
3223676079.3466 -3.4724514 21.796736 -200 45 -200 45 -200 45
3224676196.0327 -3.4754467 21.810661 -200 45 -200 45 -200 45
3225676312.7188 -3.4770494 21.822889 -200 45 -200 45 -200 45
3226676429.4049 -3.4772811 21.846533 -200 45 -200 45 -200 45
3227676546.091 -3.4796796 21.86746 -200 45 -200 45 -200 45
3228676662.7771 -3.4812632 21.867996 -200 45 -200 45 -200 45
3229676779.4632 -3.4803672 21.874384 -200 45 -200 45 -200 45
3230676896.1494 -3.4799564 21.885555 -200 45 -200 45 -200 45
3231677012.8355 -3.4756415 21.860294 -200 45 -200 45 -200 45
3232677129.5216 -3.4753585 21.869951 -200 45 -200 45 -200 45
3233677246.2077 -3.4782069 21.889313 -200 45 -200 45 -200 45
3234677362.8938 -3.4825675 21.921917 -200 45 -200 45 -200 45
3235677479.5799 -3.4825442 21.918024 -200 45 -200 45 -200 45
3236677596.266 -3.4821241 21.929501 -200 45 -200 45 -200 45
3237677712.9522 -3.484148 21.938057 -200 45 -200 45 -200 45
3238677829.6383 -3.4869485 21.953918 -200 45 -200 45 -200 45
3239677946.3244 -3.4890871 21.989737 -200 45 -200 45 -200 45
3240678063.0105 -3.4927206 22.004869 -200 45 -200 45 -200 45
3241678179.6966 -3.4950185 22.009199 -200 45 -200 45 -200 45
3242678296.3827 -3.4961889 22.029776 -200 45 -200 45 -200 45
3243678413.0688 -3.4985712 22.034515 -200 45 -200 45 -200 45
3244678529.755 -3.4991715 22.050303 -200 45 -200 45 -200 45
3245678646.4411 -3.4984744 22.062086 -200 45 -200 45 -200 45
3246678763.1272 -3.4978271 22.046909 -200 45 -200 45 -200 45
3247678879.8133 -3.4956501 22.045197 -200 45 -200 45 -200 45
3248678996.4994 -3.4934242 22.049402 -200 45 -200 45 -200 45
3249679113.1855 -3.4946156 22.063547 -200 45 -200 45 -200 45
3250679229.8716 -3.5000296 22.088562 -200 45 -200 45 -200 45
3251679346.5578 -3.498446 22.106861 -200 45 -200 45 -200 45
3252679463.2439 -3.5017619 22.109173 -200 45 -200 45 -200 45
3253679579.93 -3.5006883 22.113691 -200 45 -200 45 -200 45
3254679696.6161 -3.5047071 22.131218 -200 45 -200 45 -200 45
3255679813.3022 -3.5090325 22.159685 -200 45 -200 45 -200 45
3256679929.9883 -3.5114911 22.164539 -200 45 -200 45 -200 45
3257680046.6744 -3.5132756 22.178066 -200 45 -200 45 -200 45
3258680163.3606 -3.5134814 22.200916 -200 45 -200 45 -200 45
3259680280.0467 -3.515517 22.208506 -200 45 -200 45 -200 45
3260680396.7328 -3.5193729 22.223372 -200 45 -200 45 -200 45
3261680513.4189 -3.5170522 22.223074 -200 45 -200 45 -200 45
3262680630.105 -3.5145342 22.22056 -200 45 -200 45 -200 45
3263680746.7911 -3.5116608 22.197372 -200 45 -200 45 -200 45
3264680863.4772 -3.5114369 22.219841 -200 45 -200 45 -200 45
3265680980.1634 -3.5146036 22.232889 -200 45 -200 45 -200 45
3266681096.8495 -3.5192897 22.264217 -200 45 -200 45 -200 45
3267681213.5356 -3.520299 22.263748 -200 45 -200 45 -200 45
3268681330.2217 -3.5206525 22.282263 -200 45 -200 45 -200 45
3269681446.9078 -3.5204685 22.27796 -200 45 -200 45 -200 45
3270681563.5939 -3.5264063 22.30694 -200 45 -200 45 -200 45
3271681680.28 -3.5285723 22.322418 -200 45 -200 45 -200 45
3272681796.9662 -3.5311749 22.328287 -200 45 -200 45 -200 45
3273681913.6523 -3.5336053 22.354044 -200 45 -200 45 -200 45
3274682030.3384 -3.5346265 22.349857 -200 45 -200 45 -200 45
3275682147.0245 -3.5367656 22.371363 -200 45 -200 45 -200 45
3276682263.7106 -3.5374744 22.394747 -200 45 -200 45 -200 45
3277682380.3967 -3.538506 22.406242 -200 45 -200 45 -200 45
3278682497.0828 -3.5335126 22.39123 -200 45 -200 45 -200 45
3279682613.769 -3.5327919 22.376369 -200 45 -200 45 -200 45
3280682730.4551 -3.5343091 22.393126 -200 45 -200 45 -200 45
3281682847.1412 -3.536072 22.411343 -200 45 -200 45 -200 45
3282682963.8273 -3.5399971 22.432922 -200 45 -200 45 -200 45
3283683080.5134 -3.540247 22.441988 -200 45 -200 45 -200 45
3284683197.1995 -3.539573 22.452618 -200 45 -200 45 -200 45
3285683313.8856 -3.5434844 22.458124 -200 45 -200 45 -200 45
3286683430.5718 -3.5482278 22.473852 -200 45 -200 45 -200 45
3287683547.2579 -3.5509138 22.504694 -200 45 -200 45 -200 45
3288683663.944 -3.5537188 22.518404 -200 45 -200 45 -200 45
3289683780.6301 -3.5549371 22.530348 -200 45 -200 45 -200 45
3290683897.3162 -3.5569816 22.533865 -200 45 -200 45 -200 45
3291684014.0023 -3.5577054 22.546984 -200 45 -200 45 -200 45
3292684130.6884 -3.5611777 22.584389 -200 45 -200 45 -200 45
3293684247.3746 -3.5611959 22.563999 -200 45 -200 45 -200 45
3294684364.0607 -3.55844 22.580355 -200 45 -200 45 -200 45
3295684480.7468 -3.5564532 22.567522 -200 45 -200 45 -200 45
3296684597.4329 -3.556881 22.581293 -200 45 -200 45 -200 45
3297684714.119 -3.5600555 22.601614 -200 45 -200 45 -200 45
3298684830.8051 -3.5637455 22.629265 -200 45 -200 45 -200 45
3299684947.4912 -3.5648541 22.631187 -200 45 -200 45 -200 45
3300685064.1774 -3.565136 22.651413 -200 45 -200 45 -200 45
3301685180.8635 -3.5664856 22.663877 -200 45 -200 45 -200 45
3302685297.5496 -3.569469 22.678576 -200 45 -200 45 -200 45
3303685414.2357 -3.5747693 22.706535 -200 45 -200 45 -200 45
3304685530.9218 -3.5775247 22.729769 -200 45 -200 45 -200 45
3305685647.6079 -3.578593 22.746098 -200 45 -200 45 -200 45
3306685764.294 -3.577352 22.751127 -200 45 -200 45 -200 45
3307685880.9802 -3.582165 22.768724 -200 45 -200 45 -200 45
3308685997.6663 -3.5809793 22.782982 -200 45 -200 45 -200 45
3309686114.3524 -3.5808473 22.782295 -200 45 -200 45 -200 45
3310686231.0385 -3.5801802 22.77029 -200 45 -200 45 -200 45
3311686347.7246 -3.5788188 22.764301 -200 45 -200 45 -200 45
3312686464.4107 -3.5800114 22.790281 -200 45 -200 45 -200 45
3313686581.0968 -3.5818899 22.79043 -200 45 -200 45 -200 45
3314686697.783 -3.5859895 22.815338 -200 45 -200 45 -200 45
3315686814.4691 -3.5891552 22.813578 -200 45 -200 45 -200 45
3316686931.1552 -3.5866599 22.813875 -200 45 -200 45 -200 45
3317687047.8413 -3.5920362 22.835695 -200 45 -200 45 -200 45
3318687164.5274 -3.5967641 22.868143 -200 45 -200 45 -200 45
3319687281.2135 -3.6006596 22.8808 -200 45 -200 45 -200 45
3320687397.8997 -3.6044035 22.894499 -200 45 -200 45 -200 45
3321687514.5858 -3.6070471 22.896366 -200 45 -200 45 -200 45
3322687631.2719 -3.609576 22.915749 -200 45 -200 45 -200 45
3323687747.958 -3.6133454 22.940399 -200 45 -200 45 -200 45
3324687864.6441 -3.6163218 22.945833 -200 45 -200 45 -200 45
3325687981.3302 -3.6156564 22.957788 -200 45 -200 45 -200 45
3326688098.0163 -3.6148536 22.947699 -200 45 -200 45 -200 45
3327688214.7025 -3.6144011 22.932775 -200 45 -200 45 -200 45
3328688331.3886 -3.6149774 22.955488 -200 45 -200 45 -200 45
3329688448.0747 -3.6204937 22.970076 -200 45 -200 45 -200 45
3330688564.7608 -3.625241 22.990194 -200 45 -200 45 -200 45
3331688681.4469 -3.6280053 23.000343 -200 45 -200 45 -200 45
3332688798.133 -3.6287651 23.009756 -200 45 -200 45 -200 45
3333688914.8191 -3.6335702 23.033958 -200 45 -200 45 -200 45
3334689031.5053 -3.6387269 23.044491 -200 45 -200 45 -200 45
3335689148.1914 -3.6449866 23.065828 -200 45 -200 45 -200 45
3336689264.8775 -3.648833 23.076353 -200 45 -200 45 -200 45
3337689381.5636 -3.6529264 23.102425 -200 45 -200 45 -200 45
3338689498.2497 -3.6578045 23.100405 -200 45 -200 45 -200 45
3339689614.9358 -3.6633215 23.132854 -200 45 -200 45 -200 45
3340689731.6219 -3.6673756 23.146971 -200 45 -200 45 -200 45
3341689848.3081 -3.6722558 23.150038 -200 45 -200 45 -200 45
3342689964.9942 -3.6711273 23.138664 -200 45 -200 45 -200 45
3343690081.6803 -3.6747892 23.133987 -200 45 -200 45 -200 45
3344690198.3664 -3.6801107 23.159151 -200 45 -200 45 -200 45
3345690315.0525 -3.6887221 23.181772 -200 45 -200 45 -200 45
3346690431.7386 -3.6956398 23.222914 -200 45 -200 45 -200 45
3347690548.4247 -3.7029479 23.238873 -200 45 -200 45 -200 45
3348690665.1109 -3.7073774 23.262449 -200 45 -200 45 -200 45
3349690781.797 -3.7184377 23.301094 -200 45 -200 45 -200 45
3350690898.4831 -3.7291169 23.362764 -200 45 -200 45 -200 45
3351691015.1692 -3.7419953 23.424868 -200 45 -200 45 -200 45
3352691131.8553 -3.7536514 23.478094 -200 45 -200 45 -200 45
3353691248.5414 -3.7604425 23.556273 -200 45 -200 45 -200 45
3354691365.2275 -3.7679908 23.653109 -200 45 -200 45 -200 45
3355691481.9137 -3.7753007 23.74962 -200 45 -200 45 -200 45
3356691598.5998 -3.7780557 23.855417 -200 45 -200 45 -200 45
3357691715.2859 -3.7800112 23.959175 -200 45 -200 45 -200 45
3358691831.972 -3.774792 24.043839 -200 45 -200 45 -200 45
3359691948.6581 -3.7669544 24.137976 -200 45 -200 45 -200 45
3360692065.3442 -3.7621732 24.223646 -200 45 -200 45 -200 45
3361692182.0303 -3.7548172 24.306707 -200 45 -200 45 -200 45
3362692298.7165 -3.747508 24.392944 -200 45 -200 45 -200 45
3363692415.4026 -3.7359793 24.451277 -200 45 -200 45 -200 45
3364692532.0887 -3.725352 24.473513 -200 45 -200 45 -200 45
3365692648.7748 -3.715482 24.507032 -200 45 -200 45 -200 45
3366692765.4609 -3.7087998 24.517338 -200 45 -200 45 -200 45
3367692882.147 -3.7061543 24.521725 -200 45 -200 45 -200 45
3368692998.8331 -3.6991098 24.501637 -200 45 -200 45 -200 45
3369693115.5193 -3.6959927 24.473007 -200 45 -200 45 -200 45
3370693232.2054 -3.6950989 24.471426 -200 45 -200 45 -200 45
3371693348.8915 -3.6942761 24.44907 -200 45 -200 45 -200 45
3372693465.5776 -3.694679 24.427784 -200 45 -200 45 -200 45
3373693582.2637 -3.6943142 24.395227 -200 45 -200 45 -200 45
3374693698.9498 -3.6927218 24.358572 -200 45 -200 45 -200 45
3375693815.6359 -3.6950519 24.293421 -200 45 -200 45 -200 45
3376693932.3221 -3.7001677 24.278505 -200 45 -200 45 -200 45
3377694049.0082 -3.7116258 24.267786 -200 45 -200 45 -200 45
3378694165.6943 -3.7221293 24.248619 -200 45 -200 45 -200 45
3379694282.3804 -3.7345917 24.245243 -200 45 -200 45 -200 45
3380694399.0665 -3.7454288 24.23457 -200 45 -200 45 -200 45
3381694515.7526 -3.7615051 24.275791 -200 45 -200 45 -200 45
3382694632.4387 -3.778924 24.276838 -200 45 -200 45 -200 45
3383694749.1249 -3.8008983 24.328136 -200 45 -200 45 -200 45
3384694865.811 -3.8245866 24.391378 -200 45 -200 45 -200 45
3385694982.4971 -3.8452988 24.464878 -200 45 -200 45 -200 45
3386695099.1832 -3.8681412 24.589319 -200 45 -200 45 -200 45
3387695215.8693 -3.8928881 24.770809 -200 45 -200 45 -200 45
3388695332.5554 -3.9138317 24.963039 -200 45 -200 45 -200 45
3389695449.2415 -3.9264185 25.20245 -200 45 -200 45 -200 45
3390695565.9277 -3.9296219 25.449774 -200 45 -200 45 -200 45
3391695682.6138 -3.9268517 25.703379 -200 45 -200 45 -200 45
3392695799.2999 -3.9226873 25.985634 -200 45 -200 45 -200 45
3393695915.986 -3.9111841 26.262804 -200 45 -200 45 -200 45
3394696032.6721 -3.894094 26.502522 -200 45 -200 45 -200 45
3395696149.3582 -3.8698504 26.727234 -200 45 -200 45 -200 45
3396696266.0443 -3.8407838 26.898834 -200 45 -200 45 -200 45
3397696382.7305 -3.8146462 27.064169 -200 45 -200 45 -200 45
3398696499.4166 -3.7859681 27.200274 -200 45 -200 45 -200 45
3399696616.1027 -3.7613356 27.275864 -200 45 -200 45 -200 45
3400696732.7888 -3.7351563 27.339693 -200 45 -200 45 -200 45
3401696849.4749 -3.7101481 27.386814 -200 45 -200 45 -200 45
3402696966.161 -3.6844375 27.442364 -200 45 -200 45 -200 45
3403697082.8471 -3.6636312 27.4765 -200 45 -200 45 -200 45
3404697199.5333 -3.6437893 27.503904 -200 45 -200 45 -200 45
3405697316.2194 -3.6207805 27.546158 -200 45 -200 45 -200 45
3406697432.9055 -3.5957019 27.544575 -200 45 -200 45 -200 45
3407697549.5916 -3.5714359 27.562733 -200 45 -200 45 -200 45
3408697666.2777 -3.5505805 27.577524 -200 45 -200 45 -200 45
3409697782.9638 -3.5312672 27.617111 -200 45 -200 45 -200 45
3410697899.6499 -3.5105429 27.642467 -200 45 -200 45 -200 45
3411698016.3361 -3.4881802 27.658981 -200 45 -200 45 -200 45
3412698133.0222 -3.4596763 27.659229 -200 45 -200 45 -200 45
3413698249.7083 -3.4356174 27.653362 -200 45 -200 45 -200 45
3414698366.3944 -3.4070482 27.628639 -200 45 -200 45 -200 45
3415698483.0805 -3.3821719 27.566692 -200 45 -200 45 -200 45
3416698599.7666 -3.3584273 27.481665 -200 45 -200 45 -200 45
3417698716.4527 -3.3382053 27.370693 -200 45 -200 45 -200 45
3418698833.1389 -3.3208754 27.256256 -200 45 -200 45 -200 45
3419698949.825 -3.3076558 27.14699 -200 45 -200 45 -200 45
3420699066.5111 -3.298382 27.037302 -200 45 -200 45 -200 45
3421699183.1972 -3.2861915 26.944893 -200 45 -200 45 -200 45
3422699299.8833 -3.2719281 26.850418 -200 45 -200 45 -200 45
3423699416.5694 -3.2569273 26.779345 -200 45 -200 45 -200 45
3424699533.2555 -3.2454309 26.724031 -200 45 -200 45 -200 45
3425699649.9417 -3.2336297 26.650126 -200 45 -200 45 -200 45
3426699766.6278 -3.2208898 26.573088 -200 45 -200 45 -200 45
3427699883.3139 -3.2048061 26.461386 -200 45 -200 45 -200 45
3428700000 -3.1873486 26.311993 -200 45 -200 45 -200 45
3429700116.6861 -3.1792319 26.195545 -200 45 -200 45 -200 45
3430700233.3722 -3.1714694 26.035385 -200 45 -200 45 -200 45
3431700350.0583 -3.1670446 25.870312 -200 45 -200 45 -200 45
3432700466.7445 -3.1671829 25.671909 -200 45 -200 45 -200 45
3433700583.4306 -3.1724212 25.5089 -200 45 -200 45 -200 45
3434700700.1167 -3.1782086 25.343693 -200 45 -200 45 -200 45
3435700816.8028 -3.1911571 25.210962 -200 45 -200 45 -200 45
3436700933.4889 -3.2045209 25.087336 -200 45 -200 45 -200 45
3437701050.175 -3.2140558 24.979507 -200 45 -200 45 -200 45
3438701166.8611 -3.2222962 24.873875 -200 45 -200 45 -200 45
3439701283.5473 -3.2324793 24.785126 -200 45 -200 45 -200 45
3440701400.2334 -3.2454929 24.728252 -200 45 -200 45 -200 45
3441701516.9195 -3.2589071 24.690609 -200 45 -200 45 -200 45
3442701633.6056 -3.2717242 24.644176 -200 45 -200 45 -200 45
3443701750.2917 -3.2852228 24.61552 -200 45 -200 45 -200 45
3444701866.9778 -3.2923419 24.573471 -200 45 -200 45 -200 45
3445701983.6639 -3.3056204 24.574852 -200 45 -200 45 -200 45
3446702100.3501 -3.3184621 24.565081 -200 45 -200 45 -200 45
3447702217.0362 -3.3303878 24.570515 -200 45 -200 45 -200 45
3448702333.7223 -3.3399122 24.550026 -200 45 -200 45 -200 45
3449702450.4084 -3.3486848 24.550814 -200 45 -200 45 -200 45
3450702567.0945 -3.3558259 24.549591 -200 45 -200 45 -200 45
3451702683.7806 -3.3637502 24.552294 -200 45 -200 45 -200 45
3452702800.4667 -3.3711581 24.556971 -200 45 -200 45 -200 45
3453702917.1529 -3.3759465 24.548813 -200 45 -200 45 -200 45
3454703033.839 -3.3778551 24.523924 -200 45 -200 45 -200 45
3455703150.5251 -3.3834887 24.514362 -200 45 -200 45 -200 45
3456703267.2112 -3.3892617 24.515421 -200 45 -200 45 -200 45
3457703383.8973 -3.3972523 24.538027 -200 45 -200 45 -200 45
3458703500.5834 -3.4018879 24.539867 -200 45 -200 45 -200 45
3459703617.2695 -3.4070244 24.545408 -200 45 -200 45 -200 45
3460703733.9557 -3.4103942 24.552177 -200 45 -200 45 -200 45
3461703850.6418 -3.4171929 24.570675 -200 45 -200 45 -200 45
3462703967.3279 -3.4238641 24.594877 -200 45 -200 45 -200 45
3463704084.014 -3.4311187 24.59903 -200 45 -200 45 -200 45
3464704200.7001 -3.4358909 24.625652 -200 45 -200 45 -200 45
3465704317.3862 -3.4409583 24.623985 -200 45 -200 45 -200 45
3466704434.0723 -3.4425879 24.623648 -200 45 -200 45 -200 45
3467704550.7585 -3.450783 24.638744 -200 45 -200 45 -200 45
3468704667.4446 -3.4516151 24.672205 -200 45 -200 45 -200 45
3469704784.1307 -3.4564042 24.652676 -200 45 -200 45 -200 45
3470704900.8168 -3.4536953 24.638987 -200 45 -200 45 -200 45
3471705017.5029 -3.4572008 24.644821 -200 45 -200 45 -200 45
3472705134.189 -3.4579632 24.652515 -200 45 -200 45 -200 45
3473705250.8751 -3.4634345 24.684139 -200 45 -200 45 -200 45
3474705367.5613 -3.4687567 24.691668 -200 45 -200 45 -200 45
3475705484.2474 -3.4712887 24.688198 -200 45 -200 45 -200 45
3476705600.9335 -3.4747009 24.713541 -200 45 -200 45 -200 45
3477705717.6196 -3.4789793 24.734932 -200 45 -200 45 -200 45
3478705834.3057 -3.4854307 24.75528 -200 45 -200 45 -200 45
3479705950.9918 -3.4904404 24.760683 -200 45 -200 45 -200 45
3480706067.6779 -3.4940443 24.780582 -200 45 -200 45 -200 45
3481706184.3641 -3.496851 24.795322 -200 45 -200 45 -200 45
3482706301.0502 -3.4985759 24.80913 -200 45 -200 45 -200 45
3483706417.7363 -3.5036182 24.841846 -200 45 -200 45 -200 45
3484706534.4224 -3.5069015 24.840168 -200 45 -200 45 -200 45
3485706651.1085 -3.5072484 24.835373 -200 45 -200 45 -200 45
3486706767.7946 -3.5038645 24.836269 -200 45 -200 45 -200 45
3487706884.4807 -3.5045116 24.839085 -200 45 -200 45 -200 45
3488707001.1669 -3.5074401 24.856459 -200 45 -200 45 -200 45
3489707117.853 -3.5128646 24.872797 -200 45 -200 45 -200 45
3490707234.5391 -3.5177054 24.894302 -200 45 -200 45 -200 45
3491707351.2252 -3.517087 24.902876 -200 45 -200 45 -200 45
3492707467.9113 -3.5188203 24.906858 -200 45 -200 45 -200 45
3493707584.5974 -3.5247877 24.928286 -200 45 -200 45 -200 45
3494707701.2835 -3.5294008 24.954437 -200 45 -200 45 -200 45
3495707817.9697 -3.5326824 24.968401 -200 45 -200 45 -200 45
3496707934.6558 -3.5391762 24.976572 -200 45 -200 45 -200 45
3497708051.3419 -3.5394297 24.997095 -200 45 -200 45 -200 45
3498708168.028 -3.541857 25.014112 -200 45 -200 45 -200 45
3499708284.7141 -3.5459702 25.024502 -200 45 -200 45 -200 45
3500708401.4002 -3.5475509 25.037104 -200 45 -200 45 -200 45
3501708518.0863 -3.5493569 25.043753 -200 45 -200 45 -200 45
3502708634.7725 -3.5455055 25.03371 -200 45 -200 45 -200 45
3503708751.4586 -3.5485032 25.041964 -200 45 -200 45 -200 45
3504708868.1447 -3.550092 25.063486 -200 45 -200 45 -200 45
3505708984.8308 -3.5569875 25.095537 -200 45 -200 45 -200 45
3506709101.5169 -3.5601258 25.099014 -200 45 -200 45 -200 45
3507709218.203 -3.5633967 25.120352 -200 45 -200 45 -200 45
3508709334.8891 -3.5641243 25.126032 -200 45 -200 45 -200 45
3509709451.5753 -3.5716856 25.151407 -200 45 -200 45 -200 45
3510709568.2614 -3.5785382 25.184309 -200 45 -200 45 -200 45
3511709684.9475 -3.5827489 25.213709 -200 45 -200 45 -200 45
3512709801.6336 -3.5879982 25.22064 -200 45 -200 45 -200 45
3513709918.3197 -3.5921278 25.241693 -200 45 -200 45 -200 45
3514710035.0058 -3.5952179 25.28142 -200 45 -200 45 -200 45
3515710151.6919 -3.6017413 25.30706 -200 45 -200 45 -200 45
3516710268.3781 -3.6051614 25.344091 -200 45 -200 45 -200 45
3517710385.0642 -3.6090446 25.351637 -200 45 -200 45 -200 45
3518710501.7503 -3.6136 25.352654 -200 45 -200 45 -200 45
3519710618.4364 -3.6183217 25.407694 -200 45 -200 45 -200 45
3520710735.1225 -3.622287 25.447422 -200 45 -200 45 -200 45
3521710851.8086 -3.6327808 25.521584 -200 45 -200 45 -200 45
3522710968.4947 -3.6383436 25.601526 -200 45 -200 45 -200 45
3523711085.1809 -3.6447601 25.673912 -200 45 -200 45 -200 45
3524711201.867 -3.6463859 25.763531 -200 45 -200 45 -200 45
3525711318.5531 -3.6503761 25.888556 -200 45 -200 45 -200 45
3526711435.2392 -3.6495743 26.00527 -200 45 -200 45 -200 45
3527711551.9253 -3.6485467 26.14308 -200 45 -200 45 -200 45
3528711668.6114 -3.6397579 26.246918 -200 45 -200 45 -200 45
3529711785.2975 -3.6291015 26.351156 -200 45 -200 45 -200 45
3530711901.9837 -3.6169786 26.43643 -200 45 -200 45 -200 45
3531712018.6698 -3.6028616 26.49176 -200 45 -200 45 -200 45
3532712135.3559 -3.5859067 26.541042 -200 45 -200 45 -200 45
3533712252.042 -3.568511 26.562201 -200 45 -200 45 -200 45
3534712368.7281 -3.5493143 26.532595 -200 45 -200 45 -200 45
3535712485.4142 -3.532274 26.534708 -200 45 -200 45 -200 45
3536712602.1004 -3.5198307 26.514206 -200 45 -200 45 -200 45
3537712718.7865 -3.5119324 26.490828 -200 45 -200 45 -200 45
3538712835.4726 -3.5038011 26.443707 -200 45 -200 45 -200 45
3539712952.1587 -3.495646 26.399303 -200 45 -200 45 -200 45
3540713068.8448 -3.4905319 26.346268 -200 45 -200 45 -200 45
3541713185.5309 -3.4869337 26.327347 -200 45 -200 45 -200 45
3542713302.217 -3.4869967 26.297108 -200 45 -200 45 -200 45
3543713418.9032 -3.4854069 26.27438 -200 45 -200 45 -200 45
3544713535.5893 -3.4842954 26.223753 -200 45 -200 45 -200 45
3545713652.2754 -3.4806821 26.198709 -200 45 -200 45 -200 45
3546713768.9615 -3.4800477 26.157438 -200 45 -200 45 -200 45
3547713885.6476 -3.4830127 26.127695 -200 45 -200 45 -200 45
3548714002.3337 -3.4823699 26.100124 -200 45 -200 45 -200 45
3549714119.0198 -3.4818389 26.042807 -200 45 -200 45 -200 45
3550714235.706 -3.4803047 26.004129 -200 45 -200 45 -200 45
3551714352.3921 -3.4828463 25.987864 -200 45 -200 45 -200 45
3552714469.0782 -3.4867079 25.985073 -200 45 -200 45 -200 45
3553714585.7643 -3.4905341 25.992058 -200 45 -200 45 -200 45
3554714702.4504 -3.4908719 25.985708 -200 45 -200 45 -200 45
3555714819.1365 -3.4941924 25.999264 -200 45 -200 45 -200 45
3556714935.8226 -3.4963057 25.984467 -200 45 -200 45 -200 45
3557715052.5088 -3.4992809 25.999269 -200 45 -200 45 -200 45
3558715169.1949 -3.5020585 26.008802 -200 45 -200 45 -200 45
3559715285.881 -3.5049334 26.008751 -200 45 -200 45 -200 45
3560715402.5671 -3.5052617 26.017015 -200 45 -200 45 -200 45
3561715519.2532 -3.5058618 26.023294 -200 45 -200 45 -200 45
3562715635.9393 -3.5072486 26.027145 -200 45 -200 45 -200 45
3563715752.6254 -3.5093393 26.033297 -200 45 -200 45 -200 45
3564715869.3116 -3.5130587 26.038364 -200 45 -200 45 -200 45
3565715985.9977 -3.5098801 26.038921 -200 45 -200 45 -200 45
3566716102.6838 -3.5037308 26.019655 -200 45 -200 45 -200 45
3567716219.3699 -3.5041935 26.035692 -200 45 -200 45 -200 45
3568716336.056 -3.5032818 26.039244 -200 45 -200 45 -200 45
3569716452.7421 -3.5038042 26.05209 -200 45 -200 45 -200 45
3570716569.4282 -3.5041752 26.044735 -200 45 -200 45 -200 45
3571716686.1144 -3.5024078 26.047606 -200 45 -200 45 -200 45
3572716802.8005 -3.5006585 26.036907 -200 45 -200 45 -200 45
3573716919.4866 -3.4999068 26.042482 -200 45 -200 45 -200 45
3574717036.1727 -3.5038068 26.037861 -200 45 -200 45 -200 45
3575717152.8588 -3.5055423 26.023449 -200 45 -200 45 -200 45
3576717269.5449 -3.5074642 25.995762 -200 45 -200 45 -200 45
3577717386.231 -3.5095205 25.988379 -200 45 -200 45 -200 45
3578717502.9172 -3.5132458 25.9825 -200 45 -200 45 -200 45
3579717619.6033 -3.516741 25.980127 -200 45 -200 45 -200 45
3580717736.2894 -3.5170748 25.95384 -200 45 -200 45 -200 45
3581717852.9755 -3.5194232 25.938654 -200 45 -200 45 -200 45
3582717969.6616 -3.5160148 25.93137 -200 45 -200 45 -200 45
3583718086.3477 -3.5194347 25.920088 -200 45 -200 45 -200 45
3584718203.0338 -3.5225368 25.9235 -200 45 -200 45 -200 45
3585718319.72 -3.5290022 25.961594 -200 45 -200 45 -200 45
3586718436.4061 -3.5307627 25.957016 -200 45 -200 45 -200 45
3587718553.0922 -3.5324326 25.951859 -200 45 -200 45 -200 45
3588718669.7783 -3.5350926 25.956892 -200 45 -200 45 -200 45
3589718786.4644 -3.5388887 25.969187 -200 45 -200 45 -200 45
3590718903.1505 -3.5443757 25.991428 -200 45 -200 45 -200 45
3591719019.8366 -3.5482857 26.010324 -200 45 -200 45 -200 45
3592719136.5228 -3.5500386 26.018246 -200 45 -200 45 -200 45
3593719253.2089 -3.5513661 26.028881 -200 45 -200 45 -200 45
3594719369.895 -3.5560563 26.031902 -200 45 -200 45 -200 45
3595719486.5811 -3.5565679 26.057011 -200 45 -200 45 -200 45
3596719603.2672 -3.5586288 26.052824 -200 45 -200 45 -200 45
3597719719.9533 -3.5569434 26.055363 -200 45 -200 45 -200 45
3598719836.6394 -3.5550435 26.038338 -200 45 -200 45 -200 45
3599719953.3256 -3.5568531 26.050402 -200 45 -200 45 -200 45
3600720070.0117 -3.5572248 26.057283 -200 45 -200 45 -200 45
3601720186.6978 -3.5605066 26.077433 -200 45 -200 45 -200 45
3602720303.3839 -3.5611989 26.094107 -200 45 -200 45 -200 45
3603720420.07 -3.5629709 26.097221 -200 45 -200 45 -200 45
3604720536.7561 -3.5642622 26.112944 -200 45 -200 45 -200 45
3605720653.4422 -3.5685904 26.132549 -200 45 -200 45 -200 45
3606720770.1284 -3.5729225 26.15576 -200 45 -200 45 -200 45
3607720886.8145 -3.5742958 26.165079 -200 45 -200 45 -200 45
3608721003.5006 -3.5771356 26.179953 -200 45 -200 45 -200 45
3609721120.1867 -3.5781524 26.199583 -200 45 -200 45 -200 45
3610721236.8728 -3.5824041 26.211779 -200 45 -200 45 -200 45
3611721353.5589 -3.5842867 26.213438 -200 45 -200 45 -200 45
3612721470.245 -3.5831192 26.235535 -200 45 -200 45 -200 45
3613721586.9312 -3.580049 26.219593 -200 45 -200 45 -200 45
3614721703.6173 -3.5783885 26.201429 -200 45 -200 45 -200 45
3615721820.3034 -3.5793269 26.221094 -200 45 -200 45 -200 45
3616721936.9895 -3.5824206 26.239975 -200 45 -200 45 -200 45
3617722053.6756 -3.5849845 26.266857 -200 45 -200 45 -200 45
3618722170.3617 -3.5848293 26.259361 -200 45 -200 45 -200 45
3619722287.0478 -3.5850062 26.264351 -200 45 -200 45 -200 45
3620722403.734 -3.5876522 26.282734 -200 45 -200 45 -200 45
3621722520.4201 -3.5905304 26.306637 -200 45 -200 45 -200 45
3622722637.1062 -3.594491 26.319395 -200 45 -200 45 -200 45
3623722753.7923 -3.5974352 26.334003 -200 45 -200 45 -200 45
3624722870.4784 -3.5981569 26.341787 -200 45 -200 45 -200 45
3625722987.1645 -3.5985897 26.361292 -200 45 -200 45 -200 45
3626723103.8506 -3.6017749 26.373932 -200 45 -200 45 -200 45
3627723220.5368 -3.6043055 26.396931 -200 45 -200 45 -200 45
3628723337.2229 -3.6033022 26.390858 -200 45 -200 45 -200 45
3629723453.909 -3.5995166 26.385374 -200 45 -200 45 -200 45
3630723570.5951 -3.5977337 26.374475 -200 45 -200 45 -200 45
3631723687.2812 -3.5988705 26.394569 -200 45 -200 45 -200 45
3632723803.9673 -3.5993447 26.409086 -200 45 -200 45 -200 45
3633723920.6534 -3.6053073 26.431042 -200 45 -200 45 -200 45
3634724037.3396 -3.6049526 26.442377 -200 45 -200 45 -200 45
3635724154.0257 -3.6048877 26.453379 -200 45 -200 45 -200 45
3636724270.7118 -3.6061921 26.467487 -200 45 -200 45 -200 45
3637724387.3979 -3.6095808 26.482208 -200 45 -200 45 -200 45
3638724504.084 -3.6131525 26.501226 -200 45 -200 45 -200 45
3639724620.7701 -3.6147659 26.51354 -200 45 -200 45 -200 45
3640724737.4562 -3.6188836 26.531008 -200 45 -200 45 -200 45
3641724854.1424 -3.6175532 26.550432 -200 45 -200 45 -200 45
3642724970.8285 -3.6202245 26.559969 -200 45 -200 45 -200 45
3643725087.5146 -3.624238 26.565924 -200 45 -200 45 -200 45
3644725204.2007 -3.6227505 26.571848 -200 45 -200 45 -200 45
3645725320.8868 -3.6197081 26.56761 -200 45 -200 45 -200 45
3646725437.5729 -3.6151905 26.560013 -200 45 -200 45 -200 45
3647725554.259 -3.6177325 26.580572 -200 45 -200 45 -200 45
3648725670.9452 -3.6200168 26.596626 -200 45 -200 45 -200 45
3649725787.6313 -3.6222434 26.617422 -200 45 -200 45 -200 45
3650725904.3174 -3.6229582 26.620983 -200 45 -200 45 -200 45
3651726021.0035 -3.6227589 26.634556 -200 45 -200 45 -200 45
3652726137.6896 -3.6249588 26.653772 -200 45 -200 45 -200 45
3653726254.3757 -3.6279168 26.668961 -200 45 -200 45 -200 45
3654726371.0618 -3.6312189 26.696987 -200 45 -200 45 -200 45
3655726487.748 -3.6337705 26.713486 -200 45 -200 45 -200 45
3656726604.4341 -3.6374934 26.721886 -200 45 -200 45 -200 45
3657726721.1202 -3.63569 26.731041 -200 45 -200 45 -200 45
3658726837.8063 -3.6375556 26.756552 -200 45 -200 45 -200 45
3659726954.4924 -3.6401916 26.761759 -200 45 -200 45 -200 45
3660727071.1785 -3.6385014 26.774178 -200 45 -200 45 -200 45
3661727187.8646 -3.6355798 26.761435 -200 45 -200 45 -200 45
3662727304.5508 -3.6317506 26.76755 -200 45 -200 45 -200 45
3663727421.2369 -3.6341658 26.777229 -200 45 -200 45 -200 45
3664727537.923 -3.6356792 26.778585 -200 45 -200 45 -200 45
3665727654.6091 -3.6406951 26.807302 -200 45 -200 45 -200 45
3666727771.2952 -3.6395681 26.827763 -200 45 -200 45 -200 45
3667727887.9813 -3.6386313 26.831421 -200 45 -200 45 -200 45
3668728004.6674 -3.6421812 26.855469 -200 45 -200 45 -200 45
3669728121.3536 -3.6438837 26.875336 -200 45 -200 45 -200 45
3670728238.0397 -3.6480155 26.888662 -200 45 -200 45 -200 45
3671728354.7258 -3.6519079 26.911917 -200 45 -200 45 -200 45
3672728471.4119 -3.6511514 26.925188 -200 45 -200 45 -200 45
3673728588.098 -3.6512671 26.943272 -200 45 -200 45 -200 45
3674728704.7841 -3.6541555 26.953161 -200 45 -200 45 -200 45
3675728821.4702 -3.6582229 26.974609 -200 45 -200 45 -200 45
3676728938.1564 -3.6540954 26.972254 -200 45 -200 45 -200 45
3677729054.8425 -3.6536388 26.96122 -200 45 -200 45 -200 45
3678729171.5286 -3.6514192 26.949926 -200 45 -200 45 -200 45
3679729288.2147 -3.6515796 26.970896 -200 45 -200 45 -200 45
3680729404.9008 -3.6549222 26.989901 -200 45 -200 45 -200 45
3681729521.5869 -3.6555986 26.997868 -200 45 -200 45 -200 45
3682729638.273 -3.6586072 27.014149 -200 45 -200 45 -200 45
3683729754.9592 -3.6573451 27.011923 -200 45 -200 45 -200 45
3684729871.6453 -3.6607392 27.044384 -200 45 -200 45 -200 45
3685729988.3314 -3.6644654 27.064846 -200 45 -200 45 -200 45
3686730105.0175 -3.6662922 27.082272 -200 45 -200 45 -200 45
3687730221.7036 -3.6703925 27.086069 -200 45 -200 45 -200 45
3688730338.3897 -3.6706164 27.091797 -200 45 -200 45 -200 45
3689730455.0758 -3.6704724 27.108042 -200 45 -200 45 -200 45
3690730571.762 -3.6729195 27.141964 -200 45 -200 45 -200 45
3691730688.4481 -3.675256 27.154823 -200 45 -200 45 -200 45
3692730805.1342 -3.6741104 27.164421 -200 45 -200 45 -200 45
3693730921.8203 -3.6732419 27.153103 -200 45 -200 45 -200 45
3694731038.5064 -3.6711025 27.157385 -200 45 -200 45 -200 45
3695731155.1925 -3.6713588 27.163315 -200 45 -200 45 -200 45
3696731271.8786 -3.6745701 27.191879 -200 45 -200 45 -200 45
3697731388.5648 -3.6758599 27.199289 -200 45 -200 45 -200 45
3698731505.2509 -3.6777482 27.215561 -200 45 -200 45 -200 45
3699731621.937 -3.6773217 27.216743 -200 45 -200 45 -200 45
3700731738.6231 -3.6809611 27.239641 -200 45 -200 45 -200 45
3701731855.3092 -3.6825738 27.267185 -200 45 -200 45 -200 45
3702731971.9953 -3.687068 27.27545 -200 45 -200 45 -200 45
3703732088.6814 -3.6889496 27.294033 -200 45 -200 45 -200 45
3704732205.3676 -3.6903722 27.304134 -200 45 -200 45 -200 45
3705732322.0537 -3.6915116 27.317472 -200 45 -200 45 -200 45
3706732438.7398 -3.6921861 27.346729 -200 45 -200 45 -200 45
3707732555.4259 -3.695919 27.356283 -200 45 -200 45 -200 45
3708732672.112 -3.6935151 27.354004 -200 45 -200 45 -200 45
3709732788.7981 -3.69172 27.343653 -200 45 -200 45 -200 45
3710732905.4842 -3.6900108 27.34366 -200 45 -200 45 -200 45
3711733022.1704 -3.6908593 27.352938 -200 45 -200 45 -200 45
3712733138.8565 -3.6947238 27.378778 -200 45 -200 45 -200 45
3713733255.5426 -3.6968012 27.398706 -200 45 -200 45 -200 45
3714733372.2287 -3.6981912 27.398043 -200 45 -200 45 -200 45
3715733488.9148 -3.6986876 27.421635 -200 45 -200 45 -200 45
3716733605.6009 -3.7016258 27.440556 -200 45 -200 45 -200 45
3717733722.287 -3.7033684 27.456762 -200 45 -200 45 -200 45
3718733838.9732 -3.7066479 27.488478 -200 45 -200 45 -200 45
3719733955.6593 -3.7099481 27.500851 -200 45 -200 45 -200 45
3720734072.3454 -3.7077916 27.51738 -200 45 -200 45 -200 45
3721734189.0315 -3.7126031 27.521933 -200 45 -200 45 -200 45
3722734305.7176 -3.712213 27.550224 -200 45 -200 45 -200 45
3723734422.4037 -3.7152081 27.56114 -200 45 -200 45 -200 45
3724734539.0898 -3.7140567 27.572821 -200 45 -200 45 -200 45
3725734655.776 -3.7120073 27.551659 -200 45 -200 45 -200 45
3726734772.4621 -3.7094352 27.54546 -200 45 -200 45 -200 45
3727734889.1482 -3.7123256 27.567724 -200 45 -200 45 -200 45
3728735005.8343 -3.7145846 27.590914 -200 45 -200 45 -200 45
3729735122.5204 -3.7171893 27.604301 -200 45 -200 45 -200 45
3730735239.2065 -3.7169235 27.609926 -200 45 -200 45 -200 45
3731735355.8926 -3.7174227 27.618889 -200 45 -200 45 -200 45
3732735472.5788 -3.7218754 27.647621 -200 45 -200 45 -200 45
3733735589.2649 -3.7244167 27.663448 -200 45 -200 45 -200 45
3734735705.951 -3.7289066 27.673574 -200 45 -200 45 -200 45
3735735822.6371 -3.7289822 27.693773 -200 45 -200 45 -200 45
3736735939.3232 -3.7310896 27.699068 -200 45 -200 45 -200 45
3737736056.0093 -3.7315092 27.712082 -200 45 -200 45 -200 45
3738736172.6954 -3.7340014 27.733419 -200 45 -200 45 -200 45
3739736289.3816 -3.7357123 27.75338 -200 45 -200 45 -200 45
3740736406.0677 -3.7352896 27.749113 -200 45 -200 45 -200 45
3741736522.7538 -3.7343042 27.750435 -200 45 -200 45 -200 45
3742736639.4399 -3.7344525 27.734903 -200 45 -200 45 -200 45
3743736756.126 -3.7345557 27.752134 -200 45 -200 45 -200 45
3744736872.8121 -3.739572 27.772757 -200 45 -200 45 -200 45
3745736989.4983 -3.7403896 27.785183 -200 45 -200 45 -200 45
3746737106.1844 -3.741442 27.796856 -200 45 -200 45 -200 45
3747737222.8705 -3.7422609 27.802902 -200 45 -200 45 -200 45
3748737339.5566 -3.7476518 27.8106 -200 45 -200 45 -200 45
3749737456.2427 -3.7516744 27.839607 -200 45 -200 45 -200 45
3750737572.9288 -3.7553456 27.855736 -200 45 -200 45 -200 45
3751737689.6149 -3.7572103 27.867331 -200 45 -200 45 -200 45
3752737806.3011 -3.7597353 27.878345 -200 45 -200 45 -200 45
3753737922.9872 -3.761025 27.88135 -200 45 -200 45 -200 45
3754738039.6733 -3.7656555 27.915758 -200 45 -200 45 -200 45
3755738156.3594 -3.7696199 27.915724 -200 45 -200 45 -200 45
3756738273.0455 -3.7706332 27.9321 -200 45 -200 45 -200 45
3757738389.7316 -3.7690794 27.914135 -200 45 -200 45 -200 45
3758738506.4177 -3.7701058 27.909573 -200 45 -200 45 -200 45
3759738623.1039 -3.7725465 27.940966 -200 45 -200 45 -200 45
3760738739.79 -3.7768099 27.96982 -200 45 -200 45 -200 45
3761738856.4761 -3.7795804 27.988682 -200 45 -200 45 -200 45
3762738973.1622 -3.7835314 27.989859 -200 45 -200 45 -200 45
3763739089.8483 -3.7860043 28.012207 -200 45 -200 45 -200 45
3764739206.5344 -3.7922273 28.033936 -200 45 -200 45 -200 45
3765739323.2205 -3.7966671 28.055389 -200 45 -200 45 -200 45
3766739439.9067 -3.80163 28.073904 -200 45 -200 45 -200 45
3767739556.5928 -3.8081465 28.092072 -200 45 -200 45 -200 45
3768739673.2789 -3.8112154 28.119385 -200 45 -200 45 -200 45
3769739789.965 -3.815232 28.149343 -200 45 -200 45 -200 45
3770739906.6511 -3.8214483 28.17005 -200 45 -200 45 -200 45
3771740023.3372 -3.8264973 28.203352 -200 45 -200 45 -200 45
3772740140.0233 -3.8288097 28.224104 -200 45 -200 45 -200 45
3773740256.7095 -3.8304274 28.236568 -200 45 -200 45 -200 45
3774740373.3956 -3.834039 28.26775 -200 45 -200 45 -200 45
3775740490.0817 -3.8362772 28.307926 -200 45 -200 45 -200 45
3776740606.7678 -3.8446798 28.358471 -200 45 -200 45 -200 45
3777740723.4539 -3.8469634 28.393431 -200 45 -200 45 -200 45
3778740840.14 -3.8493955 28.437088 -200 45 -200 45 -200 45
3779740956.8261 -3.8515947 28.479256 -200 45 -200 45 -200 45
3780741073.5123 -3.858151 28.53475 -200 45 -200 45 -200 45
3781741190.1984 -3.8626587 28.575224 -200 45 -200 45 -200 45
3782741306.8845 -3.8669612 28.631645 -200 45 -200 45 -200 45
3783741423.5706 -3.8699107 28.70274 -200 45 -200 45 -200 45
3784741540.2567 -3.8716259 28.740248 -200 45 -200 45 -200 45
3785741656.9428 -3.876133 28.793974 -200 45 -200 45 -200 45
3786741773.6289 -3.8784785 28.850863 -200 45 -200 45 -200 45
3787741890.3151 -3.8810272 28.907984 -200 45 -200 45 -200 45
3788742007.0012 -3.8801939 28.96801 -200 45 -200 45 -200 45
3789742123.6873 -3.8759124 28.994642 -200 45 -200 45 -200 45
3790742240.3734 -3.8755214 29.036829 -200 45 -200 45 -200 45
3791742357.0595 -3.8766224 29.111069 -200 45 -200 45 -200 45
3792742473.7456 -3.8772576 29.183165 -200 45 -200 45 -200 45
3793742590.4317 -3.8755722 29.244005 -200 45 -200 45 -200 45
3794742707.1179 -3.8734 29.299473 -200 45 -200 45 -200 45
3795742823.804 -3.8715057 29.35334 -200 45 -200 45 -200 45
3796742940.4901 -3.8697245 29.438721 -200 45 -200 45 -200 45
3797743057.1762 -3.8696434 29.502459 -200 45 -200 45 -200 45
3798743173.8623 -3.8649418 29.561554 -200 45 -200 45 -200 45
3799743290.5484 -3.858655 29.624447 -200 45 -200 45 -200 45
3800743407.2345 -3.8505082 29.657314 -200 45 -200 45 -200 45
3801743523.9207 -3.8416116 29.681513 -200 45 -200 45 -200 45
3802743640.6068 -3.8354921 29.723484 -200 45 -200 45 -200 45
3803743757.2929 -3.828011 29.721033 -200 45 -200 45 -200 45
3804743873.979 -3.817945 29.699257 -200 45 -200 45 -200 45
3805743990.6651 -3.8108797 29.67135 -200 45 -200 45 -200 45
3806744107.3512 -3.8047452 29.662512 -200 45 -200 45 -200 45
3807744224.0373 -3.8047183 29.652031 -200 45 -200 45 -200 45
3808744340.7235 -3.8032582 29.661148 -200 45 -200 45 -200 45
3809744457.4096 -3.8011973 29.662733 -200 45 -200 45 -200 45
3810744574.0957 -3.8002067 29.638142 -200 45 -200 45 -200 45
3811744690.7818 -3.799432 29.62694 -200 45 -200 45 -200 45
3812744807.4679 -3.8025453 29.642107 -200 45 -200 45 -200 45
3813744924.154 -3.8067472 29.628189 -200 45 -200 45 -200 45
3814745040.8401 -3.8106987 29.62182 -200 45 -200 45 -200 45
3815745157.5263 -3.8137093 29.606327 -200 45 -200 45 -200 45
3816745274.2124 -3.817941 29.597412 -200 45 -200 45 -200 45
3817745390.8985 -3.8240609 29.589846 -200 45 -200 45 -200 45
3818745507.5846 -3.8309746 29.599541 -200 45 -200 45 -200 45
3819745624.2707 -3.8386269 29.60062 -200 45 -200 45 -200 45
3820745740.9568 -3.8450994 29.595528 -200 45 -200 45 -200 45
3821745857.6429 -3.8497639 29.599874 -200 45 -200 45 -200 45
3822745974.3291 -3.8587573 29.618153 -200 45 -200 45 -200 45
3823746091.0152 -3.86956 29.655968 -200 45 -200 45 -200 45
3824746207.7013 -3.882755 29.704893 -200 45 -200 45 -200 45
3825746324.3874 -3.8921123 29.772242 -200 45 -200 45 -200 45
3826746441.0735 -3.903096 29.84244 -200 45 -200 45 -200 45
3827746557.7596 -3.912467 29.933298 -200 45 -200 45 -200 45
3828746674.4457 -3.9253733 30.053064 -200 45 -200 45 -200 45
3829746791.1319 -3.9327209 30.175278 -200 45 -200 45 -200 45
3830746907.818 -3.9396544 30.292204 -200 45 -200 45 -200 45
3831747024.5041 -3.9431679 30.424873 -200 45 -200 45 -200 45
3832747141.1902 -3.9445703 30.56395 -200 45 -200 45 -200 45
3833747257.8763 -3.9436238 30.702982 -200 45 -200 45 -200 45
3834747374.5624 -3.9434099 30.830097 -200 45 -200 45 -200 45
3835747491.2485 -3.9345424 30.967152 -200 45 -200 45 -200 45
3836747607.9347 -3.929868 31.096909 -200 45 -200 45 -200 45
3837747724.6208 -3.9150796 31.216612 -200 45 -200 45 -200 45
3838747841.3069 -3.902252 31.343061 -200 45 -200 45 -200 45
3839747957.993 -3.8888946 31.445665 -200 45 -200 45 -200 45
3840748074.6791 -3.8763449 31.553364 -200 45 -200 45 -200 45
3841748191.3652 -3.8621056 31.610619 -200 45 -200 45 -200 45
3842748308.0513 -3.8498394 31.685583 -200 45 -200 45 -200 45
3843748424.7375 -3.8361816 31.754478 -200 45 -200 45 -200 45
3844748541.4236 -3.8254642 31.847021 -200 45 -200 45 -200 45
3845748658.1097 -3.8145597 31.93749 -200 45 -200 45 -200 45
3846748774.7958 -3.7983484 32.022663 -200 45 -200 45 -200 45
3847748891.4819 -3.779582 32.082821 -200 45 -200 45 -200 45
3848749008.168 -3.7578154 32.143417 -200 45 -200 45 -200 45
3849749124.8541 -3.7354233 32.176422 -200 45 -200 45 -200 45
3850749241.5403 -3.7146027 32.186695 -200 45 -200 45 -200 45
3851749358.2264 -3.6919026 32.173328 -200 45 -200 45 -200 45
3852749474.9125 -3.6734362 32.13237 -200 45 -200 45 -200 45
3853749591.5986 -3.6496968 32.081738 -200 45 -200 45 -200 45
3854749708.2847 -3.6336844 32.029831 -200 45 -200 45 -200 45
3855749824.9708 -3.6201384 31.989437 -200 45 -200 45 -200 45
3856749941.6569 -3.6123528 31.962168 -200 45 -200 45 -200 45
3857750058.3431 -3.6012778 31.909101 -200 45 -200 45 -200 45
3858750175.0292 -3.5906656 31.84672 -200 45 -200 45 -200 45
3859750291.7153 -3.5814047 31.802233 -200 45 -200 45 -200 45
3860750408.4014 -3.5796442 31.760733 -200 45 -200 45 -200 45
3861750525.0875 -3.5764129 31.734053 -200 45 -200 45 -200 45
3862750641.7736 -3.5769887 31.707586 -200 45 -200 45 -200 45
3863750758.4597 -3.5702889 31.673374 -200 45 -200 45 -200 45
3864750875.1459 -3.5665927 31.639711 -200 45 -200 45 -200 45
3865750991.832 -3.5609491 31.63413 -200 45 -200 45 -200 45
3866751108.5181 -3.5571597 31.623779 -200 45 -200 45 -200 45
3867751225.2042 -3.5500832 31.598494 -200 45 -200 45 -200 45
3868751341.8903 -3.5410831 31.562752 -200 45 -200 45 -200 45
3869751458.5764 -3.5323744 31.507336 -200 45 -200 45 -200 45
3870751575.2625 -3.526763 31.471729 -200 45 -200 45 -200 45
3871751691.9487 -3.5238309 31.440649 -200 45 -200 45 -200 45
3872751808.6348 -3.5250754 31.441626 -200 45 -200 45 -200 45
3873751925.3209 -3.522655 31.413233 -200 45 -200 45 -200 45
3874752042.007 -3.5213237 31.413242 -200 45 -200 45 -200 45
3875752158.6931 -3.5167184 31.408287 -200 45 -200 45 -200 45
3876752275.3792 -3.5180106 31.416668 -200 45 -200 45 -200 45
3877752392.0653 -3.5139966 31.41609 -200 45 -200 45 -200 45
3878752508.7515 -3.5143569 31.413977 -200 45 -200 45 -200 45
3879752625.4376 -3.5098979 31.413061 -200 45 -200 45 -200 45
3880752742.1237 -3.5027761 31.408848 -200 45 -200 45 -200 45
3881752858.8098 -3.4995897 31.412733 -200 45 -200 45 -200 45
3882752975.4959 -3.4955769 31.419079 -200 45 -200 45 -200 45
3883753092.182 -3.4920115 31.402031 -200 45 -200 45 -200 45
3884753208.8681 -3.4806821 31.390501 -200 45 -200 45 -200 45
3885753325.5543 -3.4701304 31.380926 -200 45 -200 45 -200 45
3886753442.2404 -3.460135 31.372879 -200 45 -200 45 -200 45
3887753558.9265 -3.4507775 31.368904 -200 45 -200 45 -200 45
3888753675.6126 -3.4433584 31.353445 -200 45 -200 45 -200 45
3889753792.2987 -3.4319501 31.330969 -200 45 -200 45 -200 45
3890753908.9848 -3.423214 31.280928 -200 45 -200 45 -200 45
3891754025.6709 -3.412241 31.250029 -200 45 -200 45 -200 45
3892754142.3571 -3.406776 31.210676 -200 45 -200 45 -200 45
3893754259.0432 -3.4001384 31.16143 -200 45 -200 45 -200 45
3894754375.7293 -3.392983 31.084858 -200 45 -200 45 -200 45
3895754492.4154 -3.386184 31.011887 -200 45 -200 45 -200 45
3896754609.1015 -3.3807814 30.933002 -200 45 -200 45 -200 45
3897754725.7876 -3.3794656 30.838253 -200 45 -200 45 -200 45
3898754842.4737 -3.3787775 30.756302 -200 45 -200 45 -200 45
3899754959.1599 -3.3798726 30.659077 -200 45 -200 45 -200 45
3900755075.846 -3.3732076 30.563202 -200 45 -200 45 -200 45
3901755192.5321 -3.3742228 30.4519 -200 45 -200 45 -200 45
3902755309.2182 -3.3763206 30.374517 -200 45 -200 45 -200 45
3903755425.9043 -3.3819094 30.308828 -200 45 -200 45 -200 45
3904755542.5904 -3.3895645 30.260269 -200 45 -200 45 -200 45
3905755659.2765 -3.3983226 30.199051 -200 45 -200 45 -200 45
3906755775.9627 -3.403085 30.139135 -200 45 -200 45 -200 45
3907755892.6488 -3.4093189 30.089268 -200 45 -200 45 -200 45
3908756009.3349 -3.4195192 30.078302 -200 45 -200 45 -200 45
3909756126.021 -3.4302995 30.058033 -200 45 -200 45 -200 45
3910756242.7071 -3.4394486 30.027531 -200 45 -200 45 -200 45
3911756359.3932 -3.4467876 30.001127 -200 45 -200 45 -200 45
3912756476.0793 -3.4535739 29.991112 -200 45 -200 45 -200 45
3913756592.7655 -3.4603121 29.984774 -200 45 -200 45 -200 45
3914756709.4516 -3.4681125 29.97806 -200 45 -200 45 -200 45
3915756826.1377 -3.4731858 29.952316 -200 45 -200 45 -200 45
3916756942.8238 -3.4743321 29.951885 -200 45 -200 45 -200 45
3917757059.5099 -3.4763727 29.913855 -200 45 -200 45 -200 45
3918757176.196 -3.4804471 29.906923 -200 45 -200 45 -200 45
3919757292.8821 -3.4848547 29.908699 -200 45 -200 45 -200 45
3920757409.5683 -3.4914956 29.921078 -200 45 -200 45 -200 45
3921757526.2544 -3.4982972 29.907295 -200 45 -200 45 -200 45
3922757642.9405 -3.4998076 29.900055 -200 45 -200 45 -200 45
3923757759.6266 -3.5056858 29.91387 -200 45 -200 45 -200 45
3924757876.3127 -3.5118222 29.927563 -200 45 -200 45 -200 45
3925757992.9988 -3.5178053 29.944727 -200 45 -200 45 -200 45
3926758109.6849 -3.5237036 29.957691 -200 45 -200 45 -200 45
3927758226.3711 -3.5278342 29.952286 -200 45 -200 45 -200 45
3928758343.0572 -3.5316255 29.955799 -200 45 -200 45 -200 45
3929758459.7433 -3.5347679 29.965567 -200 45 -200 45 -200 45
3930758576.4294 -3.5373437 29.978333 -200 45 -200 45 -200 45
3931758693.1155 -3.5423696 29.980471 -200 45 -200 45 -200 45
3932758809.8016 -3.5413508 29.957296 -200 45 -200 45 -200 45
3933758926.4877 -3.5398149 29.953808 -200 45 -200 45 -200 45
3934759043.1739 -3.5419776 29.960629 -200 45 -200 45 -200 45
3935759159.86 -3.5471325 29.974726 -200 45 -200 45 -200 45
3936759276.5461 -3.550931 29.988983 -200 45 -200 45 -200 45
3937759393.2322 -3.5518045 29.976337 -200 45 -200 45 -200 45
3938759509.9183 -3.5563941 29.985548 -200 45 -200 45 -200 45
3939759626.6044 -3.5582995 29.996122 -200 45 -200 45 -200 45
3940759743.2905 -3.5621982 30.025686 -200 45 -200 45 -200 45
3941759859.9767 -3.5691853 30.023846 -200 45 -200 45 -200 45
3942759976.6628 -3.5730424 30.035913 -200 45 -200 45 -200 45
3943760093.3489 -3.5753181 30.046398 -200 45 -200 45 -200 45
3944760210.035 -3.5785158 30.043024 -200 45 -200 45 -200 45
3945760326.7211 -3.5796134 30.052177 -200 45 -200 45 -200 45
3946760443.4072 -3.5852032 30.070963 -200 45 -200 45 -200 45
3947760560.0933 -3.5849454 30.069235 -200 45 -200 45 -200 45
3948760676.7795 -3.5853286 30.06563 -200 45 -200 45 -200 45
3949760793.4656 -3.5845346 30.0508 -200 45 -200 45 -200 45
3950760910.1517 -3.5877097 30.070124 -200 45 -200 45 -200 45
3951761026.8378 -3.5895438 30.081331 -200 45 -200 45 -200 45
3952761143.5239 -3.5929334 30.099731 -200 45 -200 45 -200 45
3953761260.21 -3.593689 30.10796 -200 45 -200 45 -200 45
3954761376.8961 -3.5967226 30.107801 -200 45 -200 45 -200 45
3955761493.5823 -3.5989501 30.126154 -200 45 -200 45 -200 45
3956761610.2684 -3.6040776 30.144121 -200 45 -200 45 -200 45
3957761726.9545 -3.6091771 30.169367 -200 45 -200 45 -200 45
3958761843.6406 -3.6123171 30.190205 -200 45 -200 45 -200 45
3959761960.3267 -3.6157219 30.20002 -200 45 -200 45 -200 45
3960762077.0128 -3.6153359 30.196344 -200 45 -200 45 -200 45
3961762193.6989 -3.6188068 30.224283 -200 45 -200 45 -200 45
3962762310.3851 -3.6205857 30.235718 -200 45 -200 45 -200 45
3963762427.0712 -3.6211355 30.240509 -200 45 -200 45 -200 45
3964762543.7573 -3.6181982 30.234898 -200 45 -200 45 -200 45
3965762660.4434 -3.6161132 30.230917 -200 45 -200 45 -200 45
3966762777.1295 -3.6177418 30.244139 -200 45 -200 45 -200 45
3967762893.8156 -3.6216395 30.269238 -200 45 -200 45 -200 45
3968763010.5018 -3.6250618 30.27771 -200 45 -200 45 -200 45
3969763127.1879 -3.6242723 30.285988 -200 45 -200 45 -200 45
3970763243.874 -3.6240356 30.294901 -200 45 -200 45 -200 45
3971763360.5601 -3.6287959 30.317232 -200 45 -200 45 -200 45
3972763477.2462 -3.6311409 30.332369 -200 45 -200 45 -200 45
3973763593.9323 -3.636956 30.348969 -200 45 -200 45 -200 45
3974763710.6184 -3.639297 30.353529 -200 45 -200 45 -200 45
3975763827.3046 -3.6419282 30.371311 -200 45 -200 45 -200 45
3976763943.9907 -3.6398203 30.377506 -200 45 -200 45 -200 45
3977764060.6768 -3.6426632 30.39325 -200 45 -200 45 -200 45
3978764177.3629 -3.6476808 30.402889 -200 45 -200 45 -200 45
3979764294.049 -3.64695 30.413027 -200 45 -200 45 -200 45
3980764410.7351 -3.6439235 30.401995 -200 45 -200 45 -200 45
3981764527.4212 -3.6410592 30.394625 -200 45 -200 45 -200 45
3982764644.1074 -3.6426237 30.428253 -200 45 -200 45 -200 45
3983764760.7935 -3.6465657 30.43586 -200 45 -200 45 -200 45
3984764877.4796 -3.6477587 30.466349 -200 45 -200 45 -200 45
3985764994.1657 -3.6504064 30.474941 -200 45 -200 45 -200 45
3986765110.8518 -3.648587 30.46653 -200 45 -200 45 -200 45
3987765227.5379 -3.6538241 30.504742 -200 45 -200 45 -200 45
3988765344.224 -3.6568303 30.517353 -200 45 -200 45 -200 45
3989765460.9102 -3.6603723 30.540781 -200 45 -200 45 -200 45
3990765577.5963 -3.6610126 30.560516 -200 45 -200 45 -200 45
3991765694.2824 -3.6624703 30.573296 -200 45 -200 45 -200 45
3992765810.9685 -3.6619966 30.594944 -200 45 -200 45 -200 45
3993765927.6546 -3.6617358 30.606936 -200 45 -200 45 -200 45
3994766044.3407 -3.664571 30.607056 -200 45 -200 45 -200 45
3995766161.0268 -3.664814 30.6383 -200 45 -200 45 -200 45
3996766277.713 -3.6606042 30.626921 -200 45 -200 45 -200 45
3997766394.3991 -3.6587119 30.625046 -200 45 -200 45 -200 45
3998766511.0852 -3.6578822 30.642115 -200 45 -200 45 -200 45
3999766627.7713 -3.6589584 30.667601 -200 45 -200 45 -200 45
4000766744.4574 -3.6605258 30.676888 -200 45 -200 45 -200 45
4001766861.1435 -3.6609786 30.679527 -200 45 -200 45 -200 45
4002766977.8296 -3.6627557 30.690062 -200 45 -200 45 -200 45
4003767094.5158 -3.6629541 30.696524 -200 45 -200 45 -200 45
4004767211.2019 -3.6643727 30.727314 -200 45 -200 45 -200 45
4005767327.888 -3.6679354 30.749762 -200 45 -200 45 -200 45
4006767444.5741 -3.6695132 30.750561 -200 45 -200 45 -200 45
4007767561.2602 -3.669945 30.761526 -200 45 -200 45 -200 45
4008767677.9463 -3.6691585 30.776587 -200 45 -200 45 -200 45
4009767794.6324 -3.6705282 30.79355 -200 45 -200 45 -200 45
4010767911.3186 -3.6721931 30.797539 -200 45 -200 45 -200 45
4011768028.0047 -3.6725116 30.790731 -200 45 -200 45 -200 45
4012768144.6908 -3.67116 30.788946 -200 45 -200 45 -200 45
4013768261.3769 -3.6673641 30.773588 -200 45 -200 45 -200 45
4014768378.063 -3.6684735 30.794554 -200 45 -200 45 -200 45
4015768494.7491 -3.6717629 30.79855 -200 45 -200 45 -200 45
4016768611.4352 -3.670665 30.825327 -200 45 -200 45 -200 45
4017768728.1214 -3.6724157 30.81485 -200 45 -200 45 -200 45
4018768844.8075 -3.6744142 30.829573 -200 45 -200 45 -200 45
4019768961.4936 -3.6769969 30.865894 -200 45 -200 45 -200 45
4020769078.1797 -3.6778548 30.871435 -200 45 -200 45 -200 45
4021769194.8658 -3.681479 30.898331 -200 45 -200 45 -200 45
4022769311.5519 -3.6836939 30.896671 -200 45 -200 45 -200 45
4023769428.238 -3.6822953 30.916798 -200 45 -200 45 -200 45
4024769544.9242 -3.6820779 30.926256 -200 45 -200 45 -200 45
4025769661.6103 -3.6855175 30.925909 -200 45 -200 45 -200 45
4026769778.2964 -3.6860423 30.938572 -200 45 -200 45 -200 45
4027769894.9825 -3.6857736 30.954453 -200 45 -200 45 -200 45
4028770011.6686 -3.68385 30.943195 -200 45 -200 45 -200 45
4029770128.3547 -3.6808186 30.929258 -200 45 -200 45 -200 45
4030770245.0408 -3.6819382 30.943083 -200 45 -200 45 -200 45
4031770361.727 -3.6829777 30.965586 -200 45 -200 45 -200 45
4032770478.4131 -3.6861315 30.975639 -200 45 -200 45 -200 45
4033770595.0992 -3.6870928 30.985874 -200 45 -200 45 -200 45
4034770711.7853 -3.6863699 30.989767 -200 45 -200 45 -200 45
4035770828.4714 -3.6903918 31.005726 -200 45 -200 45 -200 45
4036770945.1575 -3.692924 31.008995 -200 45 -200 45 -200 45
4037771061.8436 -3.6982441 31.043592 -200 45 -200 45 -200 45
4038771178.5298 -3.6972079 31.045689 -200 45 -200 45 -200 45
4039771295.2159 -3.6992366 31.054405 -200 45 -200 45 -200 45
4040771411.902 -3.6999385 31.074297 -200 45 -200 45 -200 45
4041771528.5881 -3.7007971 31.078716 -200 45 -200 45 -200 45
4042771645.2742 -3.7031693 31.10046 -200 45 -200 45 -200 45
4043771761.9603 -3.7035716 31.103081 -200 45 -200 45 -200 45
4044771878.6464 -3.6992199 31.088381 -200 45 -200 45 -200 45
4045771995.3326 -3.6994984 31.08287 -200 45 -200 45 -200 45
4046772112.0187 -3.6983509 31.10338 -200 45 -200 45 -200 45
4047772228.7048 -3.7020683 31.124155 -200 45 -200 45 -200 45
4048772345.3909 -3.7047338 31.122803 -200 45 -200 45 -200 45
4049772462.077 -3.7049921 31.134153 -200 45 -200 45 -200 45
4050772578.7631 -3.7045128 31.149139 -200 45 -200 45 -200 45
4051772695.4492 -3.7085714 31.169703 -200 45 -200 45 -200 45
4052772812.1354 -3.7124522 31.183338 -200 45 -200 45 -200 45
4053772928.8215 -3.7144465 31.206564 -200 45 -200 45 -200 45
4054773045.5076 -3.7174721 31.20929 -200 45 -200 45 -200 45
4055773162.1937 -3.7182174 31.222631 -200 45 -200 45 -200 45
4056773278.8798 -3.7176991 31.235678 -200 45 -200 45 -200 45
4057773395.5659 -3.7211323 31.256725 -200 45 -200 45 -200 45
4058773512.252 -3.7218657 31.259279 -200 45 -200 45 -200 45
4059773628.9382 -3.7230554 31.273132 -200 45 -200 45 -200 45
4060773745.6243 -3.7181358 31.26124 -200 45 -200 45 -200 45
4061773862.3104 -3.7180674 31.257957 -200 45 -200 45 -200 45
4062773978.9965 -3.7188492 31.277355 -200 45 -200 45 -200 45
4063774095.6826 -3.7217567 31.296164 -200 45 -200 45 -200 45
4064774212.3687 -3.7226768 31.301651 -200 45 -200 45 -200 45
4065774329.0548 -3.7242341 31.299326 -200 45 -200 45 -200 45
4066774445.741 -3.7228699 31.317533 -200 45 -200 45 -200 45
4067774562.4271 -3.7282593 31.325537 -200 45 -200 45 -200 45
4068774679.1132 -3.7309437 31.364332 -200 45 -200 45 -200 45
4069774795.7993 -3.7336819 31.372732 -200 45 -200 45 -200 45
4070774912.4854 -3.7346079 31.382992 -200 45 -200 45 -200 45
4071775029.1715 -3.7358112 31.384384 -200 45 -200 45 -200 45
4072775145.8576 -3.7374592 31.401987 -200 45 -200 45 -200 45
4073775262.5438 -3.7403507 31.417835 -200 45 -200 45 -200 45
4074775379.2299 -3.7409036 31.430246 -200 45 -200 45 -200 45
4075775495.916 -3.7382538 31.429945 -200 45 -200 45 -200 45
4076775612.6021 -3.7370179 31.422478 -200 45 -200 45 -200 45
4077775729.2882 -3.7362783 31.426022 -200 45 -200 45 -200 45
4078775845.9743 -3.7356372 31.445808 -200 45 -200 45 -200 45
4079775962.6604 -3.7410653 31.45577 -200 45 -200 45 -200 45
4080776079.3466 -3.742028 31.464308 -200 45 -200 45 -200 45
4081776196.0327 -3.7429867 31.477316 -200 45 -200 45 -200 45
4082776312.7188 -3.7414217 31.480551 -200 45 -200 45 -200 45
4083776429.4049 -3.7450867 31.509596 -200 45 -200 45 -200 45
4084776546.091 -3.7510827 31.516335 -200 45 -200 45 -200 45
4085776662.7771 -3.7532253 31.549847 -200 45 -200 45 -200 45
4086776779.4632 -3.7542989 31.549091 -200 45 -200 45 -200 45
4087776896.1494 -3.7545006 31.567392 -200 45 -200 45 -200 45
4088777012.8355 -3.7539067 31.58288 -200 45 -200 45 -200 45
4089777129.5216 -3.7567797 31.589523 -200 45 -200 45 -200 45
4090777246.2077 -3.7594569 31.616081 -200 45 -200 45 -200 45
4091777362.8938 -3.7577181 31.612753 -200 45 -200 45 -200 45
4092777479.5799 -3.7568986 31.589724 -200 45 -200 45 -200 45
4093777596.266 -3.7566724 31.601332 -200 45 -200 45 -200 45
4094777712.9522 -3.7573204 31.625866 -200 45 -200 45 -200 45
4095777829.6383 -3.7609351 31.641039 -200 45 -200 45 -200 45
4096777946.3244 -3.7599828 31.642813 -200 45 -200 45 -200 45
4097778063.0105 -3.7600193 31.648781 -200 45 -200 45 -200 45
4098778179.6966 -3.7611473 31.661957 -200 45 -200 45 -200 45
4099778296.3827 -3.7664011 31.691856 -200 45 -200 45 -200 45
4100778413.0688 -3.7677562 31.722103 -200 45 -200 45 -200 45
4101778529.755 -3.772294 31.727169 -200 45 -200 45 -200 45
4102778646.4411 -3.7726169 31.74478 -200 45 -200 45 -200 45
4103778763.1272 -3.7755489 31.750067 -200 45 -200 45 -200 45
4104778879.8133 -3.7740562 31.747023 -200 45 -200 45 -200 45
4105778996.4994 -3.7772856 31.768679 -200 45 -200 45 -200 45
4106779113.1855 -3.7770491 31.791424 -200 45 -200 45 -200 45
4107779229.8716 -3.7790866 31.797249 -200 45 -200 45 -200 45
4108779346.5578 -3.7764864 31.788151 -200 45 -200 45 -200 45
4109779463.2439 -3.7765024 31.793978 -200 45 -200 45 -200 45
4110779579.93 -3.7767315 31.80442 -200 45 -200 45 -200 45
4111779696.6161 -3.7804062 31.820755 -200 45 -200 45 -200 45
4112779813.3022 -3.7804844 31.855572 -200 45 -200 45 -200 45
4113779929.9883 -3.7819698 31.848322 -200 45 -200 45 -200 45
4114780046.6744 -3.7821002 31.864428 -200 45 -200 45 -200 45
4115780163.3606 -3.7867372 31.875971 -200 45 -200 45 -200 45
4116780280.0467 -3.7912555 31.907202 -200 45 -200 45 -200 45
4117780396.7328 -3.7924025 31.924103 -200 45 -200 45 -200 45
4118780513.4189 -3.7946916 31.923609 -200 45 -200 45 -200 45
4119780630.105 -3.7964599 31.95624 -200 45 -200 45 -200 45
4120780746.7911 -3.7967751 31.957592 -200 45 -200 45 -200 45
4121780863.4772 -3.7996936 31.983007 -200 45 -200 45 -200 45
4122780980.1634 -3.8007884 31.995558 -200 45 -200 45 -200 45
4123781096.8495 -3.8015916 31.979963 -200 45 -200 45 -200 45
4124781213.5356 -3.7987053 31.98221 -200 45 -200 45 -200 45
4125781330.2217 -3.7988505 32.001743 -200 45 -200 45 -200 45
4126781446.9078 -3.8005342 32.002563 -200 45 -200 45 -200 45
4127781563.5939 -3.8029835 32.028812 -200 45 -200 45 -200 45
4128781680.28 -3.8054829 32.025009 -200 45 -200 45 -200 45
4129781796.9662 -3.8076863 32.037678 -200 45 -200 45 -200 45
4130781913.6523 -3.8091171 32.051849 -200 45 -200 45 -200 45
4131782030.3384 -3.8136153 32.086296 -200 45 -200 45 -200 45
4132782147.0245 -3.8160698 32.108574 -200 45 -200 45 -200 45
4133782263.7106 -3.8206027 32.125744 -200 45 -200 45 -200 45
4134782380.3967 -3.8229618 32.136574 -200 45 -200 45 -200 45
4135782497.0828 -3.8256459 32.139217 -200 45 -200 45 -200 45
4136782613.769 -3.8259795 32.164516 -200 45 -200 45 -200 45
4137782730.4551 -3.83024 32.188522 -200 45 -200 45 -200 45
4138782847.1412 -3.8324499 32.203968 -200 45 -200 45 -200 45
4139782963.8273 -3.8322546 32.209351 -200 45 -200 45 -200 45
4140783080.5134 -3.8331034 32.191204 -200 45 -200 45 -200 45
4141783197.1995 -3.834734 32.197712 -200 45 -200 45 -200 45
4142783313.8856 -3.8382602 32.224651 -200 45 -200 45 -200 45
4143783430.5718 -3.8404572 32.255901 -200 45 -200 45 -200 45
4144783547.2579 -3.8437867 32.263046 -200 45 -200 45 -200 45
4145783663.944 -3.8474154 32.277103 -200 45 -200 45 -200 45
4146783780.6301 -3.8494072 32.285126 -200 45 -200 45 -200 45
4147783897.3162 -3.8531203 32.317039 -200 45 -200 45 -200 45
4148784014.0023 -3.8616271 32.336109 -200 45 -200 45 -200 45
4149784130.6884 -3.867331 32.352711 -200 45 -200 45 -200 45
4150784247.3746 -3.8725634 32.37907 -200 45 -200 45 -200 45
4151784364.0607 -3.8750954 32.40361 -200 45 -200 45 -200 45
4152784480.7468 -3.8779466 32.426529 -200 45 -200 45 -200 45
4153784597.4329 -3.8841629 32.444214 -200 45 -200 45 -200 45
4154784714.119 -3.8895075 32.478012 -200 45 -200 45 -200 45
4155784830.8051 -3.892628 32.480282 -200 45 -200 45 -200 45
4156784947.4912 -3.8942125 32.481701 -200 45 -200 45 -200 45
4157785064.1774 -3.8968868 32.517464 -200 45 -200 45 -200 45
4158785180.8635 -3.9042559 32.538933 -200 45 -200 45 -200 45
4159785297.5496 -3.913877 32.585091 -200 45 -200 45 -200 45
4160785414.2357 -3.9194562 32.610847 -200 45 -200 45 -200 45
4161785530.9218 -3.9253702 32.645557 -200 45 -200 45 -200 45
4162785647.6079 -3.9365318 32.695164 -200 45 -200 45 -200 45
4163785764.294 -3.9450955 32.752537 -200 45 -200 45 -200 45
4164785880.9802 -3.9583564 32.806126 -200 45 -200 45 -200 45
4165785997.6663 -3.9683347 32.888802 -200 45 -200 45 -200 45
4166786114.3524 -3.9793794 32.96069 -200 45 -200 45 -200 45
4167786231.0385 -3.9889247 33.047451 -200 45 -200 45 -200 45
4168786347.7246 -3.9991138 33.161217 -200 45 -200 45 -200 45
4169786464.4107 -4.0087223 33.288853 -200 45 -200 45 -200 45
4170786581.0968 -4.0167198 33.433189 -200 45 -200 45 -200 45
4171786697.783 -4.0211349 33.585857 -200 45 -200 45 -200 45
4172786814.4691 -4.0197277 33.750336 -200 45 -200 45 -200 45
4173786931.1552 -4.0149698 33.954628 -200 45 -200 45 -200 45
4174787047.8413 -4.0051947 34.132439 -200 45 -200 45 -200 45
4175787164.5274 -3.9945402 34.333214 -200 45 -200 45 -200 45
4176787281.2135 -3.9747682 34.492046 -200 45 -200 45 -200 45
4177787397.8997 -3.9559851 34.627113 -200 45 -200 45 -200 45
4178787514.5858 -3.9330103 34.75436 -200 45 -200 45 -200 45
4179787631.2719 -3.9099123 34.86203 -200 45 -200 45 -200 45
4180787747.958 -3.8895156 34.940952 -200 45 -200 45 -200 45
4181787864.6441 -3.8654528 34.982315 -200 45 -200 45 -200 45
4182787981.3302 -3.839344 35.004715 -200 45 -200 45 -200 45
4183788098.0163 -3.8118219 35.022625 -200 45 -200 45 -200 45
4184788214.7025 -3.7888467 35.009899 -200 45 -200 45 -200 45
4185788331.3886 -3.7687953 34.985771 -200 45 -200 45 -200 45
4186788448.0747 -3.7480493 34.939705 -200 45 -200 45 -200 45
4187788564.7608 -3.727886 34.851307 -200 45 -200 45 -200 45
4188788681.4469 -3.7092061 34.779736 -200 45 -200 45 -200 45
4189788798.133 -3.6932414 34.712952 -200 45 -200 45 -200 45
4190788914.8191 -3.6804395 34.639091 -200 45 -200 45 -200 45
4191789031.5053 -3.6725602 34.560593 -200 45 -200 45 -200 45
4192789148.1914 -3.6639261 34.488304 -200 45 -200 45 -200 45
4193789264.8775 -3.6560249 34.388176 -200 45 -200 45 -200 45
4194789381.5636 -3.6506839 34.331554 -200 45 -200 45 -200 45
4195789498.2497 -3.6485615 34.260986 -200 45 -200 45 -200 45
4196789614.9358 -3.6478291 34.205254 -200 45 -200 45 -200 45
4197789731.6219 -3.6478074 34.131405 -200 45 -200 45 -200 45
4198789848.3081 -3.6475949 34.066563 -200 45 -200 45 -200 45
4199789964.9942 -3.6486213 34.011353 -200 45 -200 45 -200 45
4200790081.6803 -3.6520832 33.964916 -200 45 -200 45 -200 45
4201790198.3664 -3.6542563 33.928253 -200 45 -200 45 -200 45
4202790315.0525 -3.6561301 33.87175 -200 45 -200 45 -200 45
4203790431.7386 -3.6557949 33.82719 -200 45 -200 45 -200 45
4204790548.4247 -3.6556501 33.77446 -200 45 -200 45 -200 45
4205790665.1109 -3.6578267 33.753281 -200 45 -200 45 -200 45
4206790781.797 -3.6607745 33.726349 -200 45 -200 45 -200 45
4207790898.4831 -3.6660271 33.727097 -200 45 -200 45 -200 45
4208791015.1692 -3.6685028 33.711117 -200 45 -200 45 -200 45
4209791131.8553 -3.670068 33.685585 -200 45 -200 45 -200 45
4210791248.5414 -3.6726418 33.677399 -200 45 -200 45 -200 45
4211791365.2275 -3.6779003 33.682621 -200 45 -200 45 -200 45
4212791481.9137 -3.6840308 33.690742 -200 45 -200 45 -200 45
4213791598.5998 -3.687381 33.698833 -200 45 -200 45 -200 45
4214791715.2859 -3.6892662 33.692543 -200 45 -200 45 -200 45
4215791831.972 -3.6916053 33.70256 -200 45 -200 45 -200 45
4216791948.6581 -3.6914489 33.711201 -200 45 -200 45 -200 45
4217792065.3442 -3.6926126 33.715626 -200 45 -200 45 -200 45
4218792182.0303 -3.6926491 33.725616 -200 45 -200 45 -200 45
4219792298.7165 -3.6921165 33.716095 -200 45 -200 45 -200 45
4220792415.4026 -3.6879358 33.708492 -200 45 -200 45 -200 45
4221792532.0887 -3.6883814 33.696228 -200 45 -200 45 -200 45
4222792648.7748 -3.6883414 33.709557 -200 45 -200 45 -200 45
4223792765.4609 -3.690222 33.726059 -200 45 -200 45 -200 45
4224792882.147 -3.6893899 33.726803 -200 45 -200 45 -200 45
4225792998.8331 -3.687202 33.719326 -200 45 -200 45 -200 45
4226793115.5193 -3.6860526 33.724674 -200 45 -200 45 -200 45
4227793232.2054 -3.6852369 33.73008 -200 45 -200 45 -200 45
4228793348.8915 -3.6861396 33.739872 -200 45 -200 45 -200 45
4229793465.5776 -3.6888945 33.731819 -200 45 -200 45 -200 45
4230793582.2637 -3.6857014 33.718788 -200 45 -200 45 -200 45
4231793698.9498 -3.6865413 33.699696 -200 45 -200 45 -200 45
4232793815.6359 -3.6878614 33.691139 -200 45 -200 45 -200 45
4233793932.3221 -3.6876097 33.681538 -200 45 -200 45 -200 45
4234794049.0082 -3.6889188 33.673698 -200 45 -200 45 -200 45
4235794165.6943 -3.686552 33.661491 -200 45 -200 45 -200 45
4236794282.3804 -3.6831379 33.624081 -200 45 -200 45 -200 45
4237794399.0665 -3.6842818 33.621017 -200 45 -200 45 -200 45
4238794515.7526 -3.6843448 33.620342 -200 45 -200 45 -200 45
4239794632.4387 -3.6895053 33.614361 -200 45 -200 45 -200 45
4240794749.1249 -3.6875679 33.61087 -200 45 -200 45 -200 45
4241794865.811 -3.6885624 33.58606 -200 45 -200 45 -200 45
4242794982.4971 -3.6928165 33.584335 -200 45 -200 45 -200 45
4243795099.1832 -3.6965177 33.576904 -200 45 -200 45 -200 45
4244795215.8693 -3.7026961 33.567688 -200 45 -200 45 -200 45
4245795332.5554 -3.7057164 33.580875 -200 45 -200 45 -200 45
4246795449.2415 -3.7095995 33.567337 -200 45 -200 45 -200 45
4247795565.9277 -3.7109492 33.573322 -200 45 -200 45 -200 45
4248795682.6138 -3.713975 33.584038 -200 45 -200 45 -200 45
4249795799.2999 -3.7191629 33.579426 -200 45 -200 45 -200 45
4250795915.986 -3.7207425 33.591873 -200 45 -200 45 -200 45
4251796032.6721 -3.7208354 33.570976 -200 45 -200 45 -200 45
4252796149.3582 -3.7193978 33.568489 -200 45 -200 45 -200 45
4253796266.0443 -3.7215223 33.580502 -200 45 -200 45 -200 45
4254796382.7305 -3.7242305 33.605316 -200 45 -200 45 -200 45
4255796499.4166 -3.727787 33.599049 -200 45 -200 45 -200 45
4256796616.1027 -3.730813 33.606674 -200 45 -200 45 -200 45
4257796732.7888 -3.7312512 33.612488 -200 45 -200 45 -200 45
4258796849.4749 -3.734479 33.63686 -200 45 -200 45 -200 45
4259796966.161 -3.7382445 33.654827 -200 45 -200 45 -200 45
4260797082.8471 -3.7435391 33.681393 -200 45 -200 45 -200 45
4261797199.5333 -3.7455471 33.690166 -200 45 -200 45 -200 45
4262797316.2194 -3.7480748 33.691963 -200 45 -200 45 -200 45
4263797432.9055 -3.7482314 33.71072 -200 45 -200 45 -200 45
4264797549.5916 -3.75249 33.730118 -200 45 -200 45 -200 45
4265797666.2777 -3.7541995 33.736977 -200 45 -200 45 -200 45
4266797782.9638 -3.7534018 33.733032 -200 45 -200 45 -200 45
4267797899.6499 -3.7532074 33.731197 -200 45 -200 45 -200 45
4268798016.3361 -3.7512474 33.729984 -200 45 -200 45 -200 45
4269798133.0222 -3.7530198 33.742569 -200 45 -200 45 -200 45
4270798249.7083 -3.7557786 33.770592 -200 45 -200 45 -200 45
4271798366.3944 -3.7564056 33.784187 -200 45 -200 45 -200 45
4272798483.0805 -3.7558303 33.793537 -200 45 -200 45 -200 45
4273798599.7666 -3.7592142 33.799168 -200 45 -200 45 -200 45
4274798716.4527 -3.7630377 33.82309 -200 45 -200 45 -200 45
4275798833.1389 -3.7651398 33.833321 -200 45 -200 45 -200 45
4276798949.825 -3.7694821 33.86113 -200 45 -200 45 -200 45
4277799066.5111 -3.7715957 33.873253 -200 45 -200 45 -200 45
4278799183.1972 -3.7735636 33.87373 -200 45 -200 45 -200 45
4279799299.8833 -3.7716365 33.891258 -200 45 -200 45 -200 45
4280799416.5694 -3.7748179 33.921581 -200 45 -200 45 -200 45
4281799533.2555 -3.7765024 33.929024 -200 45 -200 45 -200 45
4282799649.9417 -3.7760012 33.945629 -200 45 -200 45 -200 45
4283799766.6278 -3.7730384 33.940361 -200 45 -200 45 -200 45
4284799883.3139 -3.7717566 33.936108 -200 45 -200 45 -200 45
4285800000 -3.7732043 33.944187 -200 45 -200 45 -200 45
4286800116.6861 -3.7756767 33.974712 -200 45 -200 45 -200 45
4287800233.3722 -3.7762201 33.995514 -200 45 -200 45 -200 45
4288800350.0583 -3.7762949 33.992882 -200 45 -200 45 -200 45
4289800466.7445 -3.7757525 34.003254 -200 45 -200 45 -200 45
4290800583.4306 -3.777508 34.028511 -200 45 -200 45 -200 45
4291800700.1167 -3.7808421 34.035366 -200 45 -200 45 -200 45
4292800816.8028 -3.7860236 34.071217 -200 45 -200 45 -200 45
4293800933.4889 -3.7876508 34.079517 -200 45 -200 45 -200 45
4294801050.175 -3.7883754 34.093529 -200 45 -200 45 -200 45
4295801166.8611 -3.7866573 34.095921 -200 45 -200 45 -200 45
4296801283.5473 -3.7891209 34.112469 -200 45 -200 45 -200 45
4297801400.2334 -3.7916653 34.135624 -200 45 -200 45 -200 45
4298801516.9195 -3.7910821 34.131199 -200 45 -200 45 -200 45
4299801633.6056 -3.7898996 34.130798 -200 45 -200 45 -200 45
4300801750.2917 -3.7872095 34.136837 -200 45 -200 45 -200 45
4301801866.9778 -3.787091 34.157677 -200 45 -200 45 -200 45
4302801983.6639 -3.7883947 34.166965 -200 45 -200 45 -200 45
4303802100.3501 -3.7904761 34.184956 -200 45 -200 45 -200 45
4304802217.0362 -3.7920494 34.189819 -200 45 -200 45 -200 45
4305802333.7223 -3.7902436 34.212013 -200 45 -200 45 -200 45
4306802450.4084 -3.7937865 34.221886 -200 45 -200 45 -200 45
4307802567.0945 -3.7965455 34.239502 -200 45 -200 45 -200 45
4308802683.7806 -3.7997484 34.259609 -200 45 -200 45 -200 45
4309802800.4667 -3.8022017 34.274509 -200 45 -200 45 -200 45
4310802917.1529 -3.8014469 34.291813 -200 45 -200 45 -200 45
4311803033.839 -3.802377 34.303501 -200 45 -200 45 -200 45
4312803150.5251 -3.8028016 34.331577 -200 45 -200 45 -200 45
4313803267.2112 -3.804673 34.330402 -200 45 -200 45 -200 45
4314803383.8973 -3.8023961 34.327869 -200 45 -200 45 -200 45
4315803500.5834 -3.8012645 34.337624 -200 45 -200 45 -200 45
4316803617.2695 -3.7992609 34.337051 -200 45 -200 45 -200 45
4317803733.9557 -3.8004401 34.360237 -200 45 -200 45 -200 45
4318803850.6418 -3.8002877 34.369125 -200 45 -200 45 -200 45
4319803967.3279 -3.8029339 34.388256 -200 45 -200 45 -200 45
4320804084.014 -3.8031685 34.401272 -200 45 -200 45 -200 45
4321804200.7001 -3.80323 34.394901 -200 45 -200 45 -200 45
4322804317.3862 -3.8055565 34.419113 -200 45 -200 45 -200 45
4323804434.0723 -3.8083386 34.439888 -200 45 -200 45 -200 45
4324804550.7585 -3.8102031 34.460434 -200 45 -200 45 -200 45
4325804667.4446 -3.8140039 34.475311 -200 45 -200 45 -200 45
4326804784.1307 -3.8150113 34.482155 -200 45 -200 45 -200 45
4327804900.8168 -3.8141949 34.496864 -200 45 -200 45 -200 45
4328805017.5029 -3.8150868 34.516006 -200 45 -200 45 -200 45
4329805134.189 -3.8166792 34.51931 -200 45 -200 45 -200 45
4330805250.8751 -3.8164797 34.539639 -200 45 -200 45 -200 45
4331805367.5613 -3.8155866 34.535339 -200 45 -200 45 -200 45
4332805484.2474 -3.8121548 34.543213 -200 45 -200 45 -200 45
4333805600.9335 -3.8141236 34.545479 -200 45 -200 45 -200 45
4334805717.6196 -3.817064 34.579762 -200 45 -200 45 -200 45
4335805834.3057 -3.8195879 34.596859 -200 45 -200 45 -200 45
4336805950.9918 -3.8193002 34.60849 -200 45 -200 45 -200 45
4337806067.6779 -3.8204467 34.631718 -200 45 -200 45 -200 45
4338806184.3641 -3.8230858 34.662388 -200 45 -200 45 -200 45
4339806301.0502 -3.8278308 34.702518 -200 45 -200 45 -200 45
4340806417.7363 -3.8289902 34.739166 -200 45 -200 45 -200 45
4341806534.4224 -3.8314371 34.764027 -200 45 -200 45 -200 45
4342806651.1085 -3.8316529 34.793022 -200 45 -200 45 -200 45
4343806767.7946 -3.8285034 34.815228 -200 45 -200 45 -200 45
4344806884.4807 -3.8296616 34.852173 -200 45 -200 45 -200 45
4345807001.1669 -3.8288596 34.885193 -200 45 -200 45 -200 45
4346807117.853 -3.8262451 34.908768 -200 45 -200 45 -200 45
4347807234.5391 -3.820394 34.912979 -200 45 -200 45 -200 45
4348807351.2252 -3.8171399 34.924377 -200 45 -200 45 -200 45
4349807467.9113 -3.8128328 34.962418 -200 45 -200 45 -200 45
4350807584.5974 -3.8105855 34.975365 -200 45 -200 45 -200 45
4351807701.2835 -3.8095577 34.994209 -200 45 -200 45 -200 45
4352807817.9697 -3.8056297 34.988884 -200 45 -200 45 -200 45
4353807934.6558 -3.8034995 35.007515 -200 45 -200 45 -200 45
4354808051.3419 -3.8032386 35.029755 -200 45 -200 45 -200 45
4355808168.028 -3.8021443 35.034386 -200 45 -200 45 -200 45
4356808284.7141 -3.8026695 35.043186 -200 45 -200 45 -200 45
4357808401.4002 -3.7998681 35.040855 -200 45 -200 45 -200 45
4358808518.0863 -3.7995446 35.05761 -200 45 -200 45 -200 45
4359808634.7725 -3.7985899 35.054642 -200 45 -200 45 -200 45
4360808751.4586 -3.7985573 35.066402 -200 45 -200 45 -200 45
4361808868.1447 -3.7975247 35.052567 -200 45 -200 45 -200 45
4362808984.8308 -3.7937334 35.046761 -200 45 -200 45 -200 45
4363809101.5169 -3.7896702 35.030388 -200 45 -200 45 -200 45
4364809218.203 -3.7884157 35.018375 -200 45 -200 45 -200 45
4365809334.8891 -3.7889929 35.014168 -200 45 -200 45 -200 45
4366809451.5753 -3.785331 35.040844 -200 45 -200 45 -200 45
4367809568.2614 -3.7887118 35.044174 -200 45 -200 45 -200 45
4368809684.9475 -3.7874849 35.045197 -200 45 -200 45 -200 45
4369809801.6336 -3.7877109 35.039894 -200 45 -200 45 -200 45
4370809918.3197 -3.7908676 35.060684 -200 45 -200 45 -200 45
4371810035.0058 -3.7930772 35.074745 -200 45 -200 45 -200 45
4372810151.6919 -3.7971697 35.083469 -200 45 -200 45 -200 45
4373810268.3781 -3.7983227 35.085583 -200 45 -200 45 -200 45
4374810385.0642 -3.7978795 35.089767 -200 45 -200 45 -200 45
4375810501.7503 -3.7967901 35.092186 -200 45 -200 45 -200 45
4376810618.4364 -3.798974 35.109646 -200 45 -200 45 -200 45
4377810735.1225 -3.8002861 35.116154 -200 45 -200 45 -200 45
4378810851.8086 -3.7987936 35.109245 -200 45 -200 45 -200 45
4379810968.4947 -3.7946651 35.096931 -200 45 -200 45 -200 45
4380811085.1809 -3.7935109 35.095997 -200 45 -200 45 -200 45
4381811201.867 -3.7914317 35.100555 -200 45 -200 45 -200 45
4382811318.5531 -3.7967739 35.108757 -200 45 -200 45 -200 45
4383811435.2392 -3.7980013 35.119827 -200 45 -200 45 -200 45
4384811551.9253 -3.7967286 35.127857 -200 45 -200 45 -200 45
4385811668.6114 -3.7961223 35.114201 -200 45 -200 45 -200 45
4386811785.2976 -3.8004296 35.13802 -200 45 -200 45 -200 45
4387811901.9837 -3.8029001 35.145779 -200 45 -200 45 -200 45
4388812018.6698 -3.8058076 35.171474 -200 45 -200 45 -200 45
4389812135.3559 -3.8096142 35.18578 -200 45 -200 45 -200 45
4390812252.042 -3.8068895 35.18425 -200 45 -200 45 -200 45
4391812368.7281 -3.8063021 35.204903 -200 45 -200 45 -200 45
4392812485.4142 -3.8087206 35.216011 -200 45 -200 45 -200 45
4393812602.1004 -3.8103518 35.200413 -200 45 -200 45 -200 45
4394812718.7865 -3.8062477 35.215767 -200 45 -200 45 -200 45
4395812835.4726 -3.8036327 35.210232 -200 45 -200 45 -200 45
4396812952.1587 -3.8039491 35.216274 -200 45 -200 45 -200 45
4397813068.8448 -3.8032382 35.21022 -200 45 -200 45 -200 45
4398813185.5309 -3.8050983 35.230675 -200 45 -200 45 -200 45
4399813302.217 -3.8055758 35.229164 -200 45 -200 45 -200 45
4400813418.9032 -3.8052742 35.233383 -200 45 -200 45 -200 45
4401813535.5893 -3.8059299 35.222763 -200 45 -200 45 -200 45
4402813652.2754 -3.8094318 35.24995 -200 45 -200 45 -200 45
4403813768.9615 -3.8116741 35.269073 -200 45 -200 45 -200 45
4404813885.6476 -3.8163025 35.27993 -200 45 -200 45 -200 45
4405814002.3337 -3.8172858 35.28664 -200 45 -200 45 -200 45
4406814119.0198 -3.8182042 35.307991 -200 45 -200 45 -200 45
4407814235.706 -3.8164728 35.300888 -200 45 -200 45 -200 45
4408814352.3921 -3.8202124 35.312801 -200 45 -200 45 -200 45
4409814469.0782 -3.8207912 35.321548 -200 45 -200 45 -200 45
4410814585.7643 -3.8212018 35.333214 -200 45 -200 45 -200 45
4411814702.4504 -3.8190234 35.327515 -200 45 -200 45 -200 45
4412814819.1365 -3.8177526 35.317028 -200 45 -200 45 -200 45
4413814935.8226 -3.8196425 35.338417 -200 45 -200 45 -200 45
4414815052.5088 -3.8208239 35.363312 -200 45 -200 45 -200 45
4415815169.1949 -3.822901 35.364101 -200 45 -200 45 -200 45
4416815285.881 -3.8210037 35.362083 -200 45 -200 45 -200 45
4417815402.5671 -3.8226106 35.375587 -200 45 -200 45 -200 45
4418815519.2532 -3.824019 35.39521 -200 45 -200 45 -200 45
4419815635.9393 -3.8287184 35.418976 -200 45 -200 45 -200 45
4420815752.6254 -3.8300757 35.442184 -200 45 -200 45 -200 45
4421815869.3116 -3.8340061 35.44281 -200 45 -200 45 -200 45
4422815985.9977 -3.8328547 35.451641 -200 45 -200 45 -200 45
4423816102.6838 -3.8329473 35.462482 -200 45 -200 45 -200 45
4424816219.3699 -3.8354461 35.481636 -200 45 -200 45 -200 45
4425816336.056 -3.8378279 35.479107 -200 45 -200 45 -200 45
4426816452.7421 -3.8339999 35.491737 -200 45 -200 45 -200 45
4427816569.4282 -3.8317418 35.479877 -200 45 -200 45 -200 45
4428816686.1144 -3.832705 35.480854 -200 45 -200 45 -200 45
4429816802.8005 -3.8306563 35.506798 -200 45 -200 45 -200 45
4430816919.4866 -3.8335843 35.523888 -200 45 -200 45 -200 45
4431817036.1727 -3.8352127 35.529552 -200 45 -200 45 -200 45
4432817152.8588 -3.832901 35.529457 -200 45 -200 45 -200 45
4433817269.5449 -3.8347208 35.544441 -200 45 -200 45 -200 45
4434817386.231 -3.8362353 35.558434 -200 45 -200 45 -200 45
4435817502.9172 -3.8399374 35.59045 -200 45 -200 45 -200 45
4436817619.6033 -3.8429055 35.607136 -200 45 -200 45 -200 45
4437817736.2894 -3.8435154 35.619965 -200 45 -200 45 -200 45
4438817852.9755 -3.8430157 35.620739 -200 45 -200 45 -200 45
4439817969.6616 -3.843894 35.631676 -200 45 -200 45 -200 45
4440818086.3477 -3.8457646 35.660088 -200 45 -200 45 -200 45
4441818203.0338 -3.8458309 35.662598 -200 45 -200 45 -200 45
4442818319.72 -3.8450623 35.664791 -200 45 -200 45 -200 45
4443818436.4061 -3.8411102 35.65728 -200 45 -200 45 -200 45
4444818553.0922 -3.8428481 35.657982 -200 45 -200 45 -200 45
4445818669.7783 -3.8425679 35.670689 -200 45 -200 45 -200 45
4446818786.4644 -3.8447003 35.694138 -200 45 -200 45 -200 45
4447818903.1505 -3.8445063 35.707024 -200 45 -200 45 -200 45
4448819019.8366 -3.8446972 35.713432 -200 45 -200 45 -200 45
4449819136.5228 -3.8431754 35.708683 -200 45 -200 45 -200 45
4450819253.2089 -3.8452601 35.738029 -200 45 -200 45 -200 45
4451819369.895 -3.8481193 35.761963 -200 45 -200 45 -200 45
4452819486.5811 -3.851249 35.781181 -200 45 -200 45 -200 45
4453819603.2672 -3.8519151 35.78952 -200 45 -200 45 -200 45
4454819719.9533 -3.8532748 35.801399 -200 45 -200 45 -200 45
4455819836.6394 -3.852855 35.811825 -200 45 -200 45 -200 45
4456819953.3256 -3.854893 35.822147 -200 45 -200 45 -200 45
4457820070.0117 -3.8554759 35.830032 -200 45 -200 45 -200 45
4458820186.6978 -3.8525724 35.839085 -200 45 -200 45 -200 45
4459820303.3839 -3.8519924 35.818745 -200 45 -200 45 -200 45
4460820420.07 -3.8493292 35.831329 -200 45 -200 45 -200 45
4461820536.7561 -3.8518293 35.859577 -200 45 -200 45 -200 45
4462820653.4422 -3.8514423 35.879162 -200 45 -200 45 -200 45
4463820770.1284 -3.8516099 35.877869 -200 45 -200 45 -200 45
4464820886.8145 -3.852011 35.889217 -200 45 -200 45 -200 45
4465821003.5006 -3.8503242 35.899666 -200 45 -200 45 -200 45
4466821120.1867 -3.8536332 35.930134 -200 45 -200 45 -200 45
4467821236.8728 -3.8580234 35.934933 -200 45 -200 45 -200 45
4468821353.5589 -3.8594673 35.951748 -200 45 -200 45 -200 45
4469821470.245 -3.8608851 35.956974 -200 45 -200 45 -200 45
4470821586.9312 -3.8610139 35.966553 -200 45 -200 45 -200 45
4471821703.6173 -3.8618338 35.978218 -200 45 -200 45 -200 45
4472821820.3034 -3.8640978 35.992832 -200 45 -200 45 -200 45
4473821936.9895 -3.8616893 36.012817 -200 45 -200 45 -200 45
4474822053.6756 -3.8620572 36.011181 -200 45 -200 45 -200 45
4475822170.3617 -3.8581839 36.011608 -200 45 -200 45 -200 45
4476822287.0478 -3.8569191 36.017349 -200 45 -200 45 -200 45
4477822403.734 -3.8569183 36.028313 -200 45 -200 45 -200 45
4478822520.4201 -3.8606369 36.049469 -200 45 -200 45 -200 45
4479822637.1062 -3.86057 36.060318 -200 45 -200 45 -200 45
4480822753.7923 -3.8600564 36.066898 -200 45 -200 45 -200 45
4481822870.4784 -3.8609276 36.075848 -200 45 -200 45 -200 45
4482822987.1645 -3.864171 36.114525 -200 45 -200 45 -200 45
4483823103.8506 -3.8651674 36.129795 -200 45 -200 45 -200 45
4484823220.5368 -3.8689764 36.145138 -200 45 -200 45 -200 45
4485823337.2229 -3.8698106 36.149891 -200 45 -200 45 -200 45
4486823453.909 -3.8691392 36.166401 -200 45 -200 45 -200 45
4487823570.5951 -3.8692975 36.180305 -200 45 -200 45 -200 45
4488823687.2812 -3.8711948 36.182186 -200 45 -200 45 -200 45
4489823803.9673 -3.8719399 36.19228 -200 45 -200 45 -200 45
4490823920.6534 -3.871593 36.194553 -200 45 -200 45 -200 45
4491824037.3396 -3.8672936 36.195759 -200 45 -200 45 -200 45
4492824154.0257 -3.866832 36.199726 -200 45 -200 45 -200 45
4493824270.7118 -3.8664687 36.224804 -200 45 -200 45 -200 45
4494824387.3979 -3.8701298 36.244846 -200 45 -200 45 -200 45
4495824504.084 -3.868391 36.243092 -200 45 -200 45 -200 45
4496824620.7701 -3.8706231 36.247837 -200 45 -200 45 -200 45
4497824737.4562 -3.8692131 36.262642 -200 45 -200 45 -200 45
4498824854.1424 -3.8715987 36.279652 -200 45 -200 45 -200 45
4499824970.8285 -3.8761899 36.290573 -200 45 -200 45 -200 45
4500825087.5146 -3.8769825 36.314461 -200 45 -200 45 -200 45
4501825204.2007 -3.879142 36.335159 -200 45 -200 45 -200 45
4502825320.8868 -3.878315 36.333561 -200 45 -200 45 -200 45
4503825437.5729 -3.8786962 36.352993 -200 45 -200 45 -200 45
4504825554.259 -3.879921 36.36974 -200 45 -200 45 -200 45
4505825670.9452 -3.8800964 36.367012 -200 45 -200 45 -200 45
4506825787.6313 -3.8780034 36.383526 -200 45 -200 45 -200 45
4507825904.3174 -3.8747404 36.363754 -200 45 -200 45 -200 45
4508826021.0035 -3.8750482 36.38155 -200 45 -200 45 -200 45
4509826137.6896 -3.8762372 36.404644 -200 45 -200 45 -200 45
4510826254.3757 -3.8780761 36.41045 -200 45 -200 45 -200 45
4511826371.0618 -3.8791051 36.422722 -200 45 -200 45 -200 45
4512826487.748 -3.8782113 36.435974 -200 45 -200 45 -200 45
4513826604.4341 -3.8794396 36.426067 -200 45 -200 45 -200 45
4514826721.1202 -3.8817735 36.45607 -200 45 -200 45 -200 45
4515826837.8063 -3.8843453 36.492771 -200 45 -200 45 -200 45
4516826954.4924 -3.8861475 36.502579 -200 45 -200 45 -200 45
4517827071.1785 -3.8887136 36.503357 -200 45 -200 45 -200 45
4518827187.8646 -3.8880031 36.514042 -200 45 -200 45 -200 45
4519827304.5508 -3.8869495 36.537788 -200 45 -200 45 -200 45
4520827421.2369 -3.8882177 36.547092 -200 45 -200 45 -200 45
4521827537.923 -3.8899415 36.553524 -200 45 -200 45 -200 45
4522827654.6091 -3.8883498 36.555943 -200 45 -200 45 -200 45
4523827771.2952 -3.8834112 36.535851 -200 45 -200 45 -200 45
4524827887.9813 -3.8846498 36.558491 -200 45 -200 45 -200 45
4525828004.6674 -3.8837211 36.574455 -200 45 -200 45 -200 45
4526828121.3536 -3.8857081 36.595959 -200 45 -200 45 -200 45
4527828238.0397 -3.8857338 36.588085 -200 45 -200 45 -200 45
4528828354.7258 -3.8863564 36.596134 -200 45 -200 45 -200 45
4529828471.4119 -3.8888555 36.611462 -200 45 -200 45 -200 45
4530828588.098 -3.8890874 36.638836 -200 45 -200 45 -200 45
4531828704.7841 -3.8948877 36.652283 -200 45 -200 45 -200 45
4532828821.4702 -3.8972936 36.662258 -200 45 -200 45 -200 45
4533828938.1564 -3.8959579 36.674751 -200 45 -200 45 -200 45
4534829054.8425 -3.8959973 36.684971 -200 45 -200 45 -200 45
4535829171.5286 -3.8967295 36.704933 -200 45 -200 45 -200 45
4536829288.2147 -3.8999624 36.714668 -200 45 -200 45 -200 45
4537829404.9008 -3.8978431 36.716122 -200 45 -200 45 -200 45
4538829521.5869 -3.8948219 36.724873 -200 45 -200 45 -200 45
4539829638.273 -3.8925579 36.720879 -200 45 -200 45 -200 45
4540829754.9592 -3.8934138 36.727207 -200 45 -200 45 -200 45
4541829871.6453 -3.8952258 36.757187 -200 45 -200 45 -200 45
4542829988.3314 -3.8951948 36.769997 -200 45 -200 45 -200 45
4543830105.0175 -3.897038 36.769257 -200 45 -200 45 -200 45
4544830221.7036 -3.8965077 36.778622 -200 45 -200 45 -200 45
4545830338.3897 -3.8974075 36.787186 -200 45 -200 45 -200 45
4546830455.0758 -3.900136 36.802261 -200 45 -200 45 -200 45
4547830571.762 -3.905154 36.828682 -200 45 -200 45 -200 45
4548830688.4481 -3.9049127 36.842201 -200 45 -200 45 -200 45
4549830805.1342 -3.9062431 36.848938 -200 45 -200 45 -200 45
4550830921.8203 -3.9049606 36.873123 -200 45 -200 45 -200 45
4551831038.5064 -3.9058402 36.877834 -200 45 -200 45 -200 45
4552831155.1925 -3.9087701 36.892445 -200 45 -200 45 -200 45
4553831271.8786 -3.9066064 36.90023 -200 45 -200 45 -200 45
4554831388.5648 -3.9051795 36.911331 -200 45 -200 45 -200 45
4555831505.2509 -3.9016745 36.898769 -200 45 -200 45 -200 45
4556831621.937 -3.9029577 36.905739 -200 45 -200 45 -200 45
4557831738.6231 -3.9037671 36.924538 -200 45 -200 45 -200 45
4558831855.3092 -3.9036725 36.937965 -200 45 -200 45 -200 45
4559831971.9953 -3.90417 36.944359 -200 45 -200 45 -200 45
4560832088.6814 -3.9022975 36.945812 -200 45 -200 45 -200 45
4561832205.3676 -3.9040756 36.980404 -200 45 -200 45 -200 45
4562832322.0537 -3.9066224 36.992413 -200 45 -200 45 -200 45
4563832438.7398 -3.9126399 37.014549 -200 45 -200 45 -200 45
4564832555.4259 -3.9130712 37.023895 -200 45 -200 45 -200 45
4565832672.112 -3.9154191 37.03492 -200 45 -200 45 -200 45
4566832788.7981 -3.9127653 37.045361 -200 45 -200 45 -200 45
4567832905.4842 -3.9156475 37.06068 -200 45 -200 45 -200 45
4568833022.1704 -3.9154797 37.069294 -200 45 -200 45 -200 45
4569833138.8565 -3.9173079 37.095291 -200 45 -200 45 -200 45
4570833255.5426 -3.9145641 37.076412 -200 45 -200 45 -200 45
4571833372.2287 -3.9101975 37.096203 -200 45 -200 45 -200 45
4572833488.9148 -3.9106066 37.101097 -200 45 -200 45 -200 45
4573833605.6009 -3.9113297 37.119488 -200 45 -200 45 -200 45
4574833722.287 -3.9137692 37.141029 -200 45 -200 45 -200 45
4575833838.9732 -3.9123888 37.148064 -200 45 -200 45 -200 45
4576833955.6593 -3.9144418 37.155434 -200 45 -200 45 -200 45
4577834072.3454 -3.9137578 37.177654 -200 45 -200 45 -200 45
4578834189.0315 -3.916476 37.19772 -200 45 -200 45 -200 45
4579834305.7176 -3.9191532 37.215168 -200 45 -200 45 -200 45
4580834422.4037 -3.924243 37.231285 -200 45 -200 45 -200 45
4581834539.0898 -3.9217675 37.258514 -200 45 -200 45 -200 45
4582834655.776 -3.9209335 37.271786 -200 45 -200 45 -200 45
4583834772.4621 -3.9220064 37.277203 -200 45 -200 45 -200 45
4584834889.1482 -3.9224381 37.30191 -200 45 -200 45 -200 45
4585835005.8343 -3.9217656 37.309891 -200 45 -200 45 -200 45
4586835122.5204 -3.9204822 37.313694 -200 45 -200 45 -200 45
4587835239.2065 -3.917295 37.307953 -200 45 -200 45 -200 45
4588835355.8926 -3.9164026 37.328915 -200 45 -200 45 -200 45
4589835472.5788 -3.9159019 37.333813 -200 45 -200 45 -200 45
4590835589.2649 -3.9171336 37.362865 -200 45 -200 45 -200 45
4591835705.951 -3.9168823 37.357155 -200 45 -200 45 -200 45
4592835822.6371 -3.9174685 37.377392 -200 45 -200 45 -200 45
4593835939.3232 -3.9156344 37.387802 -200 45 -200 45 -200 45
4594836056.0093 -3.9178948 37.414165 -200 45 -200 45 -200 45
4595836172.6954 -3.921793 37.445244 -200 45 -200 45 -200 45
4596836289.3816 -3.9237361 37.449509 -200 45 -200 45 -200 45
4597836406.0677 -3.9243271 37.457275 -200 45 -200 45 -200 45
4598836522.7538 -3.921982 37.480137 -200 45 -200 45 -200 45
4599836639.4399 -3.9213438 37.473003 -200 45 -200 45 -200 45
4600836756.126 -3.9246142 37.500309 -200 45 -200 45 -200 45
4601836872.8121 -3.924546 37.509335 -200 45 -200 45 -200 45
4602836989.4983 -3.9200385 37.504364 -200 45 -200 45 -200 45
4603837106.1844 -3.917038 37.49596 -200 45 -200 45 -200 45
4604837222.8705 -3.9172766 37.523643 -200 45 -200 45 -200 45
4605837339.5566 -3.9171939 37.534252 -200 45 -200 45 -200 45
4606837456.2427 -3.9208984 37.548859 -200 45 -200 45 -200 45
4607837572.9288 -3.919173 37.539917 -200 45 -200 45 -200 45
4608837689.6149 -3.9191988 37.553127 -200 45 -200 45 -200 45
4609837806.3011 -3.9196284 37.554298 -200 45 -200 45 -200 45
4610837922.9872 -3.9224629 37.580868 -200 45 -200 45 -200 45
4611838039.6733 -3.9261529 37.597694 -200 45 -200 45 -200 45
4612838156.3594 -3.9277484 37.607422 -200 45 -200 45 -200 45
4613838273.0455 -3.9279706 37.618614 -200 45 -200 45 -200 45
4614838389.7316 -3.9268839 37.628723 -200 45 -200 45 -200 45
4615838506.4177 -3.9272766 37.635181 -200 45 -200 45 -200 45
4616838623.1039 -3.9285307 37.647877 -200 45 -200 45 -200 45
4617838739.79 -3.9277124 37.657707 -200 45 -200 45 -200 45
4618838856.4761 -3.9250071 37.639015 -200 45 -200 45 -200 45
4619838973.1622 -3.9238985 37.642662 -200 45 -200 45 -200 45
4620839089.8483 -3.9237068 37.665825 -200 45 -200 45 -200 45
4621839206.5344 -3.9220071 37.679726 -200 45 -200 45 -200 45
4622839323.2205 -3.9255831 37.698971 -200 45 -200 45 -200 45
4623839439.9067 -3.9263461 37.710457 -200 45 -200 45 -200 45
4624839556.5928 -3.923559 37.713696 -200 45 -200 45 -200 45
4625839673.2789 -3.9241853 37.727383 -200 45 -200 45 -200 45
4626839789.965 -3.9289951 37.747421 -200 45 -200 45 -200 45
4627839906.6511 -3.9339137 37.766872 -200 45 -200 45 -200 45
4628840023.3372 -3.9349091 37.778194 -200 45 -200 45 -200 45
4629840140.0233 -3.9339359 37.785603 -200 45 -200 45 -200 45
4630840256.7095 -3.9316325 37.788486 -200 45 -200 45 -200 45
4631840373.3956 -3.9353454 37.805702 -200 45 -200 45 -200 45
4632840490.0817 -3.9351964 37.818272 -200 45 -200 45 -200 45
4633840606.7678 -3.9349296 37.827297 -200 45 -200 45 -200 45
4634840723.4539 -3.9342916 37.822571 -200 45 -200 45 -200 45
4635840840.14 -3.9325409 37.818863 -200 45 -200 45 -200 45
4636840956.8261 -3.9325023 37.840199 -200 45 -200 45 -200 45
4637841073.5123 -3.9334216 37.845589 -200 45 -200 45 -200 45
4638841190.1984 -3.9340193 37.86549 -200 45 -200 45 -200 45
4639841306.8845 -3.9336121 37.873356 -200 45 -200 45 -200 45
4640841423.5706 -3.9337246 37.873695 -200 45 -200 45 -200 45
4641841540.2567 -3.9344416 37.889214 -200 45 -200 45 -200 45
4642841656.9428 -3.9371951 37.90065 -200 45 -200 45 -200 45
4643841773.6289 -3.9415226 37.929359 -200 45 -200 45 -200 45
4644841890.3151 -3.9446557 37.946331 -200 45 -200 45 -200 45
4645842007.0012 -3.9446301 37.959545 -200 45 -200 45 -200 45
4646842123.6873 -3.9418583 37.954262 -200 45 -200 45 -200 45
4647842240.3734 -3.9427283 37.970604 -200 45 -200 45 -200 45
4648842357.0595 -3.9452732 37.983524 -200 45 -200 45 -200 45
4649842473.7456 -3.9437771 37.985088 -200 45 -200 45 -200 45
4650842590.4317 -3.9415781 37.993156 -200 45 -200 45 -200 45
4651842707.1179 -3.9393086 37.988541 -200 45 -200 45 -200 45
4652842823.804 -3.940587 37.988049 -200 45 -200 45 -200 45
4653842940.4901 -3.9434361 38.015717 -200 45 -200 45 -200 45
4654843057.1762 -3.9436474 38.025761 -200 45 -200 45 -200 45
4655843173.8623 -3.9436498 38.027493 -200 45 -200 45 -200 45
4656843290.5484 -3.9418235 38.034008 -200 45 -200 45 -200 45
4657843407.2345 -3.9440453 38.049335 -200 45 -200 45 -200 45
4658843523.9207 -3.948061 38.068352 -200 45 -200 45 -200 45
4659843640.6068 -3.9525769 38.092506 -200 45 -200 45 -200 45
4660843757.2929 -3.952023 38.108021 -200 45 -200 45 -200 45
4661843873.979 -3.9529364 38.124676 -200 45 -200 45 -200 45
4662843990.6651 -3.9527152 38.128845 -200 45 -200 45 -200 45
4663844107.3512 -3.9533815 38.1478 -200 45 -200 45 -200 45
4664844224.0373 -3.9552042 38.163536 -200 45 -200 45 -200 45
4665844340.7235 -3.9543233 38.17572 -200 45 -200 45 -200 45
4666844457.4096 -3.9540825 38.16497 -200 45 -200 45 -200 45
4667844574.0957 -3.9507763 38.168568 -200 45 -200 45 -200 45
4668844690.7818 -3.9501946 38.179398 -200 45 -200 45 -200 45
4669844807.4679 -3.9523234 38.213123 -200 45 -200 45 -200 45
4670844924.154 -3.9523575 38.214596 -200 45 -200 45 -200 45
4671845040.8401 -3.950418 38.235615 -200 45 -200 45 -200 45
4672845157.5263 -3.9505234 38.226315 -200 45 -200 45 -200 45
4673845274.2124 -3.9525621 38.251019 -200 45 -200 45 -200 45
4674845390.8985 -3.9561169 38.272903 -200 45 -200 45 -200 45
4675845507.5846 -3.9582944 38.276512 -200 45 -200 45 -200 45
4676845624.2707 -3.9614828 38.30608 -200 45 -200 45 -200 45
4677845740.9568 -3.9615605 38.309963 -200 45 -200 45 -200 45
4678845857.6429 -3.9585626 38.321396 -200 45 -200 45 -200 45
4679845974.3291 -3.9599125 38.332851 -200 45 -200 45 -200 45
4680846091.0152 -3.9610782 38.359188 -200 45 -200 45 -200 45
4681846207.7013 -3.9605935 38.357937 -200 45 -200 45 -200 45
4682846324.3874 -3.9560652 38.345322 -200 45 -200 45 -200 45
4683846441.0735 -3.9542577 38.349041 -200 45 -200 45 -200 45
4684846557.7596 -3.9546695 38.366924 -200 45 -200 45 -200 45
4685846674.4457 -3.9567227 38.383186 -200 45 -200 45 -200 45
4686846791.1319 -3.9582603 38.38784 -200 45 -200 45 -200 45
4687846907.818 -3.956249 38.396091 -200 45 -200 45 -200 45
4688847024.5041 -3.9586744 38.391594 -200 45 -200 45 -200 45
4689847141.1902 -3.9589186 38.401466 -200 45 -200 45 -200 45
4690847257.8763 -3.9621165 38.445465 -200 45 -200 45 -200 45
4691847374.5624 -3.9659369 38.454636 -200 45 -200 45 -200 45
4692847491.2485 -3.9652529 38.478638 -200 45 -200 45 -200 45
4693847607.9347 -3.966485 38.477856 -200 45 -200 45 -200 45
4694847724.6208 -3.9682436 38.492298 -200 45 -200 45 -200 45
4695847841.3069 -3.9671082 38.499699 -200 45 -200 45 -200 45
4696847957.993 -3.9698725 38.517574 -200 45 -200 45 -200 45
4697848074.6791 -3.9684181 38.516472 -200 45 -200 45 -200 45
4698848191.3652 -3.9642956 38.504101 -200 45 -200 45 -200 45
4699848308.0513 -3.9634144 38.509052 -200 45 -200 45 -200 45
4700848424.7375 -3.9636102 38.538765 -200 45 -200 45 -200 45
4701848541.4236 -3.9662313 38.55101 -200 45 -200 45 -200 45
4702848658.1097 -3.9687953 38.564953 -200 45 -200 45 -200 45
4703848774.7958 -3.9646122 38.567371 -200 45 -200 45 -200 45
4704848891.4819 -3.9672213 38.578236 -200 45 -200 45 -200 45
4705849008.168 -3.9690919 38.600876 -200 45 -200 45 -200 45
4706849124.8541 -3.9723806 38.614204 -200 45 -200 45 -200 45
4707849241.5403 -3.9736691 38.636303 -200 45 -200 45 -200 45
4708849358.2264 -3.9752243 38.642139 -200 45 -200 45 -200 45
4709849474.9125 -3.9739542 38.662956 -200 45 -200 45 -200 45
4710849591.5986 -3.9738946 38.690308 -200 45 -200 45 -200 45
4711849708.2847 -3.9753504 38.694691 -200 45 -200 45 -200 45
4712849824.9708 -3.9784551 38.697594 -200 45 -200 45 -200 45
4713849941.6569 -3.9764717 38.702549 -200 45 -200 45 -200 45
4714850058.3431 -3.9748094 38.700054 -200 45 -200 45 -200 45
4715850175.0292 -3.9714384 38.709789 -200 45 -200 45 -200 45
4716850291.7153 -3.974982 38.722866 -200 45 -200 45 -200 45
4717850408.4014 -3.9752676 38.732037 -200 45 -200 45 -200 45
4718850525.0875 -3.9757414 38.758877 -200 45 -200 45 -200 45
4719850641.7736 -3.9779122 38.758423 -200 45 -200 45 -200 45
4720850758.4597 -3.9760656 38.758202 -200 45 -200 45 -200 45
4721850875.1459 -3.9786315 38.783276 -200 45 -200 45 -200 45
4722850991.832 -3.9827642 38.802498 -200 45 -200 45 -200 45
4723851108.5181 -3.9865735 38.825916 -200 45 -200 45 -200 45
4724851225.2042 -3.9878039 38.840614 -200 45 -200 45 -200 45
4725851341.8903 -3.9878078 38.858089 -200 45 -200 45 -200 45
4726851458.5764 -3.986696 38.861027 -200 45 -200 45 -200 45
4727851575.2625 -3.9873521 38.870186 -200 45 -200 45 -200 45
4728851691.9487 -3.9891529 38.888031 -200 45 -200 45 -200 45
4729851808.6348 -3.988555 38.886578 -200 45 -200 45 -200 45
4730851925.3209 -3.9841413 38.892769 -200 45 -200 45 -200 45
4731852042.007 -3.9826412 38.887959 -200 45 -200 45 -200 45
4732852158.6931 -3.9824307 38.909904 -200 45 -200 45 -200 45
4733852275.3792 -3.9855793 38.92614 -200 45 -200 45 -200 45
4734852392.0653 -3.9867513 38.932167 -200 45 -200 45 -200 45
4735852508.7515 -3.9869144 38.944515 -200 45 -200 45 -200 45
4736852625.4376 -3.9851587 38.959133 -200 45 -200 45 -200 45
4737852742.1237 -3.9875164 38.974789 -200 45 -200 45 -200 45
4738852858.8098 -3.9914174 39.00024 -200 45 -200 45 -200 45
4739852975.4959 -3.9933786 39.014309 -200 45 -200 45 -200 45
4740853092.182 -3.9949374 39.025414 -200 45 -200 45 -200 45
4741853208.8681 -3.995333 39.03904 -200 45 -200 45 -200 45
4742853325.5543 -3.9942636 39.052773 -200 45 -200 45 -200 45
4743853442.2404 -3.9974892 39.066917 -200 45 -200 45 -200 45
4744853558.9265 -3.9980397 39.077324 -200 45 -200 45 -200 45
4745853675.6126 -3.9967482 39.080574 -200 45 -200 45 -200 45
4746853792.2987 -3.9935582 39.074638 -200 45 -200 45 -200 45
4747853908.9848 -3.9920182 39.084358 -200 45 -200 45 -200 45
4748854025.6709 -3.9932923 39.09708 -200 45 -200 45 -200 45
4749854142.3571 -3.9972329 39.115025 -200 45 -200 45 -200 45
4750854259.0432 -3.9954195 39.128834 -200 45 -200 45 -200 45
4751854375.7293 -3.9953558 39.137264 -200 45 -200 45 -200 45
4752854492.4154 -3.9960001 39.135551 -200 45 -200 45 -200 45
4753854609.1015 -3.9995675 39.162479 -200 45 -200 45 -200 45
4754854725.7876 -4.0032029 39.183903 -200 45 -200 45 -200 45
4755854842.4737 -4.0034389 39.20594 -200 45 -200 45 -200 45
4756854959.1599 -4.007236 39.209621 -200 45 -200 45 -200 45
4757855075.846 -4.0058703 39.225155 -200 45 -200 45 -200 45
4758855192.5321 -4.004653 39.237625 -200 45 -200 45 -200 45
4759855309.2182 -4.008852 39.252586 -200 45 -200 45 -200 45
4760855425.9043 -4.0088458 39.25869 -200 45 -200 45 -200 45
4761855542.5904 -4.0063572 39.268364 -200 45 -200 45 -200 45
4762855659.2765 -4.0044718 39.257553 -200 45 -200 45 -200 45
4763855775.9627 -4.0034208 39.261986 -200 45 -200 45 -200 45
4764855892.6488 -4.0050011 39.278839 -200 45 -200 45 -200 45
4765856009.3349 -4.0070572 39.306385 -200 45 -200 45 -200 45
4766856126.021 -4.0067773 39.296017 -200 45 -200 45 -200 45
4767856242.7071 -4.0068135 39.317223 -200 45 -200 45 -200 45
4768856359.3932 -4.0083642 39.33456 -200 45 -200 45 -200 45
4769856476.0793 -4.0103073 39.343857 -200 45 -200 45 -200 45
4770856592.7655 -4.0136108 39.373692 -200 45 -200 45 -200 45
4771856709.4516 -4.0162892 39.384102 -200 45 -200 45 -200 45
4772856826.1377 -4.0164461 39.403702 -200 45 -200 45 -200 45
4773856942.8238 -4.0191183 39.407349 -200 45 -200 45 -200 45
4774857059.5099 -4.0182381 39.412815 -200 45 -200 45 -200 45
4775857176.196 -4.0188246 39.439117 -200 45 -200 45 -200 45
4776857292.8821 -4.0187201 39.459038 -200 45 -200 45 -200 45
4777857409.5683 -4.018899 39.453472 -200 45 -200 45 -200 45
4778857526.2544 -4.0141888 39.446747 -200 45 -200 45 -200 45
4779857642.9405 -4.0152597 39.45499 -200 45 -200 45 -200 45
4780857759.6266 -4.0171351 39.476231 -200 45 -200 45 -200 45
4781857876.3127 -4.0189261 39.492702 -200 45 -200 45 -200 45
4782857992.9988 -4.0177326 39.510799 -200 45 -200 45 -200 45
4783858109.6849 -4.0202284 39.496948 -200 45 -200 45 -200 45
4784858226.3711 -4.0205555 39.52713 -200 45 -200 45 -200 45
4785858343.0572 -4.0217748 39.538525 -200 45 -200 45 -200 45
4786858459.7433 -4.026238 39.553581 -200 45 -200 45 -200 45
4787858576.4294 -4.0293722 39.577347 -200 45 -200 45 -200 45
4788858693.1155 -4.0297117 39.58749 -200 45 -200 45 -200 45
4789858809.8016 -4.02985 39.606056 -200 45 -200 45 -200 45
4790858926.4877 -4.0304537 39.618248 -200 45 -200 45 -200 45
4791859043.1739 -4.0328894 39.629292 -200 45 -200 45 -200 45
4792859159.86 -4.0323648 39.634319 -200 45 -200 45 -200 45
4793859276.5461 -4.030488 39.645634 -200 45 -200 45 -200 45
4794859393.2322 -4.0280552 39.645439 -200 45 -200 45 -200 45
4795859509.9183 -4.0278492 39.656433 -200 45 -200 45 -200 45
4796859626.6044 -4.0299377 39.6707 -200 45 -200 45 -200 45
4797859743.2905 -4.0304246 39.70192 -200 45 -200 45 -200 45
4798859859.9767 -4.0314164 39.707966 -200 45 -200 45 -200 45
4799859976.6628 -4.0310159 39.718258 -200 45 -200 45 -200 45
4800860093.3489 -4.0322814 39.730007 -200 45 -200 45 -200 45
4801860210.035 -4.034862 39.761288 -200 45 -200 45 -200 45
4802860326.7211 -4.0405149 39.794411 -200 45 -200 45 -200 45
4803860443.4072 -4.0437431 39.80254 -200 45 -200 45 -200 45
4804860560.0933 -4.0454216 39.829151 -200 45 -200 45 -200 45
4805860676.7795 -4.0444756 39.849503 -200 45 -200 45 -200 45
4806860793.4656 -4.0467958 39.865265 -200 45 -200 45 -200 45
4807860910.1517 -4.048358 39.88689 -200 45 -200 45 -200 45
4808861026.8378 -4.0492969 39.903496 -200 45 -200 45 -200 45
4809861143.5239 -4.0462122 39.922222 -200 45 -200 45 -200 45
4810861260.21 -4.0432425 39.925991 -200 45 -200 45 -200 45
4811861376.8961 -4.0421262 39.964306 -200 45 -200 45 -200 45
4812861493.5823 -4.0442181 39.990204 -200 45 -200 45 -200 45
4813861610.2684 -4.0455961 40.018398 -200 45 -200 45 -200 45
4814861726.9545 -4.0434694 40.039001 -200 45 -200 45 -200 45
4815861843.6406 -4.0428157 40.054485 -200 45 -200 45 -200 45
4816861960.3267 -4.0404339 40.072376 -200 45 -200 45 -200 45
4817862077.0128 -4.0415187 40.086273 -200 45 -200 45 -200 45
4818862193.6989 -4.0432234 40.125008 -200 45 -200 45 -200 45
4819862310.3851 -4.0433011 40.151051 -200 45 -200 45 -200 45
4820862427.0712 -4.0446215 40.166759 -200 45 -200 45 -200 45
4821862543.7573 -4.0430341 40.172337 -200 45 -200 45 -200 45
4822862660.4434 -4.0404019 40.199047 -200 45 -200 45 -200 45
4823862777.1295 -4.0406904 40.215729 -200 45 -200 45 -200 45
4824862893.8156 -4.0381126 40.22501 -200 45 -200 45 -200 45
4825863010.5018 -4.0352268 40.217594 -200 45 -200 45 -200 45
4826863127.1879 -4.0310521 40.221127 -200 45 -200 45 -200 45
4827863243.874 -4.0295019 40.248001 -200 45 -200 45 -200 45
4828863360.5601 -4.026772 40.243664 -200 45 -200 45 -200 45
4829863477.2462 -4.0295548 40.272343 -200 45 -200 45 -200 45
4830863593.9323 -4.0272489 40.283127 -200 45 -200 45 -200 45
4831863710.6184 -4.0239525 40.273701 -200 45 -200 45 -200 45
4832863827.3046 -4.0258136 40.269169 -200 45 -200 45 -200 45
4833863943.9907 -4.0290627 40.29266 -200 45 -200 45 -200 45
4834864060.6768 -4.0293226 40.31509 -200 45 -200 45 -200 45
4835864177.3629 -4.0325885 40.31863 -200 45 -200 45 -200 45
4836864294.049 -4.0318742 40.33992 -200 45 -200 45 -200 45
4837864410.7351 -4.0296197 40.335819 -200 45 -200 45 -200 45
4838864527.4212 -4.0310812 40.34967 -200 45 -200 45 -200 45
4839864644.1074 -4.0322485 40.35973 -200 45 -200 45 -200 45
4840864760.7935 -4.0317969 40.36161 -200 45 -200 45 -200 45
4841864877.4796 -4.0304193 40.357182 -200 45 -200 45 -200 45
4842864994.1657 -4.026886 40.355286 -200 45 -200 45 -200 45
4843865110.8518 -4.0240593 40.34589 -200 45 -200 45 -200 45
4844865227.5379 -4.0253358 40.36187 -200 45 -200 45 -200 45
4845865344.224 -4.0284743 40.379276 -200 45 -200 45 -200 45
4846865460.9102 -4.026216 40.387562 -200 45 -200 45 -200 45
4847865577.5963 -4.02528 40.38641 -200 45 -200 45 -200 45
4848865694.2824 -4.0256195 40.398521 -200 45 -200 45 -200 45
4849865810.9685 -4.0293479 40.407982 -200 45 -200 45 -200 45
4850865927.6546 -4.0320144 40.434238 -200 45 -200 45 -200 45
4851866044.3407 -4.0355268 40.433758 -200 45 -200 45 -200 45
4852866161.0268 -4.0356169 40.442806 -200 45 -200 45 -200 45
4853866277.713 -4.033895 40.44199 -200 45 -200 45 -200 45
4854866394.3991 -4.0355859 40.468563 -200 45 -200 45 -200 45
4855866511.0852 -4.0374913 40.460602 -200 45 -200 45 -200 45
4856866627.7713 -4.0365524 40.464912 -200 45 -200 45 -200 45
4857866744.4574 -4.0349493 40.475834 -200 45 -200 45 -200 45
4858866861.1435 -4.0312333 40.471107 -200 45 -200 45 -200 45
4859866977.8296 -4.0325103 40.46994 -200 45 -200 45 -200 45
4860867094.5158 -4.0337238 40.472515 -200 45 -200 45 -200 45
4861867211.2019 -4.0357661 40.490772 -200 45 -200 45 -200 45
4862867327.888 -4.0345516 40.490845 -200 45 -200 45 -200 45
4863867444.5741 -4.0338092 40.496498 -200 45 -200 45 -200 45
4864867561.2602 -4.0354533 40.493782 -200 45 -200 45 -200 45
4865867677.9463 -4.037251 40.521141 -200 45 -200 45 -200 45
4866867794.6324 -4.0433617 40.546097 -200 45 -200 45 -200 45
4867867911.3186 -4.0449815 40.553432 -200 45 -200 45 -200 45
4868868028.0047 -4.0466022 40.553211 -200 45 -200 45 -200 45
4869868144.6908 -4.0443425 40.559017 -200 45 -200 45 -200 45
4870868261.3769 -4.0467448 40.572227 -200 45 -200 45 -200 45
4871868378.063 -4.0488129 40.58567 -200 45 -200 45 -200 45
4872868494.7491 -4.0488768 40.587597 -200 45 -200 45 -200 45
4873868611.4352 -4.0475006 40.586124 -200 45 -200 45 -200 45
4874868728.1214 -4.0466194 40.577477 -200 45 -200 45 -200 45
4875868844.8075 -4.0471554 40.592728 -200 45 -200 45 -200 45
4876868961.4936 -4.0496125 40.613449 -200 45 -200 45 -200 45
4877869078.1797 -4.0524058 40.61314 -200 45 -200 45 -200 45
4878869194.8658 -4.0527835 40.609367 -200 45 -200 45 -200 45
4879869311.5519 -4.0519285 40.613659 -200 45 -200 45 -200 45
4880869428.238 -4.0535874 40.636059 -200 45 -200 45 -200 45
4881869544.9242 -4.0580587 40.651051 -200 45 -200 45 -200 45
4882869661.6103 -4.0629592 40.670074 -200 45 -200 45 -200 45
4883869778.2964 -4.0652409 40.680523 -200 45 -200 45 -200 45
4884869894.9825 -4.0664153 40.696507 -200 45 -200 45 -200 45
4885870011.6686 -4.0658059 40.700253 -200 45 -200 45 -200 45
4886870128.3547 -4.068511 40.736099 -200 45 -200 45 -200 45
4887870245.0408 -4.0683155 40.729099 -200 45 -200 45 -200 45
4888870361.727 -4.0703053 40.744835 -200 45 -200 45 -200 45
4889870478.4131 -4.0696735 40.761475 -200 45 -200 45 -200 45
4890870595.0992 -4.0661664 40.738884 -200 45 -200 45 -200 45
4891870711.7853 -4.0672541 40.765266 -200 45 -200 45 -200 45
4892870828.4714 -4.0701442 40.77132 -200 45 -200 45 -200 45
4893870945.1575 -4.0731802 40.814487 -200 45 -200 45 -200 45
4894871061.8436 -4.07336 40.805214 -200 45 -200 45 -200 45
4895871178.5298 -4.0747828 40.811905 -200 45 -200 45 -200 45
4896871295.2159 -4.0741148 40.835278 -200 45 -200 45 -200 45
4897871411.902 -4.0779877 40.860096 -200 45 -200 45 -200 45
4898871528.5881 -4.0812898 40.891136 -200 45 -200 45 -200 45
4899871645.2742 -4.0858769 40.888309 -200 45 -200 45 -200 45
4900871761.9603 -4.0877018 40.913761 -200 45 -200 45 -200 45
4901871878.6464 -4.085176 40.932495 -200 45 -200 45 -200 45
4902871995.3326 -4.0868502 40.933285 -200 45 -200 45 -200 45
4903872112.0187 -4.0902596 40.947102 -200 45 -200 45 -200 45
4904872228.7048 -4.0900407 40.95713 -200 45 -200 45 -200 45
4905872345.3909 -4.0880785 40.950382 -200 45 -200 45 -200 45
4906872462.077 -4.0861483 40.943085 -200 45 -200 45 -200 45
4907872578.7631 -4.089519 40.980816 -200 45 -200 45 -200 45
4908872695.4492 -4.0893307 40.981754 -200 45 -200 45 -200 45
4909872812.1354 -4.0929675 41.013878 -200 45 -200 45 -200 45
4910872928.8215 -4.0932498 41.021744 -200 45 -200 45 -200 45
4911873045.5076 -4.09235 41.035282 -200 45 -200 45 -200 45
4912873162.1937 -4.0953732 41.051834 -200 45 -200 45 -200 45
4913873278.8798 -4.0995913 41.077198 -200 45 -200 45 -200 45
4914873395.5659 -4.1030383 41.094666 -200 45 -200 45 -200 45
4915873512.252 -4.1050639 41.119392 -200 45 -200 45 -200 45
4916873628.9382 -4.1056347 41.136292 -200 45 -200 45 -200 45
4917873745.6243 -4.1056991 41.153194 -200 45 -200 45 -200 45
4918873862.3104 -4.1071339 41.180405 -200 45 -200 45 -200 45
4919873978.9965 -4.1101599 41.206203 -200 45 -200 45 -200 45
4920874095.6826 -4.1105332 41.202408 -200 45 -200 45 -200 45
4921874212.3687 -4.1112103 41.198017 -200 45 -200 45 -200 45
4922874329.0548 -4.1074657 41.212677 -200 45 -200 45 -200 45
4923874445.741 -4.1080413 41.227062 -200 45 -200 45 -200 45
4924874562.4271 -4.1111197 41.250423 -200 45 -200 45 -200 45
4925874679.1132 -4.1145439 41.291176 -200 45 -200 45 -200 45
4926874795.7993 -4.1139898 41.295086 -200 45 -200 45 -200 45
4927874912.4854 -4.114574 41.310177 -200 45 -200 45 -200 45
4928875029.1715 -4.1177979 41.326111 -200 45 -200 45 -200 45
4929875145.8576 -4.1202273 41.361946 -200 45 -200 45 -200 45
4930875262.5438 -4.1265244 41.398048 -200 45 -200 45 -200 45
4931875379.2299 -4.1264067 41.40778 -200 45 -200 45 -200 45
4932875495.916 -4.1309018 41.423847 -200 45 -200 45 -200 45
4933875612.6021 -4.1290765 41.448093 -200 45 -200 45 -200 45
4934875729.2882 -4.1303749 41.473263 -200 45 -200 45 -200 45
4935875845.9743 -4.1345034 41.498425 -200 45 -200 45 -200 45
4936875962.6604 -4.1328516 41.517292 -200 45 -200 45 -200 45
4937876079.3466 -4.1297598 41.522861 -200 45 -200 45 -200 45
4938876196.0327 -4.129231 41.532639 -200 45 -200 45 -200 45
4939876312.7188 -4.1330853 41.553738 -200 45 -200 45 -200 45
4940876429.4049 -4.1353459 41.583286 -200 45 -200 45 -200 45
4941876546.091 -4.1379194 41.627399 -200 45 -200 45 -200 45
4942876662.7771 -4.1375351 41.645901 -200 45 -200 45 -200 45
4943876779.4632 -4.1389065 41.647533 -200 45 -200 45 -200 45
4944876896.1494 -4.1408958 41.694286 -200 45 -200 45 -200 45
4945877012.8355 -4.1437993 41.722824 -200 45 -200 45 -200 45
4946877129.5216 -4.1502514 41.759052 -200 45 -200 45 -200 45
4947877246.2077 -4.1514859 41.791447 -200 45 -200 45 -200 45
4948877362.8938 -4.1522465 41.843029 -200 45 -200 45 -200 45
4949877479.5799 -4.1485038 41.861153 -200 45 -200 45 -200 45
4950877596.266 -4.1483502 41.899136 -200 45 -200 45 -200 45
4951877712.9522 -4.1494293 41.941402 -200 45 -200 45 -200 45
4952877829.6383 -4.1477032 41.953564 -200 45 -200 45 -200 45
4953877946.3244 -4.1456623 41.976852 -200 45 -200 45 -200 45
4954878063.0105 -4.1424026 41.992519 -200 45 -200 45 -200 45
4955878179.6966 -4.1424265 42.013798 -200 45 -200 45 -200 45
4956878296.3827 -4.1399059 42.053627 -200 45 -200 45 -200 45
4957878413.0688 -4.1397977 42.071663 -200 45 -200 45 -200 45
4958878529.755 -4.1364126 42.097347 -200 45 -200 45 -200 45
4959878646.4411 -4.1364107 42.116848 -200 45 -200 45 -200 45
4960878763.1272 -4.1346107 42.130112 -200 45 -200 45 -200 45
4961878879.8133 -4.1356831 42.154793 -200 45 -200 45 -200 45
4962878996.4994 -4.1383743 42.192299 -200 45 -200 45 -200 45
4963879113.1855 -4.1398482 42.199757 -200 45 -200 45 -200 45
4964879229.8716 -4.1383023 42.20594 -200 45 -200 45 -200 45
4965879346.5578 -4.1381655 42.230408 -200 45 -200 45 -200 45
4966879463.2439 -4.1382179 42.25053 -200 45 -200 45 -200 45
4967879579.93 -4.1397276 42.273743 -200 45 -200 45 -200 45
4968879696.6161 -4.1387448 42.279751 -200 45 -200 45 -200 45
4969879813.3022 -4.1357584 42.277325 -200 45 -200 45 -200 45
4970879929.9883 -4.13131 42.290195 -200 45 -200 45 -200 45
4971880046.6744 -4.135273 42.298691 -200 45 -200 45 -200 45
4972880163.3606 -4.135778 42.326859 -200 45 -200 45 -200 45
4973880280.0467 -4.1389642 42.360729 -200 45 -200 45 -200 45
4974880396.7328 -4.1385732 42.380718 -200 45 -200 45 -200 45
4975880513.4189 -4.1400671 42.38966 -200 45 -200 45 -200 45
4976880630.105 -4.1408925 42.430073 -200 45 -200 45 -200 45
4977880746.7911 -4.1464834 42.470226 -200 45 -200 45 -200 45
4978880863.4772 -4.1501603 42.515598 -200 45 -200 45 -200 45
4979880980.1634 -4.1516166 42.538406 -200 45 -200 45 -200 45
4980881096.8495 -4.1528997 42.598122 -200 45 -200 45 -200 45
4981881213.5356 -4.1493077 42.634323 -200 45 -200 45 -200 45
4982881330.2217 -4.1508203 42.669666 -200 45 -200 45 -200 45
4983881446.9078 -4.1508536 42.726543 -200 45 -200 45 -200 45
4984881563.5939 -4.1492434 42.752117 -200 45 -200 45 -200 45
4985881680.28 -4.1431155 42.783985 -200 45 -200 45 -200 45
4986881796.9662 -4.138536 42.809856 -200 45 -200 45 -200 45
4987881913.6523 -4.1356349 42.850994 -200 45 -200 45 -200 45
4988882030.3384 -4.1337495 42.887394 -200 45 -200 45 -200 45
4989882147.0245 -4.1307926 42.926125 -200 45 -200 45 -200 45
4990882263.7106 -4.1262035 42.958096 -200 45 -200 45 -200 45
4991882380.3967 -4.1216025 42.97654 -200 45 -200 45 -200 45
4992882497.0828 -4.1195855 43.017746 -200 45 -200 45 -200 45
4993882613.769 -4.1187449 43.052544 -200 45 -200 45 -200 45
4994882730.4551 -4.1174245 43.095329 -200 45 -200 45 -200 45
4995882847.1412 -4.114027 43.112408 -200 45 -200 45 -200 45
4996882963.8273 -4.1107039 43.132881 -200 45 -200 45 -200 45
4997883080.5134 -4.1030216 43.169968 -200 45 -200 45 -200 45
4998883197.1995 -4.0991435 43.200966 -200 45 -200 45 -200 45
4999883313.8856 -4.0979905 43.208431 -200 45 -200 45 -200 45
5000883430.5718 -4.087481 43.211323 -200 45 -200 45 -200 45
5001883547.2579 -4.0783081 43.213181 -200 45 -200 45 -200 45
5002883663.944 -4.0730662 43.222256 -200 45 -200 45 -200 45
5003883780.6301 -4.0699453 43.242237 -200 45 -200 45 -200 45
5004883897.3162 -4.0652571 43.25214 -200 45 -200 45 -200 45
5005884014.0023 -4.0598989 43.247585 -200 45 -200 45 -200 45
5006884130.6884 -4.0544801 43.25486 -200 45 -200 45 -200 45
5007884247.3746 -4.0512595 43.262592 -200 45 -200 45 -200 45
5008884364.0607 -4.0478811 43.268223 -200 45 -200 45 -200 45
5009884480.7468 -4.0472302 43.278599 -200 45 -200 45 -200 45
5010884597.4329 -4.0450377 43.281231 -200 45 -200 45 -200 45
5011884714.119 -4.0408335 43.290894 -200 45 -200 45 -200 45
5012884830.8051 -4.0361667 43.280514 -200 45 -200 45 -200 45
5013884947.4912 -4.0323648 43.288509 -200 45 -200 45 -200 45
5014885064.1774 -4.0293627 43.279598 -200 45 -200 45 -200 45
5015885180.8635 -4.0222464 43.272747 -200 45 -200 45 -200 45
5016885297.5496 -4.0164971 43.238491 -200 45 -200 45 -200 45
5017885414.2357 -4.0093889 43.225025 -200 45 -200 45 -200 45
5018885530.9218 -4.0069046 43.228352 -200 45 -200 45 -200 45
5019885647.6079 -4.0064516 43.217808 -200 45 -200 45 -200 45
5020885764.294 -4.0023608 43.220539 -200 45 -200 45 -200 45
5021885880.9802 -3.9992142 43.209995 -200 45 -200 45 -200 45
5022885997.6663 -3.9953644 43.174774 -200 45 -200 45 -200 45
5023886114.3524 -3.9948311 43.177868 -200 45 -200 45 -200 45
5024886231.0385 -3.9946637 43.175232 -200 45 -200 45 -200 45
5025886347.7246 -3.9960861 43.168705 -200 45 -200 45 -200 45
5026886464.4107 -3.9936922 43.151306 -200 45 -200 45 -200 45
5027886581.0968 -3.9922023 43.137764 -200 45 -200 45 -200 45
5028886697.783 -3.9892955 43.140923 -200 45 -200 45 -200 45
5029886814.4691 -3.9898248 43.124271 -200 45 -200 45 -200 45
5030886931.1552 -3.9887793 43.0895 -200 45 -200 45 -200 45
5031887047.8413 -3.9866161 43.085571 -200 45 -200 45 -200 45
5032887164.5274 -3.9821424 43.057682 -200 45 -200 45 -200 45
5033887281.2135 -3.9809246 43.025745 -200 45 -200 45 -200 45
5034887397.8997 -3.9798944 43.036346 -200 45 -200 45 -200 45
5035887514.5858 -3.980608 43.029774 -200 45 -200 45 -200 45
5036887631.2719 -3.981385 43.017303 -200 45 -200 45 -200 45
5037887747.958 -3.9803207 43.002323 -200 45 -200 45 -200 45
5038887864.6441 -3.9789853 42.980427 -200 45 -200 45 -200 45
5039887981.3302 -3.9820442 42.985462 -200 45 -200 45 -200 45
5040888098.0163 -3.9852188 42.987404 -200 45 -200 45 -200 45
5041888214.7025 -3.9876578 42.968552 -200 45 -200 45 -200 45
5042888331.3886 -3.9881487 42.955067 -200 45 -200 45 -200 45
5043888448.0747 -3.9875793 42.948566 -200 45 -200 45 -200 45
5044888564.7608 -3.9865022 42.936218 -200 45 -200 45 -200 45
5045888681.4469 -3.9905593 42.913994 -200 45 -200 45 -200 45
5046888798.133 -3.9895427 42.90699 -200 45 -200 45 -200 45
5047888914.8191 -3.9877815 42.891247 -200 45 -200 45 -200 45
5048889031.5053 -3.9863265 42.860779 -200 45 -200 45 -200 45
5049889148.1914 -3.9873824 42.85099 -200 45 -200 45 -200 45
5050889264.8775 -3.9885814 42.834137 -200 45 -200 45 -200 45
5051889381.5636 -3.9924374 42.834274 -200 45 -200 45 -200 45
5052889498.2497 -3.9932215 42.826355 -200 45 -200 45 -200 45
5053889614.9358 -3.9950271 42.816238 -200 45 -200 45 -200 45
5054889731.6219 -3.9989669 42.805382 -200 45 -200 45 -200 45
5055889848.3081 -4.0029097 42.808125 -200 45 -200 45 -200 45
5056889964.9942 -4.0074778 42.812286 -200 45 -200 45 -200 45
5057890081.6803 -4.0131369 42.799824 -200 45 -200 45 -200 45
5058890198.3664 -4.012866 42.811813 -200 45 -200 45 -200 45
5059890315.0525 -4.0162978 42.800182 -200 45 -200 45 -200 45
5060890431.7386 -4.0187097 42.80571 -200 45 -200 45 -200 45
5061890548.4247 -4.0236259 42.793255 -200 45 -200 45 -200 45
5062890665.1109 -4.0257163 42.79303 -200 45 -200 45 -200 45
5063890781.797 -4.0240045 42.792721 -200 45 -200 45 -200 45
5064890898.4831 -4.0273995 42.774811 -200 45 -200 45 -200 45
5065891015.1692 -4.0284162 42.774864 -200 45 -200 45 -200 45
5066891131.8553 -4.0337415 42.779373 -200 45 -200 45 -200 45
5067891248.5414 -4.0362592 42.792225 -200 45 -200 45 -200 45
5068891365.2275 -4.0410361 42.776939 -200 45 -200 45 -200 45
5069891481.9137 -4.0413399 42.771797 -200 45 -200 45 -200 45
5070891598.5998 -4.0471077 42.780262 -200 45 -200 45 -200 45
5071891715.2859 -4.0523372 42.797688 -200 45 -200 45 -200 45
5072891831.972 -4.0584812 42.817894 -200 45 -200 45 -200 45
5073891948.6581 -4.0635409 42.815132 -200 45 -200 45 -200 45
5074892065.3442 -4.0659618 42.819321 -200 45 -200 45 -200 45
5075892182.0303 -4.0711222 42.831169 -200 45 -200 45 -200 45
5076892298.7165 -4.0735641 42.835472 -200 45 -200 45 -200 45
5077892415.4026 -4.0778599 42.845779 -200 45 -200 45 -200 45
5078892532.0887 -4.0785069 42.842197 -200 45 -200 45 -200 45
5079892648.7748 -4.0793681 42.850712 -200 45 -200 45 -200 45
5080892765.4609 -4.0828052 42.840179 -200 45 -200 45 -200 45
5081892882.147 -4.0860353 42.861248 -200 45 -200 45 -200 45
5082892998.8331 -4.0926342 42.879028 -200 45 -200 45 -200 45
5083893115.5193 -4.0967569 42.891186 -200 45 -200 45 -200 45
5084893232.2054 -4.0988379 42.893406 -200 45 -200 45 -200 45
5085893348.8915 -4.1025915 42.905781 -200 45 -200 45 -200 45
5086893465.5776 -4.1098437 42.937435 -200 45 -200 45 -200 45
5087893582.2637 -4.1175337 42.951843 -200 45 -200 45 -200 45
5088893698.9498 -4.125195 42.970089 -200 45 -200 45 -200 45
5089893815.6359 -4.129581 42.980862 -200 45 -200 45 -200 45
5090893932.3221 -4.1307478 43.021267 -200 45 -200 45 -200 45
5091894049.0082 -4.1366997 43.039848 -200 45 -200 45 -200 45
5092894165.6943 -4.1451373 43.060608 -200 45 -200 45 -200 45
5093894282.3804 -4.1487517 43.080467 -200 45 -200 45 -200 45
5094894399.0665 -4.1509933 43.106441 -200 45 -200 45 -200 45
5095894515.7526 -4.1519265 43.110203 -200 45 -200 45 -200 45
5096894632.4387 -4.1576724 43.144634 -200 45 -200 45 -200 45
5097894749.1249 -4.1638212 43.181046 -200 45 -200 45 -200 45
5098894865.811 -4.170197 43.240532 -200 45 -200 45 -200 45
5099894982.4971 -4.1738348 43.266041 -200 45 -200 45 -200 45
5100895099.1832 -4.1783381 43.297256 -200 45 -200 45 -200 45
5101895215.8693 -4.1814442 43.34169 -200 45 -200 45 -200 45
5102895332.5554 -4.1915998 43.410362 -200 45 -200 45 -200 45
5103895449.2415 -4.1996121 43.465134 -200 45 -200 45 -200 45
5104895565.9277 -4.2034497 43.541168 -200 45 -200 45 -200 45
5105895682.6138 -4.2081795 43.589676 -200 45 -200 45 -200 45
5106895799.2999 -4.2086754 43.661663 -200 45 -200 45 -200 45
5107895915.986 -4.2097087 43.743141 -200 45 -200 45 -200 45
5108896032.6721 -4.2132449 43.809891 -200 45 -200 45 -200 45
5109896149.3582 -4.2125978 43.864956 -200 45 -200 45 -200 45
5110896266.0443 -4.2107005 43.922428 -200 45 -200 45 -200 45
5111896382.7305 -4.2070355 43.982109 -200 45 -200 45 -200 45
5112896499.4166 -4.2059002 44.058743 -200 45 -200 45 -200 45
5113896616.1027 -4.2029324 44.137226 -200 45 -200 45 -200 45
5114896732.7888 -4.20087 44.217464 -200 45 -200 45 -200 45
5115896849.4749 -4.1966543 44.266289 -200 45 -200 45 -200 45
5116896966.161 -4.1888704 44.329899 -200 45 -200 45 -200 45
5117897082.8471 -4.1854372 44.387344 -200 45 -200 45 -200 45
5118897199.5333 -4.1808991 44.463505 -200 45 -200 45 -200 45
5119897316.2194 -4.1785483 44.527428 -200 45 -200 45 -200 45
5120897432.9055 -4.169971 44.561092 -200 45 -200 45 -200 45
5121897549.5916 -4.1647787 44.611183 -200 45 -200 45 -200 45
5122897666.2777 -4.1551256 44.645275 -200 45 -200 45 -200 45
5123897782.9638 -4.1479473 44.695099 -200 45 -200 45 -200 45
5124897899.6499 -4.1399012 44.714478 -200 45 -200 45 -200 45
5125898016.3361 -4.1329298 44.734226 -200 45 -200 45 -200 45
5126898133.0222 -4.1210003 44.745945 -200 45 -200 45 -200 45
5127898249.7083 -4.1084909 44.752956 -200 45 -200 45 -200 45
5128898366.3944 -4.1010318 44.773228 -200 45 -200 45 -200 45
5129898483.0805 -4.0964127 44.802948 -200 45 -200 45 -200 45
5130898599.7666 -4.0888371 44.789688 -200 45 -200 45 -200 45
5131898716.4527 -4.080761 44.794361 -200 45 -200 45 -200 45
5132898833.1389 -4.0731721 44.772598 -200 45 -200 45 -200 45
5133898949.825 -4.0681081 44.788132 -200 45 -200 45 -200 45
5134899066.5111 -4.0649481 44.782902 -200 45 -200 45 -200 45
5135899183.1972 -4.0623722 44.784912 -200 45 -200 45 -200 45
5136899299.8833 -4.0565186 44.764908 -200 45 -200 45 -200 45
5137899416.5694 -4.0516748 44.752583 -200 45 -200 45 -200 45
5138899533.2555 -4.0478988 44.750069 -200 45 -200 45 -200 45
5139899649.9417 -4.046628 44.744274 -200 45 -200 45 -200 45
5140899766.6278 -4.0413003 44.729748 -200 45 -200 45 -200 45
5141899883.3139 -4.0377307 44.707039 -200 45 -200 45 -200 45
5142900000 -4.0301671 44.673264 -200 45 -200 45 -200 45
5143900116.6861 -4.027679 44.676086 -200 45 -200 45 -200 45
5144900233.3722 -4.0243382 44.676918 -200 45 -200 45 -200 45
5145900350.0583 -4.0254736 44.681988 -200 45 -200 45 -200 45
5146900466.7445 -4.0226326 44.667202 -200 45 -200 45 -200 45
5147900583.4306 -4.0180678 44.65147 -200 45 -200 45 -200 45
5148900700.1167 -4.015779 44.641804 -200 45 -200 45 -200 45
5149900816.8028 -4.0169225 44.651627 -200 45 -200 45 -200 45
5150900933.4889 -4.0187826 44.653641 -200 45 -200 45 -200 45
5151901050.175 -4.0193572 44.6422 -200 45 -200 45 -200 45
5152901166.8611 -4.0170059 44.635155 -200 45 -200 45 -200 45
5153901283.5473 -4.0164609 44.644753 -200 45 -200 45 -200 45
5154901400.2334 -4.0155759 44.64077 -200 45 -200 45 -200 45
5155901516.9195 -4.0150404 44.634792 -200 45 -200 45 -200 45
5156901633.6056 -4.0127168 44.631298 -200 45 -200 45 -200 45
5157901750.2917 -4.009521 44.621712 -200 45 -200 45 -200 45
5158901866.9778 -4.0051131 44.600307 -200 45 -200 45 -200 45
5159901983.6639 -4.0059118 44.611938 -200 45 -200 45 -200 45
5160902100.3501 -4.001677 44.606159 -200 45 -200 45 -200 45
5161902217.0362 -4.0038266 44.613777 -200 45 -200 45 -200 45
5162902333.7223 -4.0004005 44.615105 -200 45 -200 45 -200 45
5163902450.4084 -4.0000935 44.616501 -200 45 -200 45 -200 45
5164902567.0945 -3.997442 44.617783 -200 45 -200 45 -200 45
5165902683.7806 -3.9954185 44.618225 -200 45 -200 45 -200 45
5166902800.4667 -3.9985042 44.618618 -200 45 -200 45 -200 45
5167902917.1529 -3.9973094 44.623665 -200 45 -200 45 -200 45
5168903033.839 -3.9984634 44.618099 -200 45 -200 45 -200 45
5169903150.5251 -3.9928339 44.617378 -200 45 -200 45 -200 45
5170903267.2112 -3.9938817 44.587269 -200 45 -200 45 -200 45
5171903383.8973 -3.9935842 44.5919 -200 45 -200 45 -200 45
5172903500.5834 -3.9902081 44.583748 -200 45 -200 45 -200 45
5173903617.2695 -3.9853292 44.551029 -200 45 -200 45 -200 45
5174903733.9557 -3.9805379 44.524467 -200 45 -200 45 -200 45
5175903850.6418 -3.9823229 44.52063 -200 45 -200 45 -200 45
5176903967.3279 -3.9821022 44.514118 -200 45 -200 45 -200 45
5177904084.014 -3.9840565 44.498398 -200 45 -200 45 -200 45
5178904200.7001 -3.9815488 44.487377 -200 45 -200 45 -200 45
5179904317.3862 -3.9808784 44.463875 -200 45 -200 45 -200 45
5180904434.0723 -3.980608 44.454082 -200 45 -200 45 -200 45
5181904550.7585 -3.9851983 44.449783 -200 45 -200 45 -200 45
5182904667.4446 -3.9876924 44.435207 -200 45 -200 45 -200 45
5183904784.1307 -3.9921887 44.42617 -200 45 -200 45 -200 45
5184904900.8168 -3.9926918 44.414913 -200 45 -200 45 -200 45
5185905017.5029 -3.9956067 44.402225 -200 45 -200 45 -200 45
5186905134.189 -3.996012 44.392097 -200 45 -200 45 -200 45
5187905250.8751 -3.9996915 44.37429 -200 45 -200 45 -200 45
5188905367.5613 -3.9998748 44.362309 -200 45 -200 45 -200 45
5189905484.2474 -4.0000887 44.332863 -200 45 -200 45 -200 45
5190905600.9335 -3.9990411 44.322174 -200 45 -200 45 -200 45
5191905717.6196 -4.0008497 44.312355 -200 45 -200 45 -200 45
5192905834.3057 -4.0077167 44.318645 -200 45 -200 45 -200 45
5193905950.9918 -4.0109491 44.311237 -200 45 -200 45 -200 45
5194906067.6779 -4.0135398 44.297543 -200 45 -200 45 -200 45
5195906184.3641 -4.0141649 44.306297 -200 45 -200 45 -200 45
5196906301.0502 -4.0195284 44.312592 -200 45 -200 45 -200 45
5197906417.7363 -4.0263786 44.307266 -200 45 -200 45 -200 45
5198906534.4224 -4.032671 44.329853 -200 45 -200 45 -200 45
5199906651.1085 -4.0359564 44.328682 -200 45 -200 45 -200 45
5200906767.7946 -4.0368438 44.34642 -200 45 -200 45 -200 45
5201906884.4807 -4.0388017 44.347523 -200 45 -200 45 -200 45
5202907001.1669 -4.0446186 44.351662 -200 45 -200 45 -200 45
5203907117.853 -4.0475211 44.36338 -200 45 -200 45 -200 45
5204907234.5391 -4.047718 44.367809 -200 45 -200 45 -200 45
5205907351.2252 -4.0449882 44.359928 -200 45 -200 45 -200 45
5206907467.9113 -4.0467453 44.364895 -200 45 -200 45 -200 45
5207907584.5974 -4.0508208 44.38184 -200 45 -200 45 -200 45
5208907701.2835 -4.0568528 44.403778 -200 45 -200 45 -200 45
5209907817.9697 -4.0573425 44.406178 -200 45 -200 45 -200 45
5210907934.6558 -4.0595074 44.412697 -200 45 -200 45 -200 45
5211908051.3419 -4.0593781 44.42762 -200 45 -200 45 -200 45
5212908168.028 -4.0658426 44.458256 -200 45 -200 45 -200 45
5213908284.7141 -4.0709677 44.487286 -200 45 -200 45 -200 45
5214908401.4002 -4.0738382 44.490318 -200 45 -200 45 -200 45
5215908518.0863 -4.0771484 44.500542 -200 45 -200 45 -200 45
5216908634.7725 -4.0795059 44.531979 -200 45 -200 45 -200 45
5217908751.4586 -4.0817852 44.548935 -200 45 -200 45 -200 45
5218908868.1447 -4.0832596 44.567478 -200 45 -200 45 -200 45
5219908984.8308 -4.0853114 44.56723 -200 45 -200 45 -200 45
5220909101.5169 -4.082912 44.585964 -200 45 -200 45 -200 45
5221909218.203 -4.0823531 44.591053 -200 45 -200 45 -200 45
5222909334.8891 -4.0819392 44.60091 -200 45 -200 45 -200 45
5223909451.5753 -4.085093 44.638725 -200 45 -200 45 -200 45
5224909568.2614 -4.0867763 44.666096 -200 45 -200 45 -200 45
5225909684.9475 -4.0868869 44.663506 -200 45 -200 45 -200 45
5226909801.6336 -4.0858998 44.683586 -200 45 -200 45 -200 45
5227909918.3197 -4.0877881 44.7043 -200 45 -200 45 -200 45
5228910035.0058 -4.0924664 44.725269 -200 45 -200 45 -200 45
5229910151.6919 -4.0962706 44.756866 -200 45 -200 45 -200 45
5230910268.3781 -4.0973058 44.770714 -200 45 -200 45 -200 45
5231910385.0642 -4.1000667 44.781803 -200 45 -200 45 -200 45
5232910501.7503 -4.094583 44.83606 -200 45 -200 45 -200 45
5233910618.4364 -4.0969372 44.831882 -200 45 -200 45 -200 45
5234910735.1225 -4.0968795 44.854137 -200 45 -200 45 -200 45
5235910851.8086 -4.0961456 44.847935 -200 45 -200 45 -200 45
5236910968.4947 -4.0932879 44.860325 -200 45 -200 45 -200 45
5237911085.1809 -4.0936246 44.859753 -200 45 -200 45 -200 45
5238911201.867 -4.0924292 44.882271 -200 45 -200 45 -200 45
5239911318.5531 -4.0944591 44.895329 -200 45 -200 45 -200 45
5240911435.2392 -4.0959868 44.915596 -200 45 -200 45 -200 45
5241911551.9253 -4.0928636 44.925423 -200 45 -200 45 -200 45
5242911668.6114 -4.0918736 44.93808 -200 45 -200 45 -200 45
5243911785.2976 -4.0948558 44.939915 -200 45 -200 45 -200 45
5244911901.9837 -4.0944571 44.964352 -200 45 -200 45 -200 45
5245912018.6698 -4.1002765 44.979431 -200 45 -200 45 -200 45
5246912135.3559 -4.1005063 44.996258 -200 45 -200 45 -200 45
5247912252.042 -4.1025295 45.012421 -200 45 -200 45 -200 45
5248912368.7281 -4.1003175 45.026375 -200 45 -200 45 -200 45
5249912485.4142 -4.1052699 45.045456 -200 45 -200 45 -200 45
5250912602.1004 -4.1048222 45.043888 -200 45 -200 45 -200 45
5251912718.7865 -4.1032119 45.049107 -200 45 -200 45 -200 45
5252912835.4726 -4.1010585 45.052986 -200 45 -200 45 -200 45
5253912952.1587 -4.0988865 45.063828 -200 45 -200 45 -200 45
5254913068.8448 -4.101059 45.087231 -200 45 -200 45 -200 45
5255913185.5309 -4.1032562 45.099377 -200 45 -200 45 -200 45
5256913302.217 -4.1041822 45.11375 -200 45 -200 45 -200 45
5257913418.9032 -4.1063833 45.122337 -200 45 -200 45 -200 45
5258913535.5893 -4.1048284 45.156776 -200 45 -200 45 -200 45
5259913652.2754 -4.1071548 45.187042 -200 45 -200 45 -200 45
5260913768.9615 -4.1090217 45.21217 -200 45 -200 45 -200 45
5261913885.6476 -4.1133609 45.25346 -200 45 -200 45 -200 45
5262914002.3337 -4.1127768 45.267429 -200 45 -200 45 -200 45
5263914119.0198 -4.1133003 45.302174 -200 45 -200 45 -200 45
5264914235.706 -4.1137905 45.30566 -200 45 -200 45 -200 45
5265914352.3921 -4.1137385 45.33839 -200 45 -200 45 -200 45
5266914469.0782 -4.1130471 45.366241 -200 45 -200 45 -200 45
5267914585.7643 -4.1100268 45.370224 -200 45 -200 45 -200 45
5268914702.4504 -4.1050014 45.378483 -200 45 -200 45 -200 45
5269914819.1365 -4.1000242 45.396076 -200 45 -200 45 -200 45
5270914935.8226 -4.1005917 45.419998 -200 45 -200 45 -200 45
5271915052.5088 -4.1017399 45.452473 -200 45 -200 45 -200 45
5272915169.1949 -4.1001148 45.477428 -200 45 -200 45 -200 45
5273915285.881 -4.0979576 45.481915 -200 45 -200 45 -200 45
5274915402.5671 -4.0961642 45.495174 -200 45 -200 45 -200 45
5275915519.2532 -4.0963454 45.510929 -200 45 -200 45 -200 45
5276915635.9393 -4.0956974 45.557209 -200 45 -200 45 -200 45
5277915752.6254 -4.0968981 45.55471 -200 45 -200 45 -200 45
5278915869.3116 -4.093874 45.566849 -200 45 -200 45 -200 45
5279915985.9977 -4.0933399 45.582462 -200 45 -200 45 -200 45
5280916102.6838 -4.0915656 45.602558 -200 45 -200 45 -200 45
5281916219.3699 -4.0905952 45.604107 -200 45 -200 45 -200 45
5282916336.056 -4.0869083 45.599789 -200 45 -200 45 -200 45
5283916452.7421 -4.083086 45.592941 -200 45 -200 45 -200 45
5284916569.4282 -4.0771899 45.604408 -200 45 -200 45 -200 45
5285916686.1144 -4.075325 45.605724 -200 45 -200 45 -200 45
5286916802.8005 -4.0759664 45.6012 -200 45 -200 45 -200 45
5287916919.4866 -4.0778055 45.616741 -200 45 -200 45 -200 45
5288917036.1727 -4.0758128 45.617401 -200 45 -200 45 -200 45
5289917152.8588 -4.0739889 45.604561 -200 45 -200 45 -200 45
5290917269.5449 -4.0716882 45.608936 -200 45 -200 45 -200 45
5291917386.231 -4.0725675 45.633522 -200 45 -200 45 -200 45
5292917502.9172 -4.07722 45.622608 -200 45 -200 45 -200 45
5293917619.6033 -4.0765314 45.626263 -200 45 -200 45 -200 45
5294917736.2894 -4.0762591 45.616573 -200 45 -200 45 -200 45
5295917852.9755 -4.0763512 45.625259 -200 45 -200 45 -200 45
5296917969.6616 -4.0778089 45.637676 -200 45 -200 45 -200 45
5297918086.3477 -4.0796881 45.633541 -200 45 -200 45 -200 45
5298918203.0338 -4.0780683 45.626434 -200 45 -200 45 -200 45
5299918319.72 -4.0760179 45.622383 -200 45 -200 45 -200 45
5300918436.4061 -4.0732698 45.611713 -200 45 -200 45 -200 45
5301918553.0922 -4.0753269 45.634094 -200 45 -200 45 -200 45
5302918669.7783 -4.0752554 45.634052 -200 45 -200 45 -200 45
5303918786.4644 -4.0754132 45.652699 -200 45 -200 45 -200 45
5304918903.1505 -4.077786 45.648369 -200 45 -200 45 -200 45
5305919019.8366 -4.0759091 45.651695 -200 45 -200 45 -200 45
5306919136.5228 -4.0801005 45.667442 -200 45 -200 45 -200 45
5307919253.2089 -4.0820751 45.673817 -200 45 -200 45 -200 45
5308919369.895 -4.0848842 45.691185 -200 45 -200 45 -200 45
5309919486.5811 -4.085876 45.700939 -200 45 -200 45 -200 45
5310919603.2672 -4.08641 45.710503 -200 45 -200 45 -200 45
5311919719.9533 -4.0857759 45.709694 -200 45 -200 45 -200 45
5312919836.6394 -4.0905924 45.722073 -200 45 -200 45 -200 45
5313919953.3256 -4.0905657 45.727798 -200 45 -200 45 -200 45
5314920070.0117 -4.0896068 45.717419 -200 45 -200 45 -200 45
5315920186.6978 -4.0855632 45.71907 -200 45 -200 45 -200 45
5316920303.3839 -4.0854087 45.724689 -200 45 -200 45 -200 45
5317920420.07 -4.0859504 45.743408 -200 45 -200 45 -200 45
5318920536.7561 -4.0866847 45.7644 -200 45 -200 45 -200 45
5319920653.4422 -4.0905066 45.770336 -200 45 -200 45 -200 45
5320920770.1284 -4.0901599 45.779278 -200 45 -200 45 -200 45
5321920886.8145 -4.0880642 45.789883 -200 45 -200 45 -200 45
5322921003.5006 -4.0923853 45.821842 -200 45 -200 45 -200 45
5323921120.1867 -4.0953684 45.841007 -200 45 -200 45 -200 45
5324921236.8728 -4.0970907 45.857136 -200 45 -200 45 -200 45
5325921353.5589 -4.0973754 45.859451 -200 45 -200 45 -200 45
5326921470.245 -4.0951266 45.879868 -200 45 -200 45 -200 45
5327921586.9312 -4.0976381 45.888481 -200 45 -200 45 -200 45
5328921703.6173 -4.0983019 45.911449 -200 45 -200 45 -200 45
5329921820.3034 -4.0940838 45.922909 -200 45 -200 45 -200 45
5330921936.9895 -4.0928097 45.910355 -200 45 -200 45 -200 45
5331922053.6756 -4.0873551 45.90654 -200 45 -200 45 -200 45
5332922170.3617 -4.0876498 45.910633 -200 45 -200 45 -200 45
5333922287.0478 -4.0874968 45.919651 -200 45 -200 45 -200 45
5334922403.734 -4.0876508 45.933834 -200 45 -200 45 -200 45
5335922520.4201 -4.0880833 45.933918 -200 45 -200 45 -200 45
5336922637.1062 -4.0862012 45.932594 -200 45 -200 45 -200 45
5337922753.7923 -4.0875297 45.943676 -200 45 -200 45 -200 45
5338922870.4784 -4.0881763 45.967525 -200 45 -200 45 -200 45
5339922987.1645 -4.0909467 45.967606 -200 45 -200 45 -200 45
5340923103.8506 -4.0940504 45.968552 -200 45 -200 45 -200 45
5341923220.5368 -4.0895491 45.97543 -200 45 -200 45 -200 45
5342923337.2229 -4.0896912 45.971348 -200 45 -200 45 -200 45
5343923453.909 -4.0919685 45.978168 -200 45 -200 45 -200 45
5344923570.5951 -4.0926852 45.990818 -200 45 -200 45 -200 45
5345923687.2812 -4.0905027 45.980362 -200 45 -200 45 -200 45
5346923803.9673 -4.0876179 45.978958 -200 45 -200 45 -200 45
5347923920.6534 -4.0844407 45.959377 -200 45 -200 45 -200 45
5348924037.3396 -4.0850692 45.951157 -200 45 -200 45 -200 45
5349924154.0257 -4.0860996 45.96838 -200 45 -200 45 -200 45
5350924270.7118 -4.0876932 45.977753 -200 45 -200 45 -200 45
5351924387.3979 -4.0878401 45.950157 -200 45 -200 45 -200 45
5352924504.084 -4.0898819 45.954838 -200 45 -200 45 -200 45
5353924620.7701 -4.0888581 45.961151 -200 45 -200 45 -200 45
5354924737.4562 -4.0954037 45.972435 -200 45 -200 45 -200 45
5355924854.1424 -4.1007123 45.968159 -200 45 -200 45 -200 45
5356924970.8285 -4.1027198 45.980412 -200 45 -200 45 -200 45
5357925087.5146 -4.1023922 45.975945 -200 45 -200 45 -200 45
5358925204.2007 -4.1032777 45.985889 -200 45 -200 45 -200 45
5359925320.8868 -4.106205 46.009464 -200 45 -200 45 -200 45
5360925437.5729 -4.1074848 46.012249 -200 45 -200 45 -200 45
5361925554.259 -4.1063027 45.992329 -200 45 -200 45 -200 45
5362925670.9452 -4.1049533 45.985115 -200 45 -200 45 -200 45
5363925787.6313 -4.1040111 45.992912 -200 45 -200 45 -200 45
5364925904.3174 -4.105226 46.006317 -200 45 -200 45 -200 45
5365926021.0035 -4.1084552 46.012192 -200 45 -200 45 -200 45
5366926137.6896 -4.1104574 46.026245 -200 45 -200 45 -200 45
5367926254.3757 -4.1106567 46.031132 -200 45 -200 45 -200 45
5368926371.0618 -4.1129179 46.04007 -200 45 -200 45 -200 45
5369926487.748 -4.1146784 46.059116 -200 45 -200 45 -200 45
5370926604.4341 -4.1190829 46.080734 -200 45 -200 45 -200 45
5371926721.1202 -4.1197896 46.066292 -200 45 -200 45 -200 45
5372926837.8063 -4.1229811 46.105762 -200 45 -200 45 -200 45
5373926954.4924 -4.1219177 46.098671 -200 45 -200 45 -200 45
5374927071.1785 -4.1221428 46.11795 -200 45 -200 45 -200 45
5375927187.8646 -4.1271615 46.120056 -200 45 -200 45 -200 45
5376927304.5508 -4.1270814 46.135704 -200 45 -200 45 -200 45
5377927421.2369 -4.1238976 46.144928 -200 45 -200 45 -200 45
5378927537.923 -4.1231794 46.122383 -200 45 -200 45 -200 45
5379927654.6091 -4.1241994 46.149677 -200 45 -200 45 -200 45
5380927771.2952 -4.125545 46.15572 -200 45 -200 45 -200 45
5381927887.9813 -4.130096 46.170277 -200 45 -200 45 -200 45
5382928004.6674 -4.1283712 46.174507 -200 45 -200 45 -200 45
5383928121.3536 -4.1280856 46.186253 -200 45 -200 45 -200 45
5384928238.0397 -4.1300273 46.20179 -200 45 -200 45 -200 45
5385928354.7258 -4.1350117 46.228981 -200 45 -200 45 -200 45
5386928471.4119 -4.1368885 46.243824 -200 45 -200 45 -200 45
5387928588.098 -4.1410608 46.260166 -200 45 -200 45 -200 45
5388928704.7841 -4.1421824 46.265678 -200 45 -200 45 -200 45
5389928821.4702 -4.1387463 46.268993 -200 45 -200 45 -200 45
5390928938.1564 -4.1423254 46.308773 -200 45 -200 45 -200 45
5391929054.8425 -4.1435413 46.309658 -200 45 -200 45 -200 45
5392929171.5286 -4.1448784 46.313572 -200 45 -200 45 -200 45
5393929288.2147 -4.1419511 46.320126 -200 45 -200 45 -200 45
5394929404.9008 -4.1390214 46.317837 -200 45 -200 45 -200 45
5395929521.5869 -4.1391759 46.333004 -200 45 -200 45 -200 45
5396929638.273 -4.1429529 46.35025 -200 45 -200 45 -200 45
5397929754.9592 -4.144927 46.384678 -200 45 -200 45 -200 45
5398929871.6453 -4.1445503 46.377625 -200 45 -200 45 -200 45
5399929988.3314 -4.1426301 46.390602 -200 45 -200 45 -200 45
5400930105.0175 -4.1448584 46.41341 -200 45 -200 45 -200 45
5401930221.7036 -4.150403 46.436684 -200 45 -200 45 -200 45
5402930338.3897 -4.1549292 46.454605 -200 45 -200 45 -200 45
5403930455.0758 -4.1526947 46.458508 -200 45 -200 45 -200 45
5404930571.762 -4.1546483 46.481369 -200 45 -200 45 -200 45
5405930688.4481 -4.1546445 46.494781 -200 45 -200 45 -200 45
5406930805.1342 -4.1585693 46.515732 -200 45 -200 45 -200 45
5407930921.8203 -4.1599236 46.524761 -200 45 -200 45 -200 45
5408931038.5064 -4.1564398 46.526199 -200 45 -200 45 -200 45
5409931155.1925 -4.1531634 46.523155 -200 45 -200 45 -200 45
5410931271.8786 -4.15412 46.546886 -200 45 -200 45 -200 45
5411931388.5648 -4.1550951 46.543468 -200 45 -200 45 -200 45
5412931505.2509 -4.1563568 46.578884 -200 45 -200 45 -200 45
5413931621.937 -4.1570311 46.584396 -200 45 -200 45 -200 45
5414931738.6231 -4.1564021 46.593613 -200 45 -200 45 -200 45
5415931855.3092 -4.1579123 46.602776 -200 45 -200 45 -200 45
5416931971.9953 -4.1595707 46.617146 -200 45 -200 45 -200 45
5417932088.6814 -4.1632586 46.642387 -200 45 -200 45 -200 45
5418932205.3676 -4.1674314 46.672134 -200 45 -200 45 -200 45
5419932322.0537 -4.1668429 46.671127 -200 45 -200 45 -200 45
5420932438.7398 -4.1683455 46.694111 -200 45 -200 45 -200 45
5421932555.4259 -4.170526 46.712963 -200 45 -200 45 -200 45
5422932672.112 -4.1725249 46.722271 -200 45 -200 45 -200 45
5423932788.7981 -4.1721931 46.733273 -200 45 -200 45 -200 45
5424932905.4842 -4.1721592 46.740746 -200 45 -200 45 -200 45
5425933022.1704 -4.169302 46.743557 -200 45 -200 45 -200 45
5426933138.8565 -4.1680541 46.757603 -200 45 -200 45 -200 45
5427933255.5426 -4.1681032 46.772507 -200 45 -200 45 -200 45
5428933372.2287 -4.1718259 46.810101 -200 45 -200 45 -200 45
5429933488.9148 -4.1732292 46.828518 -200 45 -200 45 -200 45
5430933605.6009 -4.1720943 46.833408 -200 45 -200 45 -200 45
5431933722.287 -4.1711454 46.845978 -200 45 -200 45 -200 45
5432933838.9732 -4.172647 46.882526 -200 45 -200 45 -200 45
5433933955.6593 -4.1775975 46.912876 -200 45 -200 45 -200 45
5434934072.3454 -4.1798244 46.92754 -200 45 -200 45 -200 45
5435934189.0315 -4.1782317 46.946075 -200 45 -200 45 -200 45
5436934305.7176 -4.1797681 46.969185 -200 45 -200 45 -200 45
5437934422.4037 -4.1801214 46.989025 -200 45 -200 45 -200 45
5438934539.0898 -4.17804 47.012867 -200 45 -200 45 -200 45
5439934655.776 -4.1775298 47.013279 -200 45 -200 45 -200 45
5440934772.4621 -4.1733985 47.026424 -200 45 -200 45 -200 45
5441934889.1482 -4.169414 47.011261 -200 45 -200 45 -200 45
5442935005.8343 -4.1715884 47.045238 -200 45 -200 45 -200 45
5443935122.5204 -4.1712012 47.063431 -200 45 -200 45 -200 45
5444935239.2065 -4.1718488 47.071991 -200 45 -200 45 -200 45
5445935355.8926 -4.1699572 47.076908 -200 45 -200 45 -200 45
5446935472.5788 -4.1694999 47.092842 -200 45 -200 45 -200 45
5447935589.2649 -4.1680999 47.092384 -200 45 -200 45 -200 45
5448935705.951 -4.1722279 47.111595 -200 45 -200 45 -200 45
5449935822.6371 -4.1733322 47.133038 -200 45 -200 45 -200 45
5450935939.3232 -4.1744275 47.149334 -200 45 -200 45 -200 45
5451936056.0093 -4.1754894 47.151848 -200 45 -200 45 -200 45
5452936172.6954 -4.1735187 47.15123 -200 45 -200 45 -200 45
5453936289.3816 -4.1743441 47.174015 -200 45 -200 45 -200 45
5454936406.0677 -4.1746078 47.180336 -200 45 -200 45 -200 45
5455936522.7538 -4.1735449 47.171497 -200 45 -200 45 -200 45
5456936639.4399 -4.1685739 47.173199 -200 45 -200 45 -200 45
5457936756.126 -4.166995 47.172565 -200 45 -200 45 -200 45
5458936872.8121 -4.167522 47.18618 -200 45 -200 45 -200 45
5459936989.4983 -4.1683016 47.208656 -200 45 -200 45 -200 45
5460937106.1844 -4.1684875 47.214996 -200 45 -200 45 -200 45
5461937222.8705 -4.1682625 47.191658 -200 45 -200 45 -200 45
5462937339.5566 -4.1664667 47.219505 -200 45 -200 45 -200 45
5463937456.2427 -4.169589 47.220257 -200 45 -200 45 -200 45
5464937572.9288 -4.1718779 47.238186 -200 45 -200 45 -200 45
5465937689.6149 -4.1735501 47.251797 -200 45 -200 45 -200 45
5466937806.3011 -4.1762543 47.263783 -200 45 -200 45 -200 45
5467937922.9872 -4.1773791 47.266277 -200 45 -200 45 -200 45
5468938039.6733 -4.173902 47.273525 -200 45 -200 45 -200 45
5469938156.3594 -4.1754136 47.277336 -200 45 -200 45 -200 45
5470938273.0455 -4.1750569 47.302189 -200 45 -200 45 -200 45
5471938389.7316 -4.1765766 47.283787 -200 45 -200 45 -200 45
5472938506.4177 -4.1730571 47.27684 -200 45 -200 45 -200 45
5473938623.1039 -4.1712594 47.283974 -200 45 -200 45 -200 45
5474938739.79 -4.1717849 47.301979 -200 45 -200 45 -200 45
5475938856.4761 -4.1731915 47.303944 -200 45 -200 45 -200 45
5476938973.1622 -4.1733732 47.315971 -200 45 -200 45 -200 45
5477939089.8483 -4.1728058 47.311966 -200 45 -200 45 -200 45
5478939206.5344 -4.1737838 47.323418 -200 45 -200 45 -200 45
5479939323.2205 -4.1763482 47.335121 -200 45 -200 45 -200 45
5480939439.9067 -4.1795783 47.350224 -200 45 -200 45 -200 45
5481939556.5928 -4.18293 47.349018 -200 45 -200 45 -200 45
5482939673.2789 -4.183115 47.366169 -200 45 -200 45 -200 45
5483939789.965 -4.1830506 47.381058 -200 45 -200 45 -200 45
5484939906.6511 -4.1845083 47.394833 -200 45 -200 45 -200 45
5485940023.3372 -4.1845345 47.413826 -200 45 -200 45 -200 45
5486940140.0233 -4.1849618 47.398335 -200 45 -200 45 -200 45
5487940256.7095 -4.1830716 47.407066 -200 45 -200 45 -200 45
5488940373.3956 -4.1805539 47.395378 -200 45 -200 45 -200 45
5489940490.0817 -4.1793017 47.409203 -200 45 -200 45 -200 45
5490940606.7678 -4.1805587 47.417229 -200 45 -200 45 -200 45
5491940723.4539 -4.1829257 47.449974 -200 45 -200 45 -200 45
5492940840.14 -4.1823936 47.445057 -200 45 -200 45 -200 45
5493940956.8261 -4.1833153 47.445473 -200 45 -200 45 -200 45
5494941073.5123 -4.1833444 47.454021 -200 45 -200 45 -200 45
5495941190.1984 -4.1849613 47.471283 -200 45 -200 45 -200 45
5496941306.8845 -4.1897979 47.491676 -200 45 -200 45 -200 45
5497941423.5706 -4.1923394 47.503746 -200 45 -200 45 -200 45
5498941540.2567 -4.1938543 47.508698 -200 45 -200 45 -200 45
5499941656.9428 -4.1927948 47.520996 -200 45 -200 45 -200 45
5500941773.6289 -4.1950831 47.539768 -200 45 -200 45 -200 45
5501941890.3151 -4.196074 47.557926 -200 45 -200 45 -200 45
5502942007.0012 -4.1949596 47.564617 -200 45 -200 45 -200 45
5503942123.6873 -4.1939301 47.55558 -200 45 -200 45 -200 45
5504942240.3734 -4.1916962 47.553238 -200 45 -200 45 -200 45
5505942357.0595 -4.1926594 47.567329 -200 45 -200 45 -200 45
5506942473.7456 -4.1938014 47.581379 -200 45 -200 45 -200 45
5507942590.4317 -4.1975846 47.604824 -200 45 -200 45 -200 45
5508942707.1179 -4.1951756 47.614212 -200 45 -200 45 -200 45
5509942823.804 -4.1948261 47.612335 -200 45 -200 45 -200 45
5510942940.4901 -4.1951222 47.636436 -200 45 -200 45 -200 45
5511943057.1762 -4.1976995 47.666157 -200 45 -200 45 -200 45
5512943173.8623 -4.2024794 47.674702 -200 45 -200 45 -200 45
5513943290.5484 -4.203156 47.679302 -200 45 -200 45 -200 45
5514943407.2345 -4.2058563 47.695286 -200 45 -200 45 -200 45
5515943523.9207 -4.2053847 47.704014 -200 45 -200 45 -200 45
5516943640.6068 -4.2066541 47.732376 -200 45 -200 45 -200 45
5517943757.2929 -4.2065139 47.747089 -200 45 -200 45 -200 45
5518943873.979 -4.2061496 47.760078 -200 45 -200 45 -200 45
5519943990.6651 -4.2041564 47.741844 -200 45 -200 45 -200 45
5520944107.3512 -4.2030053 47.745808 -200 45 -200 45 -200 45
5521944224.0373 -4.20399 47.765186 -200 45 -200 45 -200 45
5522944340.7235 -4.2052984 47.775463 -200 45 -200 45 -200 45
5523944457.4096 -4.2068567 47.807308 -200 45 -200 45 -200 45
5524944574.0957 -4.2052178 47.813339 -200 45 -200 45 -200 45
5525944690.7818 -4.2085724 47.813282 -200 45 -200 45 -200 45
5526944807.4679 -4.2087197 47.834438 -200 45 -200 45 -200 45
5527944924.154 -4.210947 47.860924 -200 45 -200 45 -200 45
5528945040.8401 -4.2129011 47.881683 -200 45 -200 45 -200 45
5529945157.5263 -4.2155094 47.882103 -200 45 -200 45 -200 45
5530945274.2124 -4.2174563 47.917774 -200 45 -200 45 -200 45
5531945390.8985 -4.2157001 47.922344 -200 45 -200 45 -200 45
5532945507.5846 -4.2192183 47.93922 -200 45 -200 45 -200 45
5533945624.2707 -4.2185287 47.950432 -200 45 -200 45 -200 45
5534945740.9568 -4.2164698 47.947578 -200 45 -200 45 -200 45
5535945857.6429 -4.2146964 47.959465 -200 45 -200 45 -200 45
5536945974.3291 -4.2119431 47.961079 -200 45 -200 45 -200 45
5537946091.0152 -4.2146769 47.975098 -200 45 -200 45 -200 45
5538946207.7013 -4.2157207 47.994453 -200 45 -200 45 -200 45
5539946324.3874 -4.2173028 48.000149 -200 45 -200 45 -200 45
5540946441.0735 -4.2156696 48.014481 -200 45 -200 45 -200 45
5541946557.7596 -4.2167315 48.031651 -200 45 -200 45 -200 45
5542946674.4457 -4.2187424 48.03627 -200 45 -200 45 -200 45
5543946791.1319 -4.2208223 48.071507 -200 45 -200 45 -200 45
5544946907.818 -4.2240753 48.077801 -200 45 -200 45 -200 45
5545947024.5041 -4.2264318 48.089279 -200 45 -200 45 -200 45
5546947141.1902 -4.225348 48.101425 -200 45 -200 45 -200 45
5547947257.8763 -4.2257843 48.118908 -200 45 -200 45 -200 45
5548947374.5624 -4.225359 48.131081 -200 45 -200 45 -200 45
5549947491.2485 -4.2276435 48.139557 -200 45 -200 45 -200 45
5550947607.9347 -4.2264781 48.138233 -200 45 -200 45 -200 45
5551947724.6208 -4.2236109 48.136696 -200 45 -200 45 -200 45
5552947841.3069 -4.2224965 48.137501 -200 45 -200 45 -200 45
5553947957.993 -4.2235584 48.172218 -200 45 -200 45 -200 45
5554948074.6791 -4.2276039 48.181938 -200 45 -200 45 -200 45
5555948191.3652 -4.2260652 48.193703 -200 45 -200 45 -200 45
5556948308.0513 -4.2279997 48.195103 -200 45 -200 45 -200 45
5557948424.7375 -4.2267809 48.215611 -200 45 -200 45 -200 45
5558948541.4236 -4.2302656 48.228817 -200 45 -200 45 -200 45
5559948658.1097 -4.2334242 48.253086 -200 45 -200 45 -200 45
5560948774.7958 -4.2346983 48.262791 -200 45 -200 45 -200 45
5561948891.4819 -4.2368007 48.274536 -200 45 -200 45 -200 45
5562949008.168 -4.2360721 48.288437 -200 45 -200 45 -200 45
5563949124.8541 -4.2386742 48.306953 -200 45 -200 45 -200 45
5564949241.5403 -4.2394443 48.301395 -200 45 -200 45 -200 45
5565949358.2264 -4.2390695 48.326729 -200 45 -200 45 -200 45
5566949474.9125 -4.2361517 48.311974 -200 45 -200 45 -200 45
5567949591.5986 -4.2358494 48.313156 -200 45 -200 45 -200 45
5568949708.2847 -4.2344699 48.338657 -200 45 -200 45 -200 45
5569949824.9708 -4.2373233 48.353062 -200 45 -200 45 -200 45
5570949941.6569 -4.2392206 48.375023 -200 45 -200 45 -200 45
5571950058.3431 -4.2391219 48.360752 -200 45 -200 45 -200 45
5572950175.0292 -4.2382588 48.379719 -200 45 -200 45 -200 45
5573950291.7153 -4.2399836 48.399597 -200 45 -200 45 -200 45
5574950408.4014 -4.2444425 48.412865 -200 45 -200 45 -200 45
5575950525.0875 -4.2470036 48.429482 -200 45 -200 45 -200 45
5576950641.7736 -4.2470965 48.443672 -200 45 -200 45 -200 45
5577950758.4597 -4.2469282 48.454258 -200 45 -200 45 -200 45
5578950875.1459 -4.246079 48.470718 -200 45 -200 45 -200 45
5579950991.832 -4.2508907 48.479778 -200 45 -200 45 -200 45
5580951108.5181 -4.2496209 48.492786 -200 45 -200 45 -200 45
5581951225.2042 -4.2487745 48.489471 -200 45 -200 45 -200 45
5582951341.8903 -4.2464471 48.491283 -200 45 -200 45 -200 45
5583951458.5764 -4.2428632 48.500195 -200 45 -200 45 -200 45
5584951575.2625 -4.2479253 48.502453 -200 45 -200 45 -200 45
5585951691.9487 -4.2500348 48.53595 -200 45 -200 45 -200 45
5586951808.6348 -4.2493687 48.533745 -200 45 -200 45 -200 45
5587951925.3209 -4.2478623 48.545647 -200 45 -200 45 -200 45
5588952042.007 -4.24718 48.556545 -200 45 -200 45 -200 45
5589952158.6931 -4.2508583 48.564907 -200 45 -200 45 -200 45
5590952275.3792 -4.2527604 48.5923 -200 45 -200 45 -200 45
5591952392.0653 -4.2566366 48.601307 -200 45 -200 45 -200 45
5592952508.7515 -4.2594495 48.604523 -200 45 -200 45 -200 45
5593952625.4376 -4.2578502 48.629436 -200 45 -200 45 -200 45
5594952742.1237 -4.2584472 48.633053 -200 45 -200 45 -200 45
5595952858.8098 -4.2605987 48.643715 -200 45 -200 45 -200 45
5596952975.4959 -4.260437 48.66721 -200 45 -200 45 -200 45
5597953092.182 -4.2574301 48.657665 -200 45 -200 45 -200 45
5598953208.8681 -4.2558808 48.648537 -200 45 -200 45 -200 45
5599953325.5543 -4.2549553 48.663895 -200 45 -200 45 -200 45
5600953442.2404 -4.2552466 48.67907 -200 45 -200 45 -200 45
5601953558.9265 -4.2575135 48.700634 -200 45 -200 45 -200 45
5602953675.6126 -4.2578497 48.700966 -200 45 -200 45 -200 45
5603953792.2987 -4.2571993 48.713741 -200 45 -200 45 -200 45
5604953908.9848 -4.2586679 48.724827 -200 45 -200 45 -200 45
5605954025.6709 -4.2594366 48.734425 -200 45 -200 45 -200 45
5606954142.3571 -4.2628255 48.764679 -200 45 -200 45 -200 45
5607954259.0432 -4.2670002 48.773693 -200 45 -200 45 -200 45
5608954375.7293 -4.268106 48.786888 -200 45 -200 45 -200 45
5609954492.4154 -4.2639518 48.796112 -200 45 -200 45 -200 45
5610954609.1015 -4.2668147 48.814453 -200 45 -200 45 -200 45
5611954725.7876 -4.2690239 48.829277 -200 45 -200 45 -200 45
5612954842.4737 -4.2691612 48.835732 -200 45 -200 45 -200 45
5613954959.1599 -4.2644215 48.842163 -200 45 -200 45 -200 45
5614955075.846 -4.2649536 48.828568 -200 45 -200 45 -200 45
5615955192.5321 -4.2638021 48.85236 -200 45 -200 45 -200 45
5616955309.2182 -4.2642355 48.871857 -200 45 -200 45 -200 45
5617955425.9043 -4.2684741 48.878811 -200 45 -200 45 -200 45
5618955542.5904 -4.2666512 48.889763 -200 45 -200 45 -200 45
5619955659.2765 -4.2649221 48.897224 -200 45 -200 45 -200 45
5620955775.9627 -4.2684126 48.922371 -200 45 -200 45 -200 45
5621955892.6488 -4.2702374 48.94735 -200 45 -200 45 -200 45
5622956009.3349 -4.2752485 48.95509 -200 45 -200 45 -200 45
5623956126.021 -4.2773318 48.966339 -200 45 -200 45 -200 45
5624956242.7071 -4.2767277 48.979389 -200 45 -200 45 -200 45
5625956359.3932 -4.2760239 48.991837 -200 45 -200 45 -200 45
5626956476.0793 -4.2771301 49.021896 -200 45 -200 45 -200 45
5627956592.7655 -4.2785606 49.031937 -200 45 -200 45 -200 45
5628956709.4516 -4.2784557 49.026466 -200 45 -200 45 -200 45
5629956826.1377 -4.2751703 49.037796 -200 45 -200 45 -200 45
5630956942.8238 -4.2752466 49.040131 -200 45 -200 45 -200 45
5631957059.5099 -4.274579 49.065445 -200 45 -200 45 -200 45
5632957176.196 -4.2756367 49.088085 -200 45 -200 45 -200 45
5633957292.8821 -4.2789874 49.092716 -200 45 -200 45 -200 45
5634957409.5683 -4.2784982 49.100838 -200 45 -200 45 -200 45
5635957526.2544 -4.2808852 49.112225 -200 45 -200 45 -200 45
5636957642.9405 -4.2842088 49.134388 -200 45 -200 45 -200 45
5637957759.6266 -4.2845902 49.152283 -200 45 -200 45 -200 45
5638957876.3127 -4.2865009 49.163345 -200 45 -200 45 -200 45
5639957992.9988 -4.2909393 49.193253 -200 45 -200 45 -200 45
5640958109.6849 -4.2920566 49.199696 -200 45 -200 45 -200 45
5641958226.3711 -4.2930164 49.226299 -200 45 -200 45 -200 45
5642958343.0572 -4.2940192 49.23555 -200 45 -200 45 -200 45
5643958459.7433 -4.2959509 49.250652 -200 45 -200 45 -200 45
5644958576.4294 -4.2946692 49.26482 -200 45 -200 45 -200 45
5645958693.1155 -4.2912555 49.268299 -200 45 -200 45 -200 45
5646958809.8016 -4.2930841 49.296631 -200 45 -200 45 -200 45
5647958926.4877 -4.2915483 49.302925 -200 45 -200 45 -200 45
5648959043.1739 -4.2969999 49.330654 -200 45 -200 45 -200 45
5649959159.86 -4.2961526 49.335045 -200 45 -200 45 -200 45
5650959276.5461 -4.2975912 49.359692 -200 45 -200 45 -200 45
5651959393.2322 -4.2988143 49.366184 -200 45 -200 45 -200 45
5652959509.9183 -4.3021908 49.394604 -200 45 -200 45 -200 45
5653959626.6044 -4.3053141 49.435925 -200 45 -200 45 -200 45
5654959743.2905 -4.3086009 49.448467 -200 45 -200 45 -200 45
5655959859.9767 -4.3103838 49.472626 -200 45 -200 45 -200 45
5656959976.6628 -4.3096013 49.50087 -200 45 -200 45 -200 45
5657960093.3489 -4.311059 49.536114 -200 45 -200 45 -200 45
5658960210.035 -4.3118396 49.558125 -200 45 -200 45 -200 45
5659960326.7211 -4.3114285 49.582111 -200 45 -200 45 -200 45
5660960443.4072 -4.3091736 49.600765 -200 45 -200 45 -200 45
5661960560.0933 -4.3061786 49.610577 -200 45 -200 45 -200 45
5662960676.7795 -4.3074074 49.62096 -200 45 -200 45 -200 45
5663960793.4656 -4.303299 49.651268 -200 45 -200 45 -200 45
5664960910.1517 -4.3059034 49.687103 -200 45 -200 45 -200 45
5665961026.8378 -4.3039279 49.704681 -200 45 -200 45 -200 45
5666961143.5239 -4.3021455 49.712814 -200 45 -200 45 -200 45
5667961260.21 -4.3021812 49.734695 -200 45 -200 45 -200 45
5668961376.8961 -4.3037448 49.773521 -200 45 -200 45 -200 45
5669961493.5823 -4.3041382 49.796345 -200 45 -200 45 -200 45
5670961610.2684 -4.3045235 49.800308 -200 45 -200 45 -200 45
5671961726.9545 -4.30445 49.823402 -200 45 -200 45 -200 45
5672961843.6406 -4.3007774 49.826809 -200 45 -200 45 -200 45
5673961960.3267 -4.3022776 49.85157 -200 45 -200 45 -200 45
5674962077.0128 -4.3017287 49.880573 -200 45 -200 45 -200 45
5675962193.6989 -4.2983856 49.880627 -200 45 -200 45 -200 45
5676962310.3851 -4.2964697 49.876301 -200 45 -200 45 -200 45
5677962427.0712 -4.2910514 49.872204 -200 45 -200 45 -200 45
5678962543.7573 -4.2920289 49.878532 -200 45 -200 45 -200 45
5679962660.4434 -4.2915926 49.913067 -200 45 -200 45 -200 45
5680962777.1295 -4.2920694 49.916706 -200 45 -200 45 -200 45
5681962893.8156 -4.2912507 49.914803 -200 45 -200 45 -200 45
5682963010.5018 -4.2908983 49.921818 -200 45 -200 45 -200 45
5683963127.1879 -4.2914882 49.935207 -200 45 -200 45 -200 45
5684963243.874 -4.2942352 49.954693 -200 45 -200 45 -200 45
5685963360.5601 -4.2972579 49.964874 -200 45 -200 45 -200 45
5686963477.2462 -4.296608 49.982693 -200 45 -200 45 -200 45
5687963593.9323 -4.296711 49.987194 -200 45 -200 45 -200 45
5688963710.6184 -4.2959704 49.991108 -200 45 -200 45 -200 45
5689963827.3046 -4.2973022 50.013252 -200 45 -200 45 -200 45
5690963943.9907 -4.2988129 50.008598 -200 45 -200 45 -200 45
5691964060.6768 -4.2991924 50.017303 -200 45 -200 45 -200 45
5692964177.3629 -4.2926111 50.020725 -200 45 -200 45 -200 45
5693964294.049 -4.2909636 50.018417 -200 45 -200 45 -200 45
5694964410.7351 -4.2899446 50.043293 -200 45 -200 45 -200 45
5695964527.4212 -4.2905073 50.061871 -200 45 -200 45 -200 45
5696964644.1074 -4.2919874 50.080357 -200 45 -200 45 -200 45
5697964760.7935 -4.2889028 50.076283 -200 45 -200 45 -200 45
5698964877.4796 -4.2870202 50.087296 -200 45 -200 45 -200 45
5699964994.1657 -4.2918115 50.102383 -200 45 -200 45 -200 45
5700965110.8518 -4.2947431 50.121429 -200 45 -200 45 -200 45
5701965227.5379 -4.294013 50.144234 -200 45 -200 45 -200 45
5702965344.224 -4.2939024 50.141411 -200 45 -200 45 -200 45
5703965460.9102 -4.2918849 50.161213 -200 45 -200 45 -200 45
5704965577.5963 -4.2920022 50.180408 -200 45 -200 45 -200 45
5705965694.2824 -4.2919345 50.191811 -200 45 -200 45 -200 45
5706965810.9685 -4.2915173 50.196648 -200 45 -200 45 -200 45
5707965927.6546 -4.2916188 50.194176 -200 45 -200 45 -200 45
5708966044.3407 -4.286427 50.190273 -200 45 -200 45 -200 45
5709966161.0268 -4.2850614 50.20068 -200 45 -200 45 -200 45
5710966277.713 -4.2859726 50.201824 -200 45 -200 45 -200 45
5711966394.3991 -4.2850556 50.201366 -200 45 -200 45 -200 45
5712966511.0852 -4.285398 50.220402 -200 45 -200 45 -200 45
5713966627.7713 -4.2844281 50.215549 -200 45 -200 45 -200 45
5714966744.4574 -4.284337 50.23682 -200 45 -200 45 -200 45
5715966861.1435 -4.2844481 50.238384 -200 45 -200 45 -200 45
5716966977.8296 -4.2884154 50.256588 -200 45 -200 45 -200 45
5717967094.5158 -4.2896862 50.270058 -200 45 -200 45 -200 45
5718967211.2019 -4.2903585 50.266823 -200 45 -200 45 -200 45
5719967327.888 -4.2889376 50.272449 -200 45 -200 45 -200 45
5720967444.5741 -4.2884378 50.278332 -200 45 -200 45 -200 45
5721967561.2602 -4.2906895 50.287247 -200 45 -200 45 -200 45
5722967677.9463 -4.2906966 50.300426 -200 45 -200 45 -200 45
5723967794.6324 -4.2868505 50.282963 -200 45 -200 45 -200 45
5724967911.3186 -4.2854166 50.279842 -200 45 -200 45 -200 45
5725968028.0047 -4.2834854 50.297543 -200 45 -200 45 -200 45
5726968144.6908 -4.2849946 50.306828 -200 45 -200 45 -200 45
5727968261.3769 -4.2881203 50.312931 -200 45 -200 45 -200 45
5728968378.063 -4.2866712 50.307598 -200 45 -200 45 -200 45
5729968494.7491 -4.2857585 50.318764 -200 45 -200 45 -200 45
5730968611.4352 -4.2891746 50.342449 -200 45 -200 45 -200 45
5731968728.1214 -4.2897401 50.343048 -200 45 -200 45 -200 45
5732968844.8075 -4.2941713 50.374607 -200 45 -200 45 -200 45
5733968961.4936 -4.2945304 50.373764 -200 45 -200 45 -200 45
5734969078.1797 -4.2947321 50.366634 -200 45 -200 45 -200 45
5735969194.8658 -4.2935214 50.383598 -200 45 -200 45 -200 45
5736969311.5519 -4.2954984 50.399742 -200 45 -200 45 -200 45
5737969428.238 -4.2986631 50.400173 -200 45 -200 45 -200 45
5738969544.9242 -4.2963114 50.404095 -200 45 -200 45 -200 45
5739969661.6103 -4.2933774 50.406216 -200 45 -200 45 -200 45
5740969778.2964 -4.2929406 50.410473 -200 45 -200 45 -200 45
5741969894.9825 -4.2936058 50.429352 -200 45 -200 45 -200 45
5742970011.6686 -4.2949052 50.437527 -200 45 -200 45 -200 45
5743970128.3547 -4.2968206 50.448353 -200 45 -200 45 -200 45
5744970245.0408 -4.2976174 50.454891 -200 45 -200 45 -200 45
5745970361.727 -4.2951183 50.470539 -200 45 -200 45 -200 45
5746970478.4131 -4.2965798 50.468739 -200 45 -200 45 -200 45
5747970595.0992 -4.3015423 50.49464 -200 45 -200 45 -200 45
5748970711.7853 -4.3037734 50.518555 -200 45 -200 45 -200 45
5749970828.4714 -4.3066278 50.522842 -200 45 -200 45 -200 45
5750970945.1575 -4.3043094 50.534664 -200 45 -200 45 -200 45
5751971061.8436 -4.306612 50.561928 -200 45 -200 45 -200 45
5752971178.5298 -4.3097706 50.567387 -200 45 -200 45 -200 45
5753971295.2159 -4.3090043 50.575634 -200 45 -200 45 -200 45
5754971411.902 -4.306715 50.581787 -200 45 -200 45 -200 45
5755971528.5881 -4.3044987 50.574375 -200 45 -200 45 -200 45
5756971645.2742 -4.3032985 50.592064 -200 45 -200 45 -200 45
5757971761.9603 -4.3065624 50.591568 -200 45 -200 45 -200 45
5758971878.6464 -4.3071589 50.612179 -200 45 -200 45 -200 45
5759971995.3326 -4.3061848 50.629505 -200 45 -200 45 -200 45
5760972112.0187 -4.3067741 50.625233 -200 45 -200 45 -200 45
5761972228.7048 -4.3070712 50.640652 -200 45 -200 45 -200 45
5762972345.3909 -4.3092489 50.656204 -200 45 -200 45 -200 45
5763972462.077 -4.3139625 50.684357 -200 45 -200 45 -200 45
5764972578.7631 -4.3167701 50.707863 -200 45 -200 45 -200 45
5765972695.4492 -4.3176541 50.701454 -200 45 -200 45 -200 45
5766972812.1354 -4.3167496 50.707039 -200 45 -200 45 -200 45
5767972928.8215 -4.3172827 50.737434 -200 45 -200 45 -200 45
5768973045.5076 -4.3204737 50.751289 -200 45 -200 45 -200 45
5769973162.1937 -4.3217478 50.76265 -200 45 -200 45 -200 45
5770973278.8798 -4.3203263 50.764481 -200 45 -200 45 -200 45
5771973395.5659 -4.316534 50.772388 -200 45 -200 45 -200 45
5772973512.252 -4.3191981 50.771812 -200 45 -200 45 -200 45
5773973628.9382 -4.3177962 50.801346 -200 45 -200 45 -200 45
5774973745.6243 -4.3215661 50.809937 -200 45 -200 45 -200 45
5775973862.3104 -4.3202429 50.807293 -200 45 -200 45 -200 45
5776973978.9965 -4.3215432 50.825108 -200 45 -200 45 -200 45
5777974095.6826 -4.3218727 50.835613 -200 45 -200 45 -200 45
5778974212.3687 -4.3244224 50.869209 -200 45 -200 45 -200 45
5779974329.0548 -4.3288083 50.882069 -200 45 -200 45 -200 45
5780974445.741 -4.3322406 50.897324 -200 45 -200 45 -200 45
5781974562.4271 -4.3318267 50.90237 -200 45 -200 45 -200 45
5782974679.1132 -4.3326454 50.914467 -200 45 -200 45 -200 45
5783974795.7993 -4.3314304 50.94519 -200 45 -200 45 -200 45
5784974912.4854 -4.3348327 50.940792 -200 45 -200 45 -200 45
5785975029.1715 -4.33497 50.970493 -200 45 -200 45 -200 45
5786975145.8576 -4.3305373 50.961807 -200 45 -200 45 -200 45
5787975262.5438 -4.3313136 50.969208 -200 45 -200 45 -200 45
5788975379.2299 -4.3321586 50.988934 -200 45 -200 45 -200 45
5789975495.916 -4.3334236 50.995762 -200 45 -200 45 -200 45
5790975612.6021 -4.3356786 51.026508 -200 45 -200 45 -200 45
5791975729.2882 -4.3357196 51.028957 -200 45 -200 45 -200 45
5792975845.9743 -4.3347359 51.038685 -200 45 -200 45 -200 45
5793975962.6604 -4.3374701 51.047703 -200 45 -200 45 -200 45
5794976079.3466 -4.3404818 51.064903 -200 45 -200 45 -200 45
5795976196.0327 -4.3445697 51.09877 -200 45 -200 45 -200 45
5796976312.7188 -4.3462758 51.10429 -200 45 -200 45 -200 45
5797976429.4049 -4.3429589 51.126022 -200 45 -200 45 -200 45
5798976546.091 -4.3466949 51.126907 -200 45 -200 45 -200 45
5799976662.7771 -4.3483906 51.136375 -200 45 -200 45 -200 45
5800976779.4632 -4.3473911 51.15789 -200 45 -200 45 -200 45
5801976896.1494 -4.3474622 51.174458 -200 45 -200 45 -200 45
5802977012.8355 -4.3437314 51.157749 -200 45 -200 45 -200 45
5803977129.5216 -4.3446102 51.154541 -200 45 -200 45 -200 45
5804977246.2077 -4.3457708 51.184231 -200 45 -200 45 -200 45
5805977362.8938 -4.3477426 51.200104 -200 45 -200 45 -200 45
5806977479.5799 -4.3481641 51.209625 -200 45 -200 45 -200 45
5807977596.266 -4.3491511 51.222767 -200 45 -200 45 -200 45
5808977712.9522 -4.3496213 51.230095 -200 45 -200 45 -200 45
5809977829.6383 -4.3504972 51.255596 -200 45 -200 45 -200 45
5810977946.3244 -4.3557701 51.273838 -200 45 -200 45 -200 45
5811978063.0105 -4.3566179 51.288807 -200 45 -200 45 -200 45
5812978179.6966 -4.3574743 51.295563 -200 45 -200 45 -200 45
5813978296.3827 -4.3575349 51.311737 -200 45 -200 45 -200 45
5814978413.0688 -4.359334 51.321609 -200 45 -200 45 -200 45
5815978529.755 -4.360826 51.348541 -200 45 -200 45 -200 45
5816978646.4411 -4.3613977 51.345322 -200 45 -200 45 -200 45
5817978763.1272 -4.360487 51.34417 -200 45 -200 45 -200 45
5818978879.8133 -4.3552918 51.355892 -200 45 -200 45 -200 45
5819978996.4994 -4.3580699 51.378422 -200 45 -200 45 -200 45
5820979113.1855 -4.3577843 51.383541 -200 45 -200 45 -200 45
5821979229.8716 -4.3605204 51.396141 -200 45 -200 45 -200 45
5822979346.5578 -4.3622804 51.407795 -200 45 -200 45 -200 45
5823979463.2439 -4.3622303 51.415287 -200 45 -200 45 -200 45
5824979579.93 -4.3628368 51.417301 -200 45 -200 45 -200 45
5825979696.6161 -4.3641219 51.453407 -200 45 -200 45 -200 45
5826979813.3022 -4.3686705 51.464954 -200 45 -200 45 -200 45
5827979929.9883 -4.3698616 51.480698 -200 45 -200 45 -200 45
5828980046.6744 -4.3706164 51.495728 -200 45 -200 45 -200 45
5829980163.3606 -4.3709164 51.505619 -200 45 -200 45 -200 45
5830980280.0467 -4.3731809 51.525997 -200 45 -200 45 -200 45
5831980396.7328 -4.3737564 51.528267 -200 45 -200 45 -200 45
5832980513.4189 -4.3714981 51.557083 -200 45 -200 45 -200 45
5833980630.105 -4.3706331 51.548058 -200 45 -200 45 -200 45
5834980746.7911 -4.3691883 51.55843 -200 45 -200 45 -200 45
5835980863.4772 -4.3681626 51.548122 -200 45 -200 45 -200 45
5836980980.1634 -4.3709092 51.580719 -200 45 -200 45 -200 45
5837981096.8495 -4.3744092 51.601135 -200 45 -200 45 -200 45
5838981213.5356 -4.3734474 51.608753 -200 45 -200 45 -200 45
5839981330.2217 -4.3708377 51.629726 -200 45 -200 45 -200 45
5840981446.9078 -4.3720317 51.617302 -200 45 -200 45 -200 45
5841981563.5939 -4.3746219 51.65797 -200 45 -200 45 -200 45
5842981680.28 -4.3786435 51.682968 -200 45 -200 45 -200 45
5843981796.9662 -4.3798962 51.686047 -200 45 -200 45 -200 45
5844981913.6523 -4.3801255 51.705296 -200 45 -200 45 -200 45
5845982030.3384 -4.3783531 51.720848 -200 45 -200 45 -200 45
5846982147.0245 -4.3822637 51.739567 -200 45 -200 45 -200 45
5847982263.7106 -4.3839564 51.760624 -200 45 -200 45 -200 45
5848982380.3967 -4.3834686 51.750713 -200 45 -200 45 -200 45
5849982497.0828 -4.3797526 51.759621 -200 45 -200 45 -200 45
5850982613.769 -4.3769274 51.757526 -200 45 -200 45 -200 45
5851982730.4551 -4.3776436 51.779152 -200 45 -200 45 -200 45
5852982847.1412 -4.3782921 51.795723 -200 45 -200 45 -200 45
5853982963.8273 -4.3818917 51.817764 -200 45 -200 45 -200 45
5854983080.5134 -4.3851924 51.803116 -200 45 -200 45 -200 45
5855983197.1995 -4.3832912 51.820728 -200 45 -200 45 -200 45
5856983313.8856 -4.3844185 51.835175 -200 45 -200 45 -200 45
5857983430.5718 -4.3881125 51.858421 -200 45 -200 45 -200 45
5858983547.2579 -4.3894367 51.886951 -200 45 -200 45 -200 45
5859983663.944 -4.3947835 51.874908 -200 45 -200 45 -200 45
5860983780.6301 -4.3927674 51.912804 -200 45 -200 45 -200 45
5861983897.3162 -4.3947372 51.91885 -200 45 -200 45 -200 45
5862984014.0023 -4.3973784 51.936958 -200 45 -200 45 -200 45
5863984130.6884 -4.3983803 51.935898 -200 45 -200 45 -200 45
5864984247.3746 -4.3996992 51.957867 -200 45 -200 45 -200 45
5865984364.0607 -4.395916 51.953949 -200 45 -200 45 -200 45
5866984480.7468 -4.3968639 51.959549 -200 45 -200 45 -200 45
5867984597.4329 -4.3988934 51.991287 -200 45 -200 45 -200 45
5868984714.119 -4.4005766 52.006504 -200 45 -200 45 -200 45
5869984830.8051 -4.4048424 52.029167 -200 45 -200 45 -200 45
5870984947.4912 -4.4041662 52.028397 -200 45 -200 45 -200 45
5871985064.1774 -4.4062905 52.058334 -200 45 -200 45 -200 45
5872985180.8635 -4.4103203 52.079628 -200 45 -200 45 -200 45
5873985297.5496 -4.4147906 52.086918 -200 45 -200 45 -200 45
5874985414.2357 -4.4183526 52.112408 -200 45 -200 45 -200 45
5875985530.9218 -4.4201722 52.118927 -200 45 -200 45 -200 45
5876985647.6079 -4.4220123 52.144798 -200 45 -200 45 -200 45
5877985764.294 -4.4248195 52.17028 -200 45 -200 45 -200 45
5878985880.9802 -4.4291615 52.185707 -200 45 -200 45 -200 45
5879985997.6663 -4.4311242 52.201748 -200 45 -200 45 -200 45
5880986114.3524 -4.4326649 52.213791 -200 45 -200 45 -200 45
5881986231.0385 -4.4325676 52.229729 -200 45 -200 45 -200 45
5882986347.7246 -4.4314389 52.242348 -200 45 -200 45 -200 45
5883986464.4107 -4.437263 52.257839 -200 45 -200 45 -200 45
5884986581.0968 -4.4425597 52.30278 -200 45 -200 45 -200 45
5885986697.783 -4.4468322 52.315083 -200 45 -200 45 -200 45
5886986814.4691 -4.4494042 52.348637 -200 45 -200 45 -200 45
5887986931.1552 -4.4543705 52.376076 -200 45 -200 45 -200 45
5888987047.8413 -4.4592505 52.40937 -200 45 -200 45 -200 45
5889987164.5274 -4.4664268 52.461445 -200 45 -200 45 -200 45
5890987281.2135 -4.4719605 52.502293 -200 45 -200 45 -200 45
5891987397.8997 -4.4768047 52.544758 -200 45 -200 45 -200 45
5892987514.5858 -4.4796968 52.592327 -200 45 -200 45 -200 45
5893987631.2719 -4.4856019 52.650063 -200 45 -200 45 -200 45
5894987747.958 -4.4888263 52.709476 -200 45 -200 45 -200 45
5895987864.6441 -4.4915667 52.766018 -200 45 -200 45 -200 45
5896987981.3302 -4.4877234 52.82093 -200 45 -200 45 -200 45
5897988098.0163 -4.4872875 52.873447 -200 45 -200 45 -200 45
5898988214.7025 -4.4898505 52.948502 -200 45 -200 45 -200 45
5899988331.3886 -4.4888935 53.028736 -200 45 -200 45 -200 45
5900988448.0747 -4.491786 53.097965 -200 45 -200 45 -200 45
5901988564.7608 -4.4885449 53.173431 -200 45 -200 45 -200 45
5902988681.4469 -4.4857321 53.23304 -200 45 -200 45 -200 45
5903988798.133 -4.4811635 53.312084 -200 45 -200 45 -200 45
5904988914.8191 -4.4796119 53.380543 -200 45 -200 45 -200 45
5905989031.5053 -4.4787912 53.448132 -200 45 -200 45 -200 45
5906989148.1914 -4.4752078 53.519104 -200 45 -200 45 -200 45
5907989264.8775 -4.4679708 53.569481 -200 45 -200 45 -200 45
5908989381.5636 -4.4614091 53.631401 -200 45 -200 45 -200 45
5909989498.2497 -4.4558148 53.676689 -200 45 -200 45 -200 45
5910989614.9358 -4.4485626 53.715363 -200 45 -200 45 -200 45
5911989731.6219 -4.4397521 53.756458 -200 45 -200 45 -200 45
5912989848.3081 -4.4292979 53.761311 -200 45 -200 45 -200 45
5913989964.9942 -4.4180627 53.799801 -200 45 -200 45 -200 45
5914990081.6803 -4.4107842 53.827278 -200 45 -200 45 -200 45
5915990198.3664 -4.4060292 53.84866 -200 45 -200 45 -200 45
5916990315.0525 -4.3968315 53.884396 -200 45 -200 45 -200 45
5917990431.7386 -4.3892083 53.891167 -200 45 -200 45 -200 45
5918990548.4247 -4.3811641 53.908001 -200 45 -200 45 -200 45
5919990665.1109 -4.3756847 53.9133 -200 45 -200 45 -200 45
5920990781.797 -4.3712115 53.933105 -200 45 -200 45 -200 45
5921990898.4831 -4.3644776 53.946369 -200 45 -200 45 -200 45
5922991015.1692 -4.3598924 53.957657 -200 45 -200 45 -200 45
5923991131.8553 -4.352551 53.953541 -200 45 -200 45 -200 45
5924991248.5414 -4.346158 53.964699 -200 45 -200 45 -200 45
5925991365.2275 -4.3417668 53.964222 -200 45 -200 45 -200 45
5926991481.9137 -4.3343945 53.942299 -200 45 -200 45 -200 45
5927991598.5998 -4.3267837 53.925182 -200 45 -200 45 -200 45
5928991715.2859 -4.3172278 53.892132 -200 45 -200 45 -200 45
5929991831.972 -4.3141203 53.887791 -200 45 -200 45 -200 45
5930991948.6581 -4.3093801 53.876118 -200 45 -200 45 -200 45
5931992065.3442 -4.3052673 53.866829 -200 45 -200 45 -200 45
5932992182.0303 -4.3030415 53.851265 -200 45 -200 45 -200 45
5933992298.7165 -4.2983046 53.823524 -200 45 -200 45 -200 45
5934992415.4026 -4.2948804 53.821388 -200 45 -200 45 -200 45
5935992532.0887 -4.2944698 53.804134 -200 45 -200 45 -200 45
5936992648.7748 -4.2940321 53.782551 -200 45 -200 45 -200 45
5937992765.4609 -4.2920961 53.781025 -200 45 -200 45 -200 45
5938992882.147 -4.2933602 53.773819 -200 45 -200 45 -200 45
5939992998.8331 -4.2896852 53.754879 -200 45 -200 45 -200 45
5940993115.5193 -4.2900219 53.743263 -200 45 -200 45 -200 45
5941993232.2054 -4.2903266 53.744667 -200 45 -200 45 -200 45
5942993348.8915 -4.28865 53.718124 -200 45 -200 45 -200 45
5943993465.5776 -4.284667 53.684906 -200 45 -200 45 -200 45
5944993582.2637 -4.2789679 53.678482 -200 45 -200 45 -200 45
5945993698.9498 -4.2768474 53.663353 -200 45 -200 45 -200 45
5946993815.6359 -4.2800164 53.649986 -200 45 -200 45 -200 45
5947993932.3221 -4.2788997 53.658375 -200 45 -200 45 -200 45
5948994049.0082 -4.2815084 53.640503 -200 45 -200 45 -200 45
5949994165.6943 -4.2783475 53.631535 -200 45 -200 45 -200 45
5950994282.3804 -4.2784591 53.619621 -200 45 -200 45 -200 45
5951994399.0665 -4.2819891 53.630733 -200 45 -200 45 -200 45
5952994515.7526 -4.2856402 53.62978 -200 45 -200 45 -200 45
5953994632.4387 -4.2879176 53.634624 -200 45 -200 45 -200 45
5954994749.1249 -4.2871685 53.632759 -200 45 -200 45 -200 45
5955994865.811 -4.2855759 53.629391 -200 45 -200 45 -200 45
5956994982.4971 -4.2864385 53.640945 -200 45 -200 45 -200 45
5957995099.1832 -4.2886176 53.639984 -200 45 -200 45 -200 45
5958995215.8693 -4.2875485 53.636795 -200 45 -200 45 -200 45
5959995332.5554 -4.2846937 53.634655 -200 45 -200 45 -200 45
5960995449.2415 -4.2759895 53.627754 -200 45 -200 45 -200 45
5961995565.9277 -4.2781434 53.632309 -200 45 -200 45 -200 45
5962995682.6138 -4.2821898 53.629723 -200 45 -200 45 -200 45
5963995799.2999 -4.2791753 53.641594 -200 45 -200 45 -200 45
5964995915.986 -4.2769227 53.641335 -200 45 -200 45 -200 45
5965996032.6721 -4.2731924 53.649048 -200 45 -200 45 -200 45
5966996149.3582 -4.2751546 53.646435 -200 45 -200 45 -200 45
5967996266.0443 -4.2766914 53.65662 -200 45 -200 45 -200 45
5968996382.7305 -4.2797332 53.654171 -200 45 -200 45 -200 45
5969996499.4166 -4.2772679 53.659496 -200 45 -200 45 -200 45
5970996616.1027 -4.275167 53.656387 -200 45 -200 45 -200 45
5971996732.7888 -4.2753277 53.656616 -200 45 -200 45 -200 45
5972996849.4749 -4.2737632 53.665783 -200 45 -200 45 -200 45
5973996966.161 -4.2733274 53.66457 -200 45 -200 45 -200 45
5974997082.8471 -4.271677 53.657097 -200 45 -200 45 -200 45
5975997199.5333 -4.2689571 53.636078 -200 45 -200 45 -200 45
5976997316.2194 -4.2644649 53.638741 -200 45 -200 45 -200 45
5977997432.9055 -4.2632952 53.631313 -200 45 -200 45 -200 45
5978997549.5916 -4.2630186 53.6348 -200 45 -200 45 -200 45
5979997666.2777 -4.2638583 53.621872 -200 45 -200 45 -200 45
5980997782.9638 -4.2628508 53.61277 -200 45 -200 45 -200 45
5981997899.6499 -4.2631507 53.611416 -200 45 -200 45 -200 45
5982998016.3361 -4.2633839 53.61108 -200 45 -200 45 -200 45
5983998133.0222 -4.2655268 53.599972 -200 45 -200 45 -200 45
5984998249.7083 -4.2693672 53.606884 -200 45 -200 45 -200 45
5985998366.3944 -4.2713642 53.586967 -200 45 -200 45 -200 45
5986998483.0805 -4.2721338 53.58934 -200 45 -200 45 -200 45
5987998599.7666 -4.2711649 53.586521 -200 45 -200 45 -200 45
5988998716.4527 -4.2750874 53.585766 -200 45 -200 45 -200 45
5989998833.1389 -4.2760782 53.578075 -200 45 -200 45 -200 45
5990998949.825 -4.2735338 53.562767 -200 45 -200 45 -200 45
5991999066.5111 -4.2721977 53.54739 -200 45 -200 45 -200 45
5992999183.1972 -4.273088 53.539524 -200 45 -200 45 -200 45
5993999299.8833 -4.2777371 53.540291 -200 45 -200 45 -200 45
5994999416.5694 -4.2803016 53.555748 -200 45 -200 45 -200 45
5995999533.2555 -4.2799454 53.561478 -200 45 -200 45 -200 45
5996999649.9417 -4.2824211 53.557304 -200 45 -200 45 -200 45
5997999766.6278 -4.2852702 53.562714 -200 45 -200 45 -200 45
5998999883.3139 -4.2887783 53.57394 -200 45 -200 45 -200 45
6000000000 -4.2909894 53.595547 -200 45 -200 45 -200 45
