!Keysight Technologies,P9374A,MY57304198,A.17.20.09
!Date: Tuesday, August 20, 2024 13:32:10
!Correction: S11(C  1-Port  ) 
!S21(C  1-Port  ) 
!S12(Off) 
!S22(Off) 
!S2P File: Measurements: S11, S21, S12, S22:
# Hz S  dB   R 50
300000 0.00088417466 -0.0084455227 -200 45 -200 45 -200 45
1300116.6861144 0.00051302958 -0.021495044 -200 45 -200 45 -200 45
2300233.3722287 0.00049698213 -0.049854118 -200 45 -200 45 -200 45
3300350.0583431 -0.00052965921 -0.07147035 -200 45 -200 45 -200 45
4300466.7444574 -0.00030184089 -0.090296566 -200 45 -200 45 -200 45
5300583.4305718 -9.4484814e-005 -0.11064863 -200 45 -200 45 -200 45
6300700.1166861 -0.00040953534 -0.13440922 -200 45 -200 45 -200 45
7300816.8028005 -0.00013745666 -0.15610835 -200 45 -200 45 -200 45
8300933.4889148 -0.00012088916 -0.17097764 -200 45 -200 45 -200 45
9301050.1750292 0.0002816302 -0.19966598 -200 45 -200 45 -200 45
10301166.861144 -0.0020744791 -0.19945541 -200 45 -200 45 -200 45
11301283.547258 -0.00061690644 -0.24186978 -200 45 -200 45 -200 45
12301400.233372 3.5204775e-005 -0.2669476 -200 45 -200 45 -200 45
13301516.919487 -0.002630034 -0.28228271 -200 45 -200 45 -200 45
14301633.605601 -0.00053846149 -0.29994041 -200 45 -200 45 -200 45
15301750.291715 -0.00027284666 -0.32193914 -200 45 -200 45 -200 45
16301866.97783 -0.00068810355 -0.33632147 -200 45 -200 45 -200 45
17301983.663944 -0.0012300165 -0.36499289 -200 45 -200 45 -200 45
18302100.350058 -0.0030885173 -0.38753709 -200 45 -200 45 -200 45
19302217.036173 -0.0023865653 -0.40486479 -200 45 -200 45 -200 45
20302333.722287 -0.00093924446 -0.4280692 -200 45 -200 45 -200 45
21302450.408401 -0.0021379306 -0.43716025 -200 45 -200 45 -200 45
22302567.094516 -0.001465393 -0.47182906 -200 45 -200 45 -200 45
23302683.78063 -0.0013763162 -0.48250014 -200 45 -200 45 -200 45
24302800.466744 -0.0017932323 -0.50160378 -200 45 -200 45 -200 45
25302917.152859 -0.003017799 -0.52494287 -200 45 -200 45 -200 45
26303033.838973 -0.0042390833 -0.56145298 -200 45 -200 45 -200 45
27303150.525088 -0.0042222412 -0.57638514 -200 45 -200 45 -200 45
28303267.211202 -0.0027491832 -0.59542978 -200 45 -200 45 -200 45
29303383.897316 -0.0039579556 -0.61871439 -200 45 -200 45 -200 45
30303500.583431 -0.003920387 -0.64251924 -200 45 -200 45 -200 45
31303617.269545 -0.0037123398 -0.65988964 -200 45 -200 45 -200 45
32303733.955659 -0.0021340458 -0.67534405 -200 45 -200 45 -200 45
33303850.641774 -0.0039157229 -0.69846624 -200 45 -200 45 -200 45
34303967.327888 -0.0057266438 -0.7290833 -200 45 -200 45 -200 45
35304084.014002 -0.0053355265 -0.74180794 -200 45 -200 45 -200 45
36304200.700117 -0.0043409159 -0.76384354 -200 45 -200 45 -200 45
37304317.386231 -0.0059980359 -0.78156 -200 45 -200 45 -200 45
38304434.072345 -0.0066077583 -0.80239987 -200 45 -200 45 -200 45
39304550.75846 -0.006329847 -0.83307576 -200 45 -200 45 -200 45
40304667.444574 -0.0051393337 -0.83892506 -200 45 -200 45 -200 45
41304784.130688 -0.0068123145 -0.86019892 -200 45 -200 45 -200 45
42304900.816803 -0.0077898572 -0.88699806 -200 45 -200 45 -200 45
43305017.502917 -0.0066240914 -0.89874333 -200 45 -200 45 -200 45
44305134.189032 -0.0089242905 -0.929869 -200 45 -200 45 -200 45
45305250.875146 -0.0073080594 -0.9545548 -200 45 -200 45 -200 45
46305367.56126 -0.0084270639 -0.96522677 -200 45 -200 45 -200 45
47305484.247375 -0.0088560712 -0.9895516 -200 45 -200 45 -200 45
48305600.933489 -0.010068361 -1.0131395 -200 45 -200 45 -200 45
49305717.619603 -0.009107166 -1.0344094 -200 45 -200 45 -200 45
50305834.305718 -0.0091120945 -1.0639883 -200 45 -200 45 -200 45
51305950.991832 -0.010413717 -1.0731196 -200 45 -200 45 -200 45
52306067.677946 -0.011266195 -1.1117033 -200 45 -200 45 -200 45
53306184.364061 -0.01040645 -1.1167256 -200 45 -200 45 -200 45
54306301.050175 -0.011687436 -1.135689 -200 45 -200 45 -200 45
55306417.736289 -0.011590882 -1.1694214 -200 45 -200 45 -200 45
56306534.422404 -0.010911949 -1.1951816 -200 45 -200 45 -200 45
57306651.108518 -0.01322922 -1.2071316 -200 45 -200 45 -200 45
58306767.794632 -0.013627281 -1.2294364 -200 45 -200 45 -200 45
59306884.480747 -0.014060438 -1.2510304 -200 45 -200 45 -200 45
60307001.166861 -0.014722721 -1.2707641 -200 45 -200 45 -200 45
61307117.852975 -0.015042731 -1.2923584 -200 45 -200 45 -200 45
62307234.53909 -0.015836105 -1.3022794 -200 45 -200 45 -200 45
63307351.225204 -0.015661258 -1.3301386 -200 45 -200 45 -200 45
64307467.911319 -0.017161053 -1.3527225 -200 45 -200 45 -200 45
65307584.597433 -0.015277298 -1.3656777 -200 45 -200 45 -200 45
66307701.283547 -0.016844785 -1.3973653 -200 45 -200 45 -200 45
67307817.969662 -0.018988946 -1.4123292 -200 45 -200 45 -200 45
68307934.655776 -0.01955447 -1.4345134 -200 45 -200 45 -200 45
69308051.34189 -0.019723492 -1.4564615 -200 45 -200 45 -200 45
70308168.028005 -0.020384038 -1.4761076 -200 45 -200 45 -200 45
71308284.714119 -0.02074348 -1.4962119 -200 45 -200 45 -200 45
72308401.400233 -0.023095673 -1.5214083 -200 45 -200 45 -200 45
73308518.086348 -0.020011883 -1.5357479 -200 45 -200 45 -200 45
74308634.772462 -0.02195571 -1.5547699 -200 45 -200 45 -200 45
75308751.458576 -0.023279145 -1.5829421 -200 45 -200 45 -200 45
76308868.144691 -0.023709882 -1.5907029 -200 45 -200 45 -200 45
77308984.830805 -0.025322335 -1.6207019 -200 45 -200 45 -200 45
78309101.516919 -0.024431689 -1.6398965 -200 45 -200 45 -200 45
79309218.203034 -0.027703583 -1.6487231 -200 45 -200 45 -200 45
80309334.889148 -0.026890067 -1.664432 -200 45 -200 45 -200 45
81309451.575263 -0.026566578 -1.7027802 -200 45 -200 45 -200 45
82309568.261377 -0.027244838 -1.71777 -200 45 -200 45 -200 45
83309684.947491 -0.027856247 -1.7278271 -200 45 -200 45 -200 45
84309801.633606 -0.028534969 -1.7500589 -200 45 -200 45 -200 45
85309918.31972 -0.029757196 -1.7732679 -200 45 -200 45 -200 45
86310035.005834 -0.031719472 -1.8050239 -200 45 -200 45 -200 45
87310151.691949 -0.03015078 -1.8047236 -200 45 -200 45 -200 45
88310268.378063 -0.032885734 -1.8350475 -200 45 -200 45 -200 45
89310385.064177 -0.03374603 -1.8425895 -200 45 -200 45 -200 45
90310501.750292 -0.032781668 -1.8671001 -200 45 -200 45 -200 45
91310618.436406 -0.034803763 -1.8874859 -200 45 -200 45 -200 45
92310735.12252 -0.033115271 -1.9061521 -200 45 -200 45 -200 45
93310851.808635 -0.036068734 -1.920915 -200 45 -200 45 -200 45
94310968.494749 -0.036745086 -1.9421189 -200 45 -200 45 -200 45
95311085.180863 -0.03764949 -1.9754976 -200 45 -200 45 -200 45
96311201.866978 -0.037940118 -1.9895443 -200 45 -200 45 -200 45
97311318.553092 -0.038954731 -1.9967569 -200 45 -200 45 -200 45
98311435.239207 -0.038874283 -2.0195923 -200 45 -200 45 -200 45
99311551.925321 -0.041199733 -2.0404248 -200 45 -200 45 -200 45
100311668.61144 -0.043015029 -2.0483847 -200 45 -200 45 -200 45
101311785.29755 -0.042392854 -2.0770941 -200 45 -200 45 -200 45
102311901.98366 -0.042393114 -2.0950644 -200 45 -200 45 -200 45
103312018.66978 -0.041758485 -2.1153104 -200 45 -200 45 -200 45
104312135.35589 -0.044815391 -2.1365097 -200 45 -200 45 -200 45
105312252.04201 -0.044251274 -2.1523161 -200 45 -200 45 -200 45
106312368.72812 -0.045519527 -2.1682 -200 45 -200 45 -200 45
107312485.41424 -0.045732465 -2.191947 -200 45 -200 45 -200 45
108312602.10035 -0.045504093 -2.2079985 -200 45 -200 45 -200 45
109312718.78646 -0.047597285 -2.2252147 -200 45 -200 45 -200 45
110312835.47258 -0.045284104 -2.2349863 -200 45 -200 45 -200 45
111312952.15869 -0.048361029 -2.2710669 -200 45 -200 45 -200 45
112313068.84481 -0.049107369 -2.2754433 -200 45 -200 45 -200 45
113313185.53092 -0.05036211 -2.2882357 -200 45 -200 45 -200 45
114313302.21704 -0.048407625 -2.3260045 -200 45 -200 45 -200 45
115313418.90315 -0.04986928 -2.3309295 -200 45 -200 45 -200 45
116313535.58926 -0.049276497 -2.3558507 -200 45 -200 45 -200 45
117313652.27538 -0.050243743 -2.3815825 -200 45 -200 45 -200 45
118313768.96149 -0.05288893 -2.4022663 -200 45 -200 45 -200 45
119313885.64761 -0.05255983 -2.4026413 -200 45 -200 45 -200 45
120314002.33372 -0.054214749 -2.4361141 -200 45 -200 45 -200 45
121314119.01984 -0.052949984 -2.462976 -200 45 -200 45 -200 45
122314235.70595 -0.054518286 -2.4657962 -200 45 -200 45 -200 45
123314352.39207 -0.05569803 -2.4908638 -200 45 -200 45 -200 45
124314469.07818 -0.056717061 -2.5103054 -200 45 -200 45 -200 45
125314585.76429 -0.056879405 -2.5413721 -200 45 -200 45 -200 45
126314702.45041 -0.057829458 -2.558306 -200 45 -200 45 -200 45
127314819.13652 -0.05776991 -2.5781174 -200 45 -200 45 -200 45
128314935.82264 -0.059356749 -2.5883934 -200 45 -200 45 -200 45
129315052.50875 -0.05964857 -2.617517 -200 45 -200 45 -200 45
130315169.19487 -0.061661948 -2.6346629 -200 45 -200 45 -200 45
131315285.88098 -0.063714609 -2.6538899 -200 45 -200 45 -200 45
132315402.56709 -0.063056901 -2.6717992 -200 45 -200 45 -200 45
133315519.25321 -0.064528748 -2.6864793 -200 45 -200 45 -200 45
134315635.93932 -0.064943366 -2.7127931 -200 45 -200 45 -200 45
135315752.62544 -0.066288643 -2.7374828 -200 45 -200 45 -200 45
136315869.31155 -0.06749972 -2.7524903 -200 45 -200 45 -200 45
137315985.99767 -0.067367472 -2.7777302 -200 45 -200 45 -200 45
138316102.68378 -0.067482628 -2.7958798 -200 45 -200 45 -200 45
139316219.36989 -0.069320254 -2.8088486 -200 45 -200 45 -200 45
140316336.05601 -0.069745064 -2.8281019 -200 45 -200 45 -200 45
141316452.74212 -0.070625052 -2.846071 -200 45 -200 45 -200 45
142316569.42824 -0.070987888 -2.8743639 -200 45 -200 45 -200 45
143316686.11435 -0.071188129 -2.8788998 -200 45 -200 45 -200 45
144316802.80047 -0.072809361 -2.9035783 -200 45 -200 45 -200 45
145316919.48658 -0.074814893 -2.9282966 -200 45 -200 45 -200 45
146317036.1727 -0.07491339 -2.9484267 -200 45 -200 45 -200 45
147317152.85881 -0.076249115 -2.9645252 -200 45 -200 45 -200 45
148317269.54492 -0.076234102 -2.986187 -200 45 -200 45 -200 45
149317386.23104 -0.077052169 -3.0022879 -200 45 -200 45 -200 45
150317502.91715 -0.07863421 -3.0299423 -200 45 -200 45 -200 45
151317619.60327 -0.080671705 -3.0512629 -200 45 -200 45 -200 45
152317736.28938 -0.080752663 -3.0606029 -200 45 -200 45 -200 45
153317852.9755 -0.082502522 -3.0772886 -200 45 -200 45 -200 45
154317969.66161 -0.08368066 -3.1018925 -200 45 -200 45 -200 45
155318086.34772 -0.085753262 -3.1216586 -200 45 -200 45 -200 45
156318203.03384 -0.083338134 -3.1377983 -200 45 -200 45 -200 45
157318319.71995 -0.086235128 -3.1509001 -200 45 -200 45 -200 45
158318436.40607 -0.087875985 -3.1806917 -200 45 -200 45 -200 45
159318553.09218 -0.087462083 -3.1982055 -200 45 -200 45 -200 45
160318669.7783 -0.088237889 -3.2110326 -200 45 -200 45 -200 45
161318786.46441 -0.090916902 -3.2369144 -200 45 -200 45 -200 45
162318903.15053 -0.090793192 -3.249279 -200 45 -200 45 -200 45
163319019.83664 -0.09115798 -3.2705793 -200 45 -200 45 -200 45
164319136.52275 -0.094977409 -3.2840509 -200 45 -200 45 -200 45
165319253.20887 -0.095262907 -3.3157597 -200 45 -200 45 -200 45
166319369.89498 -0.095238298 -3.3195455 -200 45 -200 45 -200 45
167319486.5811 -0.097513385 -3.3367093 -200 45 -200 45 -200 45
168319603.26721 -0.098525859 -3.3549242 -200 45 -200 45 -200 45
169319719.95333 -0.10023177 -3.3784008 -200 45 -200 45 -200 45
170319836.63944 -0.10095926 -3.3965659 -200 45 -200 45 -200 45
171319953.32555 -0.10207774 -3.413806 -200 45 -200 45 -200 45
172320070.01167 -0.10370127 -3.4263854 -200 45 -200 45 -200 45
173320186.69778 -0.1014497 -3.4532058 -200 45 -200 45 -200 45
174320303.3839 -0.10386776 -3.4694107 -200 45 -200 45 -200 45
175320420.07001 -0.10573226 -3.4830103 -200 45 -200 45 -200 45
176320536.75613 -0.10653017 -3.5026674 -200 45 -200 45 -200 45
177320653.44224 -0.10807548 -3.5125134 -200 45 -200 45 -200 45
178320770.12835 -0.10849189 -3.5477369 -200 45 -200 45 -200 45
179320886.81447 -0.10886931 -3.5616589 -200 45 -200 45 -200 45
180321003.50058 -0.10975329 -3.5830886 -200 45 -200 45 -200 45
181321120.1867 -0.11219617 -3.586185 -200 45 -200 45 -200 45
182321236.87281 -0.1119239 -3.6189024 -200 45 -200 45 -200 45
183321353.55893 -0.11307976 -3.6205895 -200 45 -200 45 -200 45
184321470.24504 -0.11328328 -3.647614 -200 45 -200 45 -200 45
185321586.93116 -0.11552452 -3.6669676 -200 45 -200 45 -200 45
186321703.61727 -0.11595307 -3.6819246 -200 45 -200 45 -200 45
187321820.30338 -0.11753498 -3.7134032 -200 45 -200 45 -200 45
188321936.9895 -0.11852447 -3.7213602 -200 45 -200 45 -200 45
189322053.67561 -0.11991199 -3.7381532 -200 45 -200 45 -200 45
190322170.36173 -0.12041549 -3.7757828 -200 45 -200 45 -200 45
191322287.04784 -0.12176289 -3.7892375 -200 45 -200 45 -200 45
192322403.73396 -0.12258159 -3.7956924 -200 45 -200 45 -200 45
193322520.42007 -0.12324599 -3.8115678 -200 45 -200 45 -200 45
194322637.10618 -0.12569088 -3.8320968 -200 45 -200 45 -200 45
195322753.7923 -0.12642424 -3.847584 -200 45 -200 45 -200 45
196322870.47841 -0.12704098 -3.8751493 -200 45 -200 45 -200 45
197322987.16453 -0.12949094 -3.8891132 -200 45 -200 45 -200 45
198323103.85064 -0.12919946 -3.9111586 -200 45 -200 45 -200 45
199323220.53676 -0.1310015 -3.9319859 -200 45 -200 45 -200 45
200323337.22287 -0.13262306 -3.9428172 -200 45 -200 45 -200 45
201323453.90898 -0.13362454 -3.96382 -200 45 -200 45 -200 45
202323570.5951 -0.13372037 -3.9769111 -200 45 -200 45 -200 45
203323687.28121 -0.13514213 -3.9965887 -200 45 -200 45 -200 45
204323803.96733 -0.13631567 -4.0215759 -200 45 -200 45 -200 45
205323920.65344 -0.13828234 -4.0343404 -200 45 -200 45 -200 45
206324037.33956 -0.13876927 -4.0485816 -200 45 -200 45 -200 45
207324154.02567 -0.14070684 -4.0598831 -200 45 -200 45 -200 45
208324270.71179 -0.14157833 -4.0887561 -200 45 -200 45 -200 45
209324387.3979 -0.14334993 -4.1053944 -200 45 -200 45 -200 45
210324504.08401 -0.14464585 -4.1219215 -200 45 -200 45 -200 45
211324620.77013 -0.14511555 -4.1509504 -200 45 -200 45 -200 45
212324737.45624 -0.14693974 -4.1593637 -200 45 -200 45 -200 45
213324854.14236 -0.1476068 -4.1709123 -200 45 -200 45 -200 45
214324970.82847 -0.14938328 -4.186295 -200 45 -200 45 -200 45
215325087.51459 -0.15077212 -4.2159481 -200 45 -200 45 -200 45
216325204.2007 -0.15058747 -4.2294378 -200 45 -200 45 -200 45
217325320.88681 -0.1530883 -4.2427144 -200 45 -200 45 -200 45
218325437.57293 -0.15283169 -4.259851 -200 45 -200 45 -200 45
219325554.25904 -0.15402181 -4.2916837 -200 45 -200 45 -200 45
220325670.94516 -0.15737298 -4.2946033 -200 45 -200 45 -200 45
221325787.63127 -0.15769133 -4.319798 -200 45 -200 45 -200 45
222325904.31739 -0.16020162 -4.3398299 -200 45 -200 45 -200 45
223326021.0035 -0.15885836 -4.3556027 -200 45 -200 45 -200 45
224326137.68961 -0.16146605 -4.3746934 -200 45 -200 45 -200 45
225326254.37573 -0.16374761 -4.3969312 -200 45 -200 45 -200 45
226326371.06184 -0.16448233 -4.4216595 -200 45 -200 45 -200 45
227326487.74796 -0.16647577 -4.4303751 -200 45 -200 45 -200 45
228326604.43407 -0.16733551 -4.4450908 -200 45 -200 45 -200 45
229326721.12019 -0.16851428 -4.4666362 -200 45 -200 45 -200 45
230326837.8063 -0.17125432 -4.4809546 -200 45 -200 45 -200 45
231326954.49242 -0.17260547 -4.4970956 -200 45 -200 45 -200 45
232327071.17853 -0.17314664 -4.5079198 -200 45 -200 45 -200 45
233327187.86464 -0.17470345 -4.530499 -200 45 -200 45 -200 45
234327304.55076 -0.17632227 -4.5556011 -200 45 -200 45 -200 45
235327421.23687 -0.17716751 -4.5708294 -200 45 -200 45 -200 45
236327537.92299 -0.17804715 -4.5841198 -200 45 -200 45 -200 45
237327654.6091 -0.18004414 -4.5944963 -200 45 -200 45 -200 45
238327771.29522 -0.18046427 -4.6158614 -200 45 -200 45 -200 45
239327887.98133 -0.18317325 -4.6285615 -200 45 -200 45 -200 45
240328004.66744 -0.18354292 -4.6554341 -200 45 -200 45 -200 45
241328121.35356 -0.18380108 -4.6732497 -200 45 -200 45 -200 45
242328238.03967 -0.18678725 -4.6814651 -200 45 -200 45 -200 45
243328354.72579 -0.18794537 -4.7088161 -200 45 -200 45 -200 45
244328471.4119 -0.18954588 -4.7117033 -200 45 -200 45 -200 45
245328588.09802 -0.18991636 -4.7336078 -200 45 -200 45 -200 45
246328704.78413 -0.19200322 -4.7492342 -200 45 -200 45 -200 45
247328821.47025 -0.19373868 -4.7671652 -200 45 -200 45 -200 45
248328938.15636 -0.19435801 -4.789371 -200 45 -200 45 -200 45
249329054.84247 -0.19554983 -4.811975 -200 45 -200 45 -200 45
250329171.52859 -0.19875599 -4.8176341 -200 45 -200 45 -200 45
251329288.2147 -0.19975142 -4.8448787 -200 45 -200 45 -200 45
252329404.90082 -0.20050417 -4.8575473 -200 45 -200 45 -200 45
253329521.58693 -0.20222919 -4.8725834 -200 45 -200 45 -200 45
254329638.27305 -0.20297316 -4.890377 -200 45 -200 45 -200 45
255329754.95916 -0.20657 -4.9031634 -200 45 -200 45 -200 45
256329871.64527 -0.20714907 -4.932611 -200 45 -200 45 -200 45
257329988.33139 -0.20854104 -4.9361067 -200 45 -200 45 -200 45
258330105.0175 -0.21060564 -4.9599423 -200 45 -200 45 -200 45
259330221.70362 -0.21320924 -4.9845562 -200 45 -200 45 -200 45
260330338.38973 -0.21465211 -4.9988723 -200 45 -200 45 -200 45
261330455.07585 -0.21489988 -5.0097528 -200 45 -200 45 -200 45
262330571.76196 -0.21528232 -5.0262837 -200 45 -200 45 -200 45
263330688.44807 -0.21705024 -5.0422482 -200 45 -200 45 -200 45
264330805.13419 -0.21989869 -5.0638108 -200 45 -200 45 -200 45
265330921.8203 -0.22216894 -5.0737219 -200 45 -200 45 -200 45
266331038.50642 -0.22340302 -5.0934501 -200 45 -200 45 -200 45
267331155.19253 -0.22366901 -5.1204796 -200 45 -200 45 -200 45
268331271.87865 -0.22782151 -5.1144152 -200 45 -200 45 -200 45
269331388.56476 -0.22801085 -5.1380954 -200 45 -200 45 -200 45
270331505.25088 -0.22837453 -5.1560125 -200 45 -200 45 -200 45
271331621.93699 -0.23016606 -5.1699328 -200 45 -200 45 -200 45
272331738.6231 -0.23339215 -5.1840711 -200 45 -200 45 -200 45
273331855.30922 -0.23461194 -5.203743 -200 45 -200 45 -200 45
274331971.99533 -0.23533607 -5.2193217 -200 45 -200 45 -200 45
275332088.68145 -0.23896857 -5.223104 -200 45 -200 45 -200 45
276332205.36756 -0.23890866 -5.2482634 -200 45 -200 45 -200 45
277332322.05368 -0.24177095 -5.2647734 -200 45 -200 45 -200 45
278332438.73979 -0.24216563 -5.2789588 -200 45 -200 45 -200 45
279332555.4259 -0.24298434 -5.3048639 -200 45 -200 45 -200 45
280332672.11202 -0.2446658 -5.3189936 -200 45 -200 45 -200 45
281332788.79813 -0.24639475 -5.3193269 -200 45 -200 45 -200 45
282332905.48425 -0.24777415 -5.3410888 -200 45 -200 45 -200 45
283333022.17036 -0.24999486 -5.3650055 -200 45 -200 45 -200 45
284333138.85648 -0.25101745 -5.3826737 -200 45 -200 45 -200 45
285333255.54259 -0.25180742 -5.3800921 -200 45 -200 45 -200 45
286333372.2287 -0.25412515 -5.3937769 -200 45 -200 45 -200 45
287333488.91482 -0.25526044 -5.4078488 -200 45 -200 45 -200 45
288333605.60093 -0.25637904 -5.4309411 -200 45 -200 45 -200 45
289333722.28705 -0.2591545 -5.4540029 -200 45 -200 45 -200 45
290333838.97316 -0.25870717 -5.4657965 -200 45 -200 45 -200 45
291333955.65928 -0.26081446 -5.4743495 -200 45 -200 45 -200 45
292334072.34539 -0.26031035 -5.4920268 -200 45 -200 45 -200 45
293334189.03151 -0.26437673 -5.5142045 -200 45 -200 45 -200 45
294334305.71762 -0.26607805 -5.5253282 -200 45 -200 45 -200 45
295334422.40373 -0.26782355 -5.5478592 -200 45 -200 45 -200 45
296334539.08985 -0.26830456 -5.5546913 -200 45 -200 45 -200 45
297334655.77596 -0.27040991 -5.5820732 -200 45 -200 45 -200 45
298334772.46208 -0.27180576 -5.6063604 -200 45 -200 45 -200 45
299334889.14819 -0.27378762 -5.6071658 -200 45 -200 45 -200 45
300335005.83431 -0.27468181 -5.6170139 -200 45 -200 45 -200 45
301335122.52042 -0.27665836 -5.6362081 -200 45 -200 45 -200 45
302335239.20653 -0.27766243 -5.6567745 -200 45 -200 45 -200 45
303335355.89265 -0.27927208 -5.6778164 -200 45 -200 45 -200 45
304335472.57876 -0.2807028 -5.694623 -200 45 -200 45 -200 45
305335589.26488 -0.283923 -5.7009683 -200 45 -200 45 -200 45
306335705.95099 -0.28366464 -5.7296124 -200 45 -200 45 -200 45
307335822.63711 -0.2869556 -5.7228847 -200 45 -200 45 -200 45
308335939.32322 -0.28840134 -5.7541842 -200 45 -200 45 -200 45
309336056.00933 -0.28802097 -5.7713323 -200 45 -200 45 -200 45
310336172.69545 -0.29147083 -5.775424 -200 45 -200 45 -200 45
311336289.38156 -0.29392257 -5.7931042 -200 45 -200 45 -200 45
312336406.06768 -0.29504117 -5.8139272 -200 45 -200 45 -200 45
313336522.75379 -0.29425636 -5.827014 -200 45 -200 45 -200 45
314336639.43991 -0.29819995 -5.8371754 -200 45 -200 45 -200 45
315336756.12602 -0.29989904 -5.8537936 -200 45 -200 45 -200 45
316336872.81214 -0.299734 -5.8705916 -200 45 -200 45 -200 45
317336989.49825 -0.30224174 -5.8904467 -200 45 -200 45 -200 45
318337106.18436 -0.30475956 -5.9136028 -200 45 -200 45 -200 45
319337222.87048 -0.30750248 -5.9188333 -200 45 -200 45 -200 45
320337339.55659 -0.306409 -5.9310246 -200 45 -200 45 -200 45
321337456.24271 -0.30891004 -5.9533973 -200 45 -200 45 -200 45
322337572.92882 -0.31103376 -5.955214 -200 45 -200 45 -200 45
323337689.61494 -0.31257847 -5.9737082 -200 45 -200 45 -200 45
324337806.30105 -0.31398714 -5.9843769 -200 45 -200 45 -200 45
325337922.98716 -0.31340921 -6.0137501 -200 45 -200 45 -200 45
326338039.67328 -0.31765765 -6.01653 -200 45 -200 45 -200 45
327338156.35939 -0.3184545 -6.0397301 -200 45 -200 45 -200 45
328338273.04551 -0.32170868 -6.0462623 -200 45 -200 45 -200 45
329338389.73162 -0.32205659 -6.075192 -200 45 -200 45 -200 45
330338506.41774 -0.32398537 -6.0880575 -200 45 -200 45 -200 45
331338623.10385 -0.32651442 -6.0995207 -200 45 -200 45 -200 45
332338739.78997 -0.32689232 -6.1130857 -200 45 -200 45 -200 45
333338856.47608 -0.32976851 -6.127264 -200 45 -200 45 -200 45
334338973.16219 -0.33090895 -6.1342502 -200 45 -200 45 -200 45
335339089.84831 -0.33243814 -6.1559415 -200 45 -200 45 -200 45
336339206.53442 -0.33490837 -6.1664577 -200 45 -200 45 -200 45
337339323.22054 -0.33609211 -6.1892815 -200 45 -200 45 -200 45
338339439.90665 -0.33770147 -6.2047668 -200 45 -200 45 -200 45
339339556.59277 -0.34088078 -6.2162862 -200 45 -200 45 -200 45
340339673.27888 -0.34382033 -6.2203827 -200 45 -200 45 -200 45
341339789.96499 -0.34500149 -6.2503901 -200 45 -200 45 -200 45
342339906.65111 -0.34494179 -6.2504511 -200 45 -200 45 -200 45
343340023.33722 -0.34720099 -6.2668705 -200 45 -200 45 -200 45
344340140.02334 -0.34943637 -6.2904205 -200 45 -200 45 -200 45
345340256.70945 -0.35176247 -6.2984796 -200 45 -200 45 -200 45
346340373.39557 -0.35286716 -6.3180294 -200 45 -200 45 -200 45
347340490.08168 -0.35610959 -6.3301501 -200 45 -200 45 -200 45
348340606.76779 -0.35552967 -6.3470926 -200 45 -200 45 -200 45
349340723.45391 -0.35832059 -6.3516006 -200 45 -200 45 -200 45
350340840.14002 -0.3608537 -6.3837113 -200 45 -200 45 -200 45
351340956.82614 -0.36200431 -6.3948464 -200 45 -200 45 -200 45
352341073.51225 -0.36511928 -6.4023695 -200 45 -200 45 -200 45
353341190.19837 -0.36675799 -6.4201341 -200 45 -200 45 -200 45
354341306.88448 -0.36819729 -6.4356036 -200 45 -200 45 -200 45
355341423.5706 -0.37028143 -6.4425273 -200 45 -200 45 -200 45
356341540.25671 -0.37278652 -6.458941 -200 45 -200 45 -200 45
357341656.94282 -0.3747614 -6.4649444 -200 45 -200 45 -200 45
358341773.62894 -0.37484577 -6.4860816 -200 45 -200 45 -200 45
359341890.31505 -0.37673408 -6.4917498 -200 45 -200 45 -200 45
360342007.00117 -0.38007262 -6.5084906 -200 45 -200 45 -200 45
361342123.68728 -0.38168591 -6.5170588 -200 45 -200 45 -200 45
362342240.3734 -0.3822532 -6.547595 -200 45 -200 45 -200 45
363342357.05951 -0.38451636 -6.5493717 -200 45 -200 45 -200 45
364342473.74562 -0.38652486 -6.5571303 -200 45 -200 45 -200 45
365342590.43174 -0.38826594 -6.5764093 -200 45 -200 45 -200 45
366342707.11785 -0.38980839 -6.5898705 -200 45 -200 45 -200 45
367342823.80397 -0.39078543 -6.6040406 -200 45 -200 45 -200 45
368342940.49008 -0.3942014 -6.6253905 -200 45 -200 45 -200 45
369343057.1762 -0.39550722 -6.6360712 -200 45 -200 45 -200 45
370343173.86231 -0.39796364 -6.6421542 -200 45 -200 45 -200 45
371343290.54842 -0.39897373 -6.6694589 -200 45 -200 45 -200 45
372343407.23454 -0.4007746 -6.6784205 -200 45 -200 45 -200 45
373343523.92065 -0.40301079 -6.6810369 -200 45 -200 45 -200 45
374343640.60677 -0.40530947 -6.6958346 -200 45 -200 45 -200 45
375343757.29288 -0.40878043 -6.7111421 -200 45 -200 45 -200 45
376343873.979 -0.40934643 -6.7352982 -200 45 -200 45 -200 45
377343990.66511 -0.41223252 -6.7374611 -200 45 -200 45 -200 45
378344107.35123 -0.41442961 -6.7476935 -200 45 -200 45 -200 45
379344224.03734 -0.41467795 -6.7723093 -200 45 -200 45 -200 45
380344340.72345 -0.41759437 -6.7791305 -200 45 -200 45 -200 45
381344457.40957 -0.41826615 -6.7956896 -200 45 -200 45 -200 45
382344574.09568 -0.42021817 -6.8126812 -200 45 -200 45 -200 45
383344690.7818 -0.42304501 -6.8161283 -200 45 -200 45 -200 45
384344807.46791 -0.42334577 -6.8241076 -200 45 -200 45 -200 45
385344924.15403 -0.42566499 -6.8463697 -200 45 -200 45 -200 45
386345040.84014 -0.42787459 -6.8564634 -200 45 -200 45 -200 45
387345157.52625 -0.43104431 -6.8774261 -200 45 -200 45 -200 45
388345274.21237 -0.43143854 -6.8787608 -200 45 -200 45 -200 45
389345390.89848 -0.43439683 -6.8968921 -200 45 -200 45 -200 45
390345507.5846 -0.43574798 -6.9143147 -200 45 -200 45 -200 45
391345624.27071 -0.43678436 -6.9214587 -200 45 -200 45 -200 45
392345740.95683 -0.43893003 -6.9409909 -200 45 -200 45 -200 45
393345857.64294 -0.44039688 -6.9451923 -200 45 -200 45 -200 45
394345974.32905 -0.44300067 -6.9642177 -200 45 -200 45 -200 45
395346091.01517 -0.44652027 -6.9878292 -200 45 -200 45 -200 45
396346207.70128 -0.4462153 -6.9807129 -200 45 -200 45 -200 45
397346324.3874 -0.44797045 -6.9985242 -200 45 -200 45 -200 45
398346441.07351 -0.4506368 -7.0197229 -200 45 -200 45 -200 45
399346557.75963 -0.45231587 -7.0362215 -200 45 -200 45 -200 45
400346674.44574 -0.45486331 -7.0399771 -200 45 -200 45 -200 45
401346791.13186 -0.45817763 -7.0471315 -200 45 -200 45 -200 45
402346907.81797 -0.45953763 -7.0676265 -200 45 -200 45 -200 45
403347024.50408 -0.45914516 -7.0791607 -200 45 -200 45 -200 45
404347141.1902 -0.461806 -7.0900211 -200 45 -200 45 -200 45
405347257.87631 -0.46431836 -7.1125016 -200 45 -200 45 -200 45
406347374.56243 -0.46697056 -7.1193953 -200 45 -200 45 -200 45
407347491.24854 -0.46717694 -7.1317992 -200 45 -200 45 -200 45
408347607.93466 -0.47101653 -7.1435294 -200 45 -200 45 -200 45
409347724.62077 -0.47325134 -7.1579146 -200 45 -200 45 -200 45
410347841.30688 -0.47441483 -7.158577 -200 45 -200 45 -200 45
411347957.993 -0.47566667 -7.1753221 -200 45 -200 45 -200 45
412348074.67911 -0.47980604 -7.1894555 -200 45 -200 45 -200 45
413348191.36523 -0.48119333 -7.1968217 -200 45 -200 45 -200 45
414348308.05134 -0.48375344 -7.2123203 -200 45 -200 45 -200 45
415348424.73746 -0.48478687 -7.2292814 -200 45 -200 45 -200 45
416348541.42357 -0.48662138 -7.2331371 -200 45 -200 45 -200 45
417348658.10968 -0.48847923 -7.2473149 -200 45 -200 45 -200 45
418348774.7958 -0.48971865 -7.2621303 -200 45 -200 45 -200 45
419348891.48191 -0.49075234 -7.2700191 -200 45 -200 45 -200 45
420349008.16803 -0.4941667 -7.2883019 -200 45 -200 45 -200 45
421349124.85414 -0.49659222 -7.2906499 -200 45 -200 45 -200 45
422349241.54026 -0.49871048 -7.3054681 -200 45 -200 45 -200 45
423349358.22637 -0.49981949 -7.314198 -200 45 -200 45 -200 45
424349474.91249 -0.50219417 -7.3301148 -200 45 -200 45 -200 45
425349591.5986 -0.50314885 -7.3350172 -200 45 -200 45 -200 45
426349708.28471 -0.50622219 -7.3484335 -200 45 -200 45 -200 45
427349824.97083 -0.50775385 -7.3565578 -200 45 -200 45 -200 45
428349941.65694 -0.51146317 -7.36936 -200 45 -200 45 -200 45
429350058.34306 -0.51304239 -7.3875556 -200 45 -200 45 -200 45
430350175.02917 -0.51325446 -7.3931308 -200 45 -200 45 -200 45
431350291.71529 -0.51478279 -7.4064012 -200 45 -200 45 -200 45
432350408.4014 -0.51672888 -7.4172506 -200 45 -200 45 -200 45
433350525.08751 -0.52124816 -7.4259901 -200 45 -200 45 -200 45
434350641.77363 -0.52281636 -7.4376988 -200 45 -200 45 -200 45
435350758.45974 -0.523476 -7.444334 -200 45 -200 45 -200 45
436350875.14586 -0.52684104 -7.462307 -200 45 -200 45 -200 45
437350991.83197 -0.5266999 -7.4633069 -200 45 -200 45 -200 45
438351108.51809 -0.52929372 -7.4693594 -200 45 -200 45 -200 45
439351225.2042 -0.53221995 -7.4882565 -200 45 -200 45 -200 45
440351341.89032 -0.53288484 -7.4883242 -200 45 -200 45 -200 45
441351458.57643 -0.53476143 -7.5022063 -200 45 -200 45 -200 45
442351575.26254 -0.53676277 -7.5174069 -200 45 -200 45 -200 45
443351691.94866 -0.53755957 -7.5268412 -200 45 -200 45 -200 45
444351808.63477 -0.54109448 -7.5433345 -200 45 -200 45 -200 45
445351925.32089 -0.5438512 -7.552835 -200 45 -200 45 -200 45
446352042.007 -0.54445243 -7.5546727 -200 45 -200 45 -200 45
447352158.69312 -0.54535717 -7.5682354 -200 45 -200 45 -200 45
448352275.37923 -0.54694611 -7.5714221 -200 45 -200 45 -200 45
449352392.06534 -0.54913193 -7.5880079 -200 45 -200 45 -200 45
450352508.75146 -0.55034 -7.6027126 -200 45 -200 45 -200 45
451352625.43757 -0.55296034 -7.6114168 -200 45 -200 45 -200 45
452352742.12369 -0.55431211 -7.6269274 -200 45 -200 45 -200 45
453352858.8098 -0.55609089 -7.6406741 -200 45 -200 45 -200 45
454352975.49592 -0.55806112 -7.6495223 -200 45 -200 45 -200 45
455353092.18203 -0.56096828 -7.6627827 -200 45 -200 45 -200 45
456353208.86814 -0.56401324 -7.6675277 -200 45 -200 45 -200 45
457353325.55426 -0.56491619 -7.6880441 -200 45 -200 45 -200 45
458353442.24037 -0.56742936 -7.6903501 -200 45 -200 45 -200 45
459353558.92649 -0.56833565 -7.7063661 -200 45 -200 45 -200 45
460353675.6126 -0.57150328 -7.7251525 -200 45 -200 45 -200 45
461353792.29872 -0.57243997 -7.7317915 -200 45 -200 45 -200 45
462353908.98483 -0.57569635 -7.7316136 -200 45 -200 45 -200 45
463354025.67095 -0.57586038 -7.7422628 -200 45 -200 45 -200 45
464354142.35706 -0.57846034 -7.7583327 -200 45 -200 45 -200 45
465354259.04317 -0.58141667 -7.7702241 -200 45 -200 45 -200 45
466354375.72929 -0.58271194 -7.7815628 -200 45 -200 45 -200 45
467354492.4154 -0.58326435 -7.7838116 -200 45 -200 45 -200 45
468354609.10152 -0.58680969 -7.7938905 -200 45 -200 45 -200 45
469354725.78763 -0.58762378 -7.8039165 -200 45 -200 45 -200 45
470354842.47375 -0.58980763 -7.8261881 -200 45 -200 45 -200 45
471354959.15986 -0.59115726 -7.829812 -200 45 -200 45 -200 45
472355075.84597 -0.59587467 -7.8559494 -200 45 -200 45 -200 45
473355192.53209 -0.59613925 -7.8586612 -200 45 -200 45 -200 45
474355309.2182 -0.59717393 -7.8600717 -200 45 -200 45 -200 45
475355425.90432 -0.60091174 -7.8728714 -200 45 -200 45 -200 45
476355542.59043 -0.60187918 -7.8772426 -200 45 -200 45 -200 45
477355659.27655 -0.60449654 -7.8965178 -200 45 -200 45 -200 45
478355775.96266 -0.60532552 -7.9069581 -200 45 -200 45 -200 45
479355892.64877 -0.60728961 -7.9109216 -200 45 -200 45 -200 45
480356009.33489 -0.60881865 -7.9219465 -200 45 -200 45 -200 45
481356126.021 -0.61188245 -7.931231 -200 45 -200 45 -200 45
482356242.70712 -0.61355203 -7.9477797 -200 45 -200 45 -200 45
483356359.39323 -0.6163277 -7.9568648 -200 45 -200 45 -200 45
484356476.07935 -0.61642492 -7.9668379 -200 45 -200 45 -200 45
485356592.76546 -0.62001812 -7.9804187 -200 45 -200 45 -200 45
486356709.45158 -0.62138915 -7.9856906 -200 45 -200 45 -200 45
487356826.13769 -0.62370747 -7.9982233 -200 45 -200 45 -200 45
488356942.8238 -0.62528116 -8.00142 -200 45 -200 45 -200 45
489357059.50992 -0.62891668 -8.0203142 -200 45 -200 45 -200 45
490357176.19603 -0.6294235 -8.0222721 -200 45 -200 45 -200 45
491357292.88215 -0.63243812 -8.0313358 -200 45 -200 45 -200 45
492357409.56826 -0.63380885 -8.052248 -200 45 -200 45 -200 45
493357526.25438 -0.63575536 -8.0626526 -200 45 -200 45 -200 45
494357642.94049 -0.63658941 -8.0739985 -200 45 -200 45 -200 45
495357759.6266 -0.63926262 -8.0777922 -200 45 -200 45 -200 45
496357876.31272 -0.64048731 -8.0823956 -200 45 -200 45 -200 45
497357992.99883 -0.64283782 -8.1060009 -200 45 -200 45 -200 45
498358109.68495 -0.64465564 -8.1012735 -200 45 -200 45 -200 45
499358226.37106 -0.64718324 -8.1173449 -200 45 -200 45 -200 45
500358343.05718 -0.64773643 -8.1235399 -200 45 -200 45 -200 45
501358459.74329 -0.65177518 -8.1405478 -200 45 -200 45 -200 45
502358576.4294 -0.65343302 -8.1557598 -200 45 -200 45 -200 45
503358693.11552 -0.65651071 -8.1566591 -200 45 -200 45 -200 45
504358809.80163 -0.65631771 -8.1634626 -200 45 -200 45 -200 45
505358926.48775 -0.65781713 -8.173562 -200 45 -200 45 -200 45
506359043.17386 -0.66073996 -8.1805754 -200 45 -200 45 -200 45
507359159.85998 -0.66283458 -8.197114 -200 45 -200 45 -200 45
508359276.54609 -0.6649673 -8.2068062 -200 45 -200 45 -200 45
509359393.23221 -0.66728765 -8.2221937 -200 45 -200 45 -200 45
510359509.91832 -0.66858637 -8.216958 -200 45 -200 45 -200 45
511359626.60443 -0.67015922 -8.2402258 -200 45 -200 45 -200 45
512359743.29055 -0.67210847 -8.2464695 -200 45 -200 45 -200 45
513359859.97666 -0.67340505 -8.2528706 -200 45 -200 45 -200 45
514359976.66278 -0.67541444 -8.2630692 -200 45 -200 45 -200 45
515360093.34889 -0.6781128 -8.2794132 -200 45 -200 45 -200 45
516360210.03501 -0.67883402 -8.2772655 -200 45 -200 45 -200 45
517360326.72112 -0.6821003 -8.2923164 -200 45 -200 45 -200 45
518360443.40723 -0.68388706 -8.3078289 -200 45 -200 45 -200 45
519360560.09335 -0.68574941 -8.3239775 -200 45 -200 45 -200 45
520360676.77946 -0.68682688 -8.3276901 -200 45 -200 45 -200 45
521360793.46558 -0.69026428 -8.3338709 -200 45 -200 45 -200 45
522360910.15169 -0.69104844 -8.350894 -200 45 -200 45 -200 45
523361026.83781 -0.69405937 -8.3651743 -200 45 -200 45 -200 45
524361143.52392 -0.69579124 -8.3735123 -200 45 -200 45 -200 45
525361260.21004 -0.69833571 -8.3806648 -200 45 -200 45 -200 45
526361376.89615 -0.69951969 -8.3857803 -200 45 -200 45 -200 45
527361493.58226 -0.70147824 -8.3978863 -200 45 -200 45 -200 45
528361610.26838 -0.70503867 -8.4131021 -200 45 -200 45 -200 45
529361726.95449 -0.70585388 -8.4173756 -200 45 -200 45 -200 45
530361843.64061 -0.70799655 -8.4272938 -200 45 -200 45 -200 45
531361960.32672 -0.70904577 -8.4364843 -200 45 -200 45 -200 45
532362077.01284 -0.71226406 -8.4409227 -200 45 -200 45 -200 45
533362193.69895 -0.71399647 -8.4651632 -200 45 -200 45 -200 45
534362310.38506 -0.71704197 -8.4615288 -200 45 -200 45 -200 45
535362427.07118 -0.71797913 -8.4646091 -200 45 -200 45 -200 45
536362543.75729 -0.72038603 -8.4885807 -200 45 -200 45 -200 45
537362660.44341 -0.72294921 -8.4865608 -200 45 -200 45 -200 45
538362777.12952 -0.72453696 -8.4931068 -200 45 -200 45 -200 45
539362893.81564 -0.72586548 -8.5017071 -200 45 -200 45 -200 45
540363010.50175 -0.72683609 -8.525547 -200 45 -200 45 -200 45
541363127.18786 -0.72786105 -8.5262699 -200 45 -200 45 -200 45
542363243.87398 -0.7314046 -8.5374823 -200 45 -200 45 -200 45
543363360.56009 -0.73402029 -8.5418434 -200 45 -200 45 -200 45
544363477.24621 -0.73604935 -8.5541363 -200 45 -200 45 -200 45
545363593.93232 -0.73721087 -8.5668888 -200 45 -200 45 -200 45
546363710.61844 -0.73992771 -8.5665884 -200 45 -200 45 -200 45
547363827.30455 -0.74254298 -8.5792513 -200 45 -200 45 -200 45
548363943.99067 -0.74353546 -8.5889435 -200 45 -200 45 -200 45
549364060.67678 -0.7463131 -8.5935163 -200 45 -200 45 -200 45
550364177.36289 -0.74829102 -8.612607 -200 45 -200 45 -200 45
551364294.04901 -0.75062275 -8.6095695 -200 45 -200 45 -200 45
552364410.73512 -0.75234652 -8.6153746 -200 45 -200 45 -200 45
553364527.42124 -0.75531894 -8.6329689 -200 45 -200 45 -200 45
554364644.10735 -0.75581551 -8.6443872 -200 45 -200 45 -200 45
555364760.79347 -0.75830883 -8.6414661 -200 45 -200 45 -200 45
556364877.47958 -0.75962025 -8.655921 -200 45 -200 45 -200 45
557364994.16569 -0.76395518 -8.6633825 -200 45 -200 45 -200 45
558365110.85181 -0.76368701 -8.6801643 -200 45 -200 45 -200 45
559365227.53792 -0.76654178 -8.6803694 -200 45 -200 45 -200 45
560365344.22404 -0.76847118 -8.6890783 -200 45 -200 45 -200 45
561365460.91015 -0.76928324 -8.7007475 -200 45 -200 45 -200 45
562365577.59627 -0.77021098 -8.7103157 -200 45 -200 45 -200 45
563365694.28238 -0.77290124 -8.7170668 -200 45 -200 45 -200 45
564365810.96849 -0.77601248 -8.7199898 -200 45 -200 45 -200 45
565365927.65461 -0.77821237 -8.7330742 -200 45 -200 45 -200 45
566366044.34072 -0.78048837 -8.7432156 -200 45 -200 45 -200 45
567366161.02684 -0.78145111 -8.7461462 -200 45 -200 45 -200 45
568366277.71295 -0.78488046 -8.7611446 -200 45 -200 45 -200 45
569366394.39907 -0.78685272 -8.7730789 -200 45 -200 45 -200 45
570366511.08518 -0.78723007 -8.7741766 -200 45 -200 45 -200 45
571366627.7713 -0.78981191 -8.7849464 -200 45 -200 45 -200 45
572366744.45741 -0.79082644 -8.7895708 -200 45 -200 45 -200 45
573366861.14352 -0.79438037 -8.7923059 -200 45 -200 45 -200 45
574366977.82964 -0.79605567 -8.8177452 -200 45 -200 45 -200 45
575367094.51575 -0.79722655 -8.822382 -200 45 -200 45 -200 45
576367211.20187 -0.79963481 -8.8291368 -200 45 -200 45 -200 45
577367327.88798 -0.80174053 -8.8315563 -200 45 -200 45 -200 45
578367444.5741 -0.8036046 -8.8403435 -200 45 -200 45 -200 45
579367561.26021 -0.80604506 -8.848815 -200 45 -200 45 -200 45
580367677.94632 -0.80794191 -8.8653936 -200 45 -200 45 -200 45
581367794.63244 -0.8097887 -8.8549004 -200 45 -200 45 -200 45
582367911.31855 -0.81199169 -8.8758049 -200 45 -200 45 -200 45
583368028.00467 -0.81435138 -8.8811684 -200 45 -200 45 -200 45
584368144.69078 -0.81620371 -8.8862677 -200 45 -200 45 -200 45
585368261.3769 -0.81820279 -8.8949089 -200 45 -200 45 -200 45
586368378.06301 -0.82086319 -8.9099312 -200 45 -200 45 -200 45
587368494.74912 -0.82175171 -8.9160347 -200 45 -200 45 -200 45
588368611.43524 -0.82534641 -8.9329872 -200 45 -200 45 -200 45
589368728.12135 -0.82646942 -8.9256926 -200 45 -200 45 -200 45
590368844.80747 -0.8283354 -8.9478188 -200 45 -200 45 -200 45
591368961.49358 -0.83028269 -8.9378157 -200 45 -200 45 -200 45
592369078.1797 -0.83314276 -8.9650536 -200 45 -200 45 -200 45
593369194.86581 -0.83450496 -8.9720764 -200 45 -200 45 -200 45
594369311.55193 -0.83651245 -8.9743443 -200 45 -200 45 -200 45
595369428.23804 -0.83882236 -8.9742155 -200 45 -200 45 -200 45
596369544.92415 -0.84072882 -8.9971619 -200 45 -200 45 -200 45
597369661.61027 -0.84272569 -8.9956436 -200 45 -200 45 -200 45
598369778.29638 -0.84448105 -9.0101461 -200 45 -200 45 -200 45
599369894.9825 -0.8476041 -8.9985514 -200 45 -200 45 -200 45
600370011.66861 -0.84937531 -9.0284014 -200 45 -200 45 -200 45
601370128.35473 -0.85019255 -9.0288048 -200 45 -200 45 -200 45
602370245.04084 -0.85262942 -9.0446501 -200 45 -200 45 -200 45
603370361.72695 -0.85542858 -9.0511389 -200 45 -200 45 -200 45
604370478.41307 -0.85731804 -9.0547209 -200 45 -200 45 -200 45
605370595.09918 -0.85895663 -9.0529442 -200 45 -200 45 -200 45
606370711.7853 -0.86210334 -9.0819798 -200 45 -200 45 -200 45
607370828.47141 -0.86213362 -9.0893164 -200 45 -200 45 -200 45
608370945.15753 -0.86497778 -9.0886221 -200 45 -200 45 -200 45
609371061.84364 -0.86655259 -9.1025543 -200 45 -200 45 -200 45
610371178.52976 -0.86936736 -9.1076565 -200 45 -200 45 -200 45
611371295.21587 -0.8708061 -9.1104136 -200 45 -200 45 -200 45
612371411.90198 -0.87369865 -9.1288233 -200 45 -200 45 -200 45
613371528.5881 -0.87630337 -9.1276493 -200 45 -200 45 -200 45
614371645.27421 -0.87687445 -9.1334963 -200 45 -200 45 -200 45
615371761.96033 -0.87983066 -9.1473923 -200 45 -200 45 -200 45
616371878.64644 -0.88136166 -9.1536875 -200 45 -200 45 -200 45
617371995.33256 -0.88368666 -9.159071 -200 45 -200 45 -200 45
618372112.01867 -0.88734192 -9.1651163 -200 45 -200 45 -200 45
619372228.70478 -0.88738418 -9.1882915 -200 45 -200 45 -200 45
620372345.3909 -0.89008635 -9.1773987 -200 45 -200 45 -200 45
621372462.07701 -0.89267987 -9.1874752 -200 45 -200 45 -200 45
622372578.76313 -0.89485669 -9.2017279 -200 45 -200 45 -200 45
623372695.44924 -0.89682353 -9.2136793 -200 45 -200 45 -200 45
624372812.13536 -0.89978284 -9.2202616 -200 45 -200 45 -200 45
625372928.82147 -0.90196514 -9.2326794 -200 45 -200 45 -200 45
626373045.50758 -0.90257722 -9.2354574 -200 45 -200 45 -200 45
627373162.1937 -0.90378666 -9.239501 -200 45 -200 45 -200 45
628373278.87981 -0.90716094 -9.2544441 -200 45 -200 45 -200 45
629373395.56593 -0.90906924 -9.2455206 -200 45 -200 45 -200 45
630373512.25204 -0.91132164 -9.2649441 -200 45 -200 45 -200 45
631373628.93816 -0.91157323 -9.2698212 -200 45 -200 45 -200 45
632373745.62427 -0.91552114 -9.2730513 -200 45 -200 45 -200 45
633373862.31039 -0.91872513 -9.2843666 -200 45 -200 45 -200 45
634373978.9965 -0.91749167 -9.2947016 -200 45 -200 45 -200 45
635374095.68261 -0.92139792 -9.2937574 -200 45 -200 45 -200 45
636374212.36873 -0.92351711 -9.3076839 -200 45 -200 45 -200 45
637374329.05484 -0.92581767 -9.3150387 -200 45 -200 45 -200 45
638374445.74096 -0.9279781 -9.3106003 -200 45 -200 45 -200 45
639374562.42707 -0.93142062 -9.3298512 -200 45 -200 45 -200 45
640374679.11319 -0.93239045 -9.3321409 -200 45 -200 45 -200 45
641374795.7993 -0.93556356 -9.3416042 -200 45 -200 45 -200 45
642374912.48541 -0.93589813 -9.3494673 -200 45 -200 45 -200 45
643375029.17153 -0.93997079 -9.3515577 -200 45 -200 45 -200 45
644375145.85764 -0.94160289 -9.359561 -200 45 -200 45 -200 45
645375262.54376 -0.94296128 -9.3741846 -200 45 -200 45 -200 45
646375379.22987 -0.94595444 -9.3761616 -200 45 -200 45 -200 45
647375495.91599 -0.94591099 -9.3735857 -200 45 -200 45 -200 45
648375612.6021 -0.94958645 -9.3824692 -200 45 -200 45 -200 45
649375729.28821 -0.95172787 -9.3973198 -200 45 -200 45 -200 45
650375845.97433 -0.95274669 -9.3925514 -200 45 -200 45 -200 45
651375962.66044 -0.95493573 -9.4000502 -200 45 -200 45 -200 45
652376079.34656 -0.9578746 -9.411397 -200 45 -200 45 -200 45
653376196.03267 -0.95967484 -9.4192047 -200 45 -200 45 -200 45
654376312.71879 -0.96103275 -9.4183159 -200 45 -200 45 -200 45
655376429.4049 -0.96265215 -9.4297419 -200 45 -200 45 -200 45
656376546.09102 -0.96574396 -9.4354715 -200 45 -200 45 -200 45
657376662.77713 -0.96663672 -9.4438925 -200 45 -200 45 -200 45
658376779.46324 -0.96949482 -9.448555 -200 45 -200 45 -200 45
659376896.14936 -0.97162598 -9.4574518 -200 45 -200 45 -200 45
660377012.83547 -0.97312236 -9.4563808 -200 45 -200 45 -200 45
661377129.52159 -0.97574133 -9.46912 -200 45 -200 45 -200 45
662377246.2077 -0.97590661 -9.4717054 -200 45 -200 45 -200 45
663377362.89382 -0.97990537 -9.4783974 -200 45 -200 45 -200 45
664377479.57993 -0.98101068 -9.4905615 -200 45 -200 45 -200 45
665377596.26604 -0.98353475 -9.4882765 -200 45 -200 45 -200 45
666377712.95216 -0.98531455 -9.4921951 -200 45 -200 45 -200 45
667377829.63827 -0.98853403 -9.501483 -200 45 -200 45 -200 45
668377946.32439 -0.98794121 -9.5063181 -200 45 -200 45 -200 45
669378063.0105 -0.99208701 -9.5191936 -200 45 -200 45 -200 45
670378179.69662 -0.99225456 -9.5231619 -200 45 -200 45 -200 45
671378296.38273 -0.99568754 -9.523118 -200 45 -200 45 -200 45
672378413.06884 -0.99734986 -9.5440702 -200 45 -200 45 -200 45
673378529.75496 -0.9997319 -9.5424128 -200 45 -200 45 -200 45
674378646.44107 -1.0010444 -9.5424614 -200 45 -200 45 -200 45
675378763.12719 -1.003075 -9.5465174 -200 45 -200 45 -200 45
676378879.8133 -1.0067472 -9.5596914 -200 45 -200 45 -200 45
677378996.49942 -1.0075202 -9.576746 -200 45 -200 45 -200 45
678379113.18553 -1.0094372 -9.5760365 -200 45 -200 45 -200 45
679379229.87165 -1.0112845 -9.5688152 -200 45 -200 45 -200 45
680379346.55776 -1.0139221 -9.5812206 -200 45 -200 45 -200 45
681379463.24387 -1.0166227 -9.5901251 -200 45 -200 45 -200 45
682379579.92999 -1.0156015 -9.6042643 -200 45 -200 45 -200 45
683379696.6161 -1.0195607 -9.6036882 -200 45 -200 45 -200 45
684379813.30222 -1.0206844 -9.6115732 -200 45 -200 45 -200 45
685379929.98833 -1.0235854 -9.6116886 -200 45 -200 45 -200 45
686380046.67445 -1.0256816 -9.6265812 -200 45 -200 45 -200 45
687380163.36056 -1.0284733 -9.6408949 -200 45 -200 45 -200 45
688380280.04667 -1.0305778 -9.641736 -200 45 -200 45 -200 45
689380396.73279 -1.0315417 -9.6404352 -200 45 -200 45 -200 45
690380513.4189 -1.0342816 -9.6561642 -200 45 -200 45 -200 45
691380630.10502 -1.0373299 -9.6586647 -200 45 -200 45 -200 45
692380746.79113 -1.0378338 -9.6560678 -200 45 -200 45 -200 45
693380863.47725 -1.0406642 -9.6563225 -200 45 -200 45 -200 45
694380980.16336 -1.0409231 -9.6794109 -200 45 -200 45 -200 45
695381096.84947 -1.0445778 -9.6727142 -200 45 -200 45 -200 45
696381213.53559 -1.0462546 -9.6800985 -200 45 -200 45 -200 45
697381330.2217 -1.047915 -9.6918468 -200 45 -200 45 -200 45
698381446.90782 -1.0521835 -9.697607 -200 45 -200 45 -200 45
699381563.59393 -1.0533106 -9.7094107 -200 45 -200 45 -200 45
700381680.28005 -1.0559956 -9.7121067 -200 45 -200 45 -200 45
701381796.96616 -1.0566285 -9.7216158 -200 45 -200 45 -200 45
702381913.65228 -1.0585346 -9.7262716 -200 45 -200 45 -200 45
703382030.33839 -1.062345 -9.7313395 -200 45 -200 45 -200 45
704382147.0245 -1.062032 -9.7324619 -200 45 -200 45 -200 45
705382263.71062 -1.0650061 -9.7359476 -200 45 -200 45 -200 45
706382380.39673 -1.0662506 -9.7317438 -200 45 -200 45 -200 45
707382497.08285 -1.068728 -9.74646 -200 45 -200 45 -200 45
708382613.76896 -1.0708563 -9.7548285 -200 45 -200 45 -200 45
709382730.45508 -1.0729063 -9.7598982 -200 45 -200 45 -200 45
710382847.14119 -1.0753819 -9.7651358 -200 45 -200 45 -200 45
711382963.8273 -1.076653 -9.7708626 -200 45 -200 45 -200 45
712383080.51342 -1.078127 -9.7709875 -200 45 -200 45 -200 45
713383197.19953 -1.0823067 -9.7827091 -200 45 -200 45 -200 45
714383313.88565 -1.0828481 -9.7888317 -200 45 -200 45 -200 45
715383430.57176 -1.0853068 -9.7956514 -200 45 -200 45 -200 45
716383547.25788 -1.0871783 -9.8057928 -200 45 -200 45 -200 45
717383663.94399 -1.0902324 -9.8014669 -200 45 -200 45 -200 45
718383780.63011 -1.0917208 -9.8049803 -200 45 -200 45 -200 45
719383897.31622 -1.0939268 -9.8187466 -200 45 -200 45 -200 45
720384014.00233 -1.094911 -9.8273382 -200 45 -200 45 -200 45
721384130.68845 -1.0978751 -9.8248034 -200 45 -200 45 -200 45
722384247.37456 -1.0998574 -9.8316727 -200 45 -200 45 -200 45
723384364.06068 -1.1008617 -9.8431854 -200 45 -200 45 -200 45
724384480.74679 -1.1043122 -9.8473234 -200 45 -200 45 -200 45
725384597.43291 -1.1037844 -9.8567057 -200 45 -200 45 -200 45
726384714.11902 -1.1072329 -9.8617373 -200 45 -200 45 -200 45
727384830.80513 -1.1082178 -9.870245 -200 45 -200 45 -200 45
728384947.49125 -1.1109296 -9.8744097 -200 45 -200 45 -200 45
729385064.17736 -1.1118354 -9.8777685 -200 45 -200 45 -200 45
730385180.86348 -1.1151373 -9.8813496 -200 45 -200 45 -200 45
731385297.54959 -1.1177506 -9.8939762 -200 45 -200 45 -200 45
732385414.23571 -1.1191646 -9.9002752 -200 45 -200 45 -200 45
733385530.92182 -1.120188 -9.9102001 -200 45 -200 45 -200 45
734385647.60793 -1.1246412 -9.91506 -200 45 -200 45 -200 45
735385764.29405 -1.126068 -9.9058886 -200 45 -200 45 -200 45
736385880.98016 -1.1281784 -9.912775 -200 45 -200 45 -200 45
737385997.66628 -1.1300319 -9.9319172 -200 45 -200 45 -200 45
738386114.35239 -1.1313447 -9.9261675 -200 45 -200 45 -200 45
739386231.03851 -1.1339537 -9.9316072 -200 45 -200 45 -200 45
740386347.72462 -1.1372702 -9.9390383 -200 45 -200 45 -200 45
741386464.41074 -1.1368625 -9.9510098 -200 45 -200 45 -200 45
742386581.09685 -1.1400824 -9.9523869 -200 45 -200 45 -200 45
743386697.78296 -1.1418967 -9.9589653 -200 45 -200 45 -200 45
744386814.46908 -1.1455735 -9.9650459 -200 45 -200 45 -200 45
745386931.15519 -1.1461569 -9.9663925 -200 45 -200 45 -200 45
746387047.84131 -1.1471527 -9.977232 -200 45 -200 45 -200 45
747387164.52742 -1.1507882 -9.9810724 -200 45 -200 45 -200 45
748387281.21354 -1.1532871 -9.9896641 -200 45 -200 45 -200 45
749387397.89965 -1.1552446 -9.990757 -200 45 -200 45 -200 45
750387514.58576 -1.155156 -10.004648 -200 45 -200 45 -200 45
751387631.27188 -1.1584692 -10.005313 -200 45 -200 45 -200 45
752387747.95799 -1.1608727 -10.014932 -200 45 -200 45 -200 45
753387864.64411 -1.1625273 -10.017222 -200 45 -200 45 -200 45
754387981.33022 -1.1661705 -10.015531 -200 45 -200 45 -200 45
755388098.01634 -1.1665815 -10.017191 -200 45 -200 45 -200 45
756388214.70245 -1.1691339 -10.024195 -200 45 -200 45 -200 45
757388331.38856 -1.1696783 -10.040121 -200 45 -200 45 -200 45
758388448.07468 -1.1729853 -10.050311 -200 45 -200 45 -200 45
759388564.76079 -1.1750463 -10.042947 -200 45 -200 45 -200 45
760388681.44691 -1.1759448 -10.039251 -200 45 -200 45 -200 45
761388798.13302 -1.177935 -10.043618 -200 45 -200 45 -200 45
762388914.81914 -1.1809325 -10.05058 -200 45 -200 45 -200 45
763389031.50525 -1.1813124 -10.066806 -200 45 -200 45 -200 45
764389148.19137 -1.1847986 -10.066001 -200 45 -200 45 -200 45
765389264.87748 -1.185738 -10.084926 -200 45 -200 45 -200 45
766389381.56359 -1.1886014 -10.080295 -200 45 -200 45 -200 45
767389498.24971 -1.1889727 -10.08021 -200 45 -200 45 -200 45
768389614.93582 -1.1933014 -10.088382 -200 45 -200 45 -200 45
769389731.62194 -1.194126 -10.098842 -200 45 -200 45 -200 45
770389848.30805 -1.1966164 -10.087699 -200 45 -200 45 -200 45
771389964.99417 -1.2002453 -10.096762 -200 45 -200 45 -200 45
772390081.68028 -1.2005125 -10.107742 -200 45 -200 45 -200 45
773390198.36639 -1.2027693 -10.116417 -200 45 -200 45 -200 45
774390315.05251 -1.2063336 -10.111473 -200 45 -200 45 -200 45
775390431.73862 -1.2066159 -10.113273 -200 45 -200 45 -200 45
776390548.42474 -1.2096676 -10.122624 -200 45 -200 45 -200 45
777390665.11085 -1.2103448 -10.123015 -200 45 -200 45 -200 45
778390781.79697 -1.2129564 -10.13345 -200 45 -200 45 -200 45
779390898.48308 -1.2160965 -10.136702 -200 45 -200 45 -200 45
780391015.16919 -1.2164973 -10.140997 -200 45 -200 45 -200 45
781391131.85531 -1.2198936 -10.128576 -200 45 -200 45 -200 45
782391248.54142 -1.2210475 -10.146112 -200 45 -200 45 -200 45
783391365.22754 -1.2223814 -10.152016 -200 45 -200 45 -200 45
784391481.91365 -1.2261049 -10.153668 -200 45 -200 45 -200 45
785391598.59977 -1.2270429 -10.156459 -200 45 -200 45 -200 45
786391715.28588 -1.2284918 -10.16328 -200 45 -200 45 -200 45
787391831.972 -1.2316548 -10.172947 -200 45 -200 45 -200 45
788391948.65811 -1.2333876 -10.172039 -200 45 -200 45 -200 45
789392065.34422 -1.2355084 -10.187687 -200 45 -200 45 -200 45
790392182.03034 -1.2383463 -10.176748 -200 45 -200 45 -200 45
791392298.71645 -1.2385482 -10.178791 -200 45 -200 45 -200 45
792392415.40257 -1.2398245 -10.186277 -200 45 -200 45 -200 45
793392532.08868 -1.243996 -10.190919 -200 45 -200 45 -200 45
794392648.7748 -1.2454056 -10.191853 -200 45 -200 45 -200 45
795392765.46091 -1.2472597 -10.203169 -200 45 -200 45 -200 45
796392882.14702 -1.2481664 -10.203564 -200 45 -200 45 -200 45
797392998.83314 -1.2515631 -10.210332 -200 45 -200 45 -200 45
798393115.51925 -1.2538078 -10.206848 -200 45 -200 45 -200 45
799393232.20537 -1.2539115 -10.216054 -200 45 -200 45 -200 45
800393348.89148 -1.2574955 -10.226861 -200 45 -200 45 -200 45
801393465.5776 -1.2588422 -10.235804 -200 45 -200 45 -200 45
802393582.26371 -1.2600381 -10.230512 -200 45 -200 45 -200 45
803393698.94983 -1.2627994 -10.229222 -200 45 -200 45 -200 45
804393815.63594 -1.2647456 -10.242917 -200 45 -200 45 -200 45
805393932.32205 -1.2663401 -10.247869 -200 45 -200 45 -200 45
806394049.00817 -1.2685788 -10.244381 -200 45 -200 45 -200 45
807394165.69428 -1.2700372 -10.25571 -200 45 -200 45 -200 45
808394282.3804 -1.2714322 -10.257952 -200 45 -200 45 -200 45
809394399.06651 -1.2762054 -10.250104 -200 45 -200 45 -200 45
810394515.75263 -1.2753379 -10.278847 -200 45 -200 45 -200 45
811394632.43874 -1.278424 -10.271232 -200 45 -200 45 -200 45
812394749.12485 -1.2808837 -10.273029 -200 45 -200 45 -200 45
813394865.81097 -1.2827393 -10.277972 -200 45 -200 45 -200 45
814394982.49708 -1.2835821 -10.288779 -200 45 -200 45 -200 45
815395099.1832 -1.2863384 -10.277118 -200 45 -200 45 -200 45
816395215.86931 -1.2886511 -10.289998 -200 45 -200 45 -200 45
817395332.55543 -1.2893759 -10.301685 -200 45 -200 45 -200 45
818395449.24154 -1.2921932 -10.295739 -200 45 -200 45 -200 45
819395565.92765 -1.2947029 -10.302703 -200 45 -200 45 -200 45
820395682.61377 -1.2941543 -10.308352 -200 45 -200 45 -200 45
821395799.29988 -1.2986782 -10.322313 -200 45 -200 45 -200 45
822395915.986 -1.2997528 -10.321378 -200 45 -200 45 -200 45
823396032.67211 -1.2993613 -10.326851 -200 45 -200 45 -200 45
824396149.35823 -1.3025247 -10.329312 -200 45 -200 45 -200 45
825396266.04434 -1.3051995 -10.324658 -200 45 -200 45 -200 45
826396382.73046 -1.3078468 -10.337077 -200 45 -200 45 -200 45
827396499.41657 -1.3099973 -10.348958 -200 45 -200 45 -200 45
828396616.10268 -1.3112565 -10.345507 -200 45 -200 45 -200 45
829396732.7888 -1.3140743 -10.357402 -200 45 -200 45 -200 45
830396849.47491 -1.314027 -10.356884 -200 45 -200 45 -200 45
831396966.16103 -1.3167173 -10.358297 -200 45 -200 45 -200 45
832397082.84714 -1.3199536 -10.372434 -200 45 -200 45 -200 45
833397199.53326 -1.3218244 -10.367032 -200 45 -200 45 -200 45
834397316.21937 -1.3218526 -10.369271 -200 45 -200 45 -200 45
835397432.90548 -1.3237976 -10.382657 -200 45 -200 45 -200 45
836397549.5916 -1.326405 -10.379786 -200 45 -200 45 -200 45
837397666.27771 -1.3277898 -10.391108 -200 45 -200 45 -200 45
838397782.96383 -1.329559 -10.388552 -200 45 -200 45 -200 45
839397899.64994 -1.3333298 -10.401964 -200 45 -200 45 -200 45
840398016.33606 -1.3352945 -10.406915 -200 45 -200 45 -200 45
841398133.02217 -1.3383795 -10.410233 -200 45 -200 45 -200 45
842398249.70828 -1.3410623 -10.419369 -200 45 -200 45 -200 45
843398366.3944 -1.3417772 -10.417689 -200 45 -200 45 -200 45
844398483.08051 -1.343727 -10.431642 -200 45 -200 45 -200 45
845398599.76663 -1.3457228 -10.427357 -200 45 -200 45 -200 45
846398716.45274 -1.3479314 -10.43511 -200 45 -200 45 -200 45
847398833.13886 -1.349854 -10.442327 -200 45 -200 45 -200 45
848398949.82497 -1.3520371 -10.436939 -200 45 -200 45 -200 45
849399066.51109 -1.3538896 -10.444497 -200 45 -200 45 -200 45
850399183.1972 -1.3548517 -10.446157 -200 45 -200 45 -200 45
851399299.88331 -1.3563751 -10.454433 -200 45 -200 45 -200 45
852399416.56943 -1.3584702 -10.469663 -200 45 -200 45 -200 45
853399533.25554 -1.3612763 -10.46085 -200 45 -200 45 -200 45
854399649.94166 -1.3623616 -10.468107 -200 45 -200 45 -200 45
855399766.62777 -1.3639354 -10.483338 -200 45 -200 45 -200 45
856399883.31389 -1.3679725 -10.480195 -200 45 -200 45 -200 45
857400000 -1.3691365 -10.480597 -200 45 -200 45 -200 45
858400116.68611 -1.3702283 -10.493557 -200 45 -200 45 -200 45
859400233.37223 -1.3721756 -10.499192 -200 45 -200 45 -200 45
860400350.05834 -1.3744527 -10.499008 -200 45 -200 45 -200 45
861400466.74446 -1.3760822 -10.510571 -200 45 -200 45 -200 45
862400583.43057 -1.3792915 -10.51079 -200 45 -200 45 -200 45
863400700.11669 -1.3798029 -10.515799 -200 45 -200 45 -200 45
864400816.8028 -1.3832308 -10.523969 -200 45 -200 45 -200 45
865400933.48891 -1.3851672 -10.516706 -200 45 -200 45 -200 45
866401050.17503 -1.3882757 -10.536384 -200 45 -200 45 -200 45
867401166.86114 -1.3879098 -10.535572 -200 45 -200 45 -200 45
868401283.54726 -1.3898568 -10.547186 -200 45 -200 45 -200 45
869401400.23337 -1.391589 -10.544167 -200 45 -200 45 -200 45
870401516.91949 -1.3954078 -10.549022 -200 45 -200 45 -200 45
871401633.6056 -1.3960661 -10.558467 -200 45 -200 45 -200 45
872401750.29172 -1.4011985 -10.561334 -200 45 -200 45 -200 45
873401866.97783 -1.4014062 -10.548307 -200 45 -200 45 -200 45
874401983.66394 -1.4027032 -10.57849 -200 45 -200 45 -200 45
875402100.35006 -1.4055787 -10.569663 -200 45 -200 45 -200 45
876402217.03617 -1.4081681 -10.568742 -200 45 -200 45 -200 45
877402333.72229 -1.4087861 -10.569095 -200 45 -200 45 -200 45
878402450.4084 -1.4110825 -10.582067 -200 45 -200 45 -200 45
879402567.09452 -1.412113 -10.588947 -200 45 -200 45 -200 45
880402683.78063 -1.4163145 -10.593476 -200 45 -200 45 -200 45
881402800.46674 -1.4168239 -10.595449 -200 45 -200 45 -200 45
882402917.15286 -1.4184319 -10.597075 -200 45 -200 45 -200 45
883403033.83897 -1.4214771 -10.603229 -200 45 -200 45 -200 45
884403150.52509 -1.4251918 -10.604642 -200 45 -200 45 -200 45
885403267.2112 -1.4252143 -10.613122 -200 45 -200 45 -200 45
886403383.89732 -1.4278536 -10.615133 -200 45 -200 45 -200 45
887403500.58343 -1.4308164 -10.619254 -200 45 -200 45 -200 45
888403617.26954 -1.4325762 -10.617981 -200 45 -200 45 -200 45
889403733.95566 -1.4340262 -10.630935 -200 45 -200 45 -200 45
890403850.64177 -1.4363054 -10.623552 -200 45 -200 45 -200 45
891403967.32789 -1.4376738 -10.63048 -200 45 -200 45 -200 45
892404084.014 -1.441021 -10.642872 -200 45 -200 45 -200 45
893404200.70012 -1.4433216 -10.638457 -200 45 -200 45 -200 45
894404317.38623 -1.4458389 -10.639606 -200 45 -200 45 -200 45
895404434.07235 -1.4470413 -10.651125 -200 45 -200 45 -200 45
896404550.75846 -1.4490323 -10.658354 -200 45 -200 45 -200 45
897404667.44457 -1.4509314 -10.658862 -200 45 -200 45 -200 45
898404784.13069 -1.4533849 -10.657523 -200 45 -200 45 -200 45
899404900.8168 -1.4557948 -10.664398 -200 45 -200 45 -200 45
900405017.50292 -1.4577051 -10.670635 -200 45 -200 45 -200 45
901405134.18903 -1.4597001 -10.654331 -200 45 -200 45 -200 45
902405250.87515 -1.4620348 -10.660951 -200 45 -200 45 -200 45
903405367.56126 -1.4638544 -10.669921 -200 45 -200 45 -200 45
904405484.24737 -1.4664494 -10.670027 -200 45 -200 45 -200 45
905405600.93349 -1.4680595 -10.675065 -200 45 -200 45 -200 45
906405717.6196 -1.4699049 -10.670605 -200 45 -200 45 -200 45
907405834.30572 -1.4723132 -10.680072 -200 45 -200 45 -200 45
908405950.99183 -1.4755192 -10.678481 -200 45 -200 45 -200 45
909406067.67795 -1.4761599 -10.682018 -200 45 -200 45 -200 45
910406184.36406 -1.4780703 -10.689231 -200 45 -200 45 -200 45
911406301.05018 -1.4809885 -10.690111 -200 45 -200 45 -200 45
912406417.73629 -1.4819068 -10.691797 -200 45 -200 45 -200 45
913406534.4224 -1.4853857 -10.703368 -200 45 -200 45 -200 45
914406651.10852 -1.4855055 -10.707056 -200 45 -200 45 -200 45
915406767.79463 -1.4896369 -10.705563 -200 45 -200 45 -200 45
916406884.48075 -1.4908144 -10.705675 -200 45 -200 45 -200 45
917407001.16686 -1.4926583 -10.708167 -200 45 -200 45 -200 45
918407117.85298 -1.4937063 -10.701639 -200 45 -200 45 -200 45
919407234.53909 -1.4973905 -10.704576 -200 45 -200 45 -200 45
920407351.2252 -1.4968245 -10.710271 -200 45 -200 45 -200 45
921407467.91132 -1.5009242 -10.725546 -200 45 -200 45 -200 45
922407584.59743 -1.5033774 -10.72534 -200 45 -200 45 -200 45
923407701.28355 -1.5059892 -10.730588 -200 45 -200 45 -200 45
924407817.96966 -1.5070764 -10.731716 -200 45 -200 45 -200 45
925407934.65578 -1.5087281 -10.73135 -200 45 -200 45 -200 45
926408051.34189 -1.5122318 -10.728315 -200 45 -200 45 -200 45
927408168.028 -1.5124134 -10.73293 -200 45 -200 45 -200 45
928408284.71412 -1.5151387 -10.742473 -200 45 -200 45 -200 45
929408401.40023 -1.5171974 -10.731839 -200 45 -200 45 -200 45
930408518.08635 -1.5185969 -10.742619 -200 45 -200 45 -200 45
931408634.77246 -1.5213627 -10.744981 -200 45 -200 45 -200 45
932408751.45858 -1.5234954 -10.751093 -200 45 -200 45 -200 45
933408868.14469 -1.5251431 -10.733266 -200 45 -200 45 -200 45
934408984.83081 -1.5277749 -10.749556 -200 45 -200 45 -200 45
935409101.51692 -1.5273768 -10.757091 -200 45 -200 45 -200 45
936409218.20303 -1.5291717 -10.754829 -200 45 -200 45 -200 45
937409334.88915 -1.5312083 -10.758301 -200 45 -200 45 -200 45
938409451.57526 -1.5337442 -10.765211 -200 45 -200 45 -200 45
939409568.26138 -1.5380881 -10.777433 -200 45 -200 45 -200 45
940409684.94749 -1.5396852 -10.77319 -200 45 -200 45 -200 45
941409801.63361 -1.5390509 -10.782164 -200 45 -200 45 -200 45
942409918.31972 -1.5430467 -10.779696 -200 45 -200 45 -200 45
943410035.00583 -1.5439814 -10.790779 -200 45 -200 45 -200 45
944410151.69195 -1.5440413 -10.78641 -200 45 -200 45 -200 45
945410268.37806 -1.5480546 -10.801825 -200 45 -200 45 -200 45
946410385.06418 -1.5505298 -10.792458 -200 45 -200 45 -200 45
947410501.75029 -1.5526559 -10.807304 -200 45 -200 45 -200 45
948410618.43641 -1.5530941 -10.80088 -200 45 -200 45 -200 45
949410735.12252 -1.5539567 -10.80376 -200 45 -200 45 -200 45
950410851.80863 -1.5578198 -10.797376 -200 45 -200 45 -200 45
951410968.49475 -1.5580302 -10.801926 -200 45 -200 45 -200 45
952411085.18086 -1.5612732 -10.818734 -200 45 -200 45 -200 45
953411201.86698 -1.5632083 -10.824126 -200 45 -200 45 -200 45
954411318.55309 -1.5662265 -10.820619 -200 45 -200 45 -200 45
955411435.23921 -1.5677289 -10.826639 -200 45 -200 45 -200 45
956411551.92532 -1.5695001 -10.824121 -200 45 -200 45 -200 45
957411668.61144 -1.5719496 -10.839178 -200 45 -200 45 -200 45
958411785.29755 -1.5740893 -10.832202 -200 45 -200 45 -200 45
959411901.98366 -1.5753994 -10.833217 -200 45 -200 45 -200 45
960412018.66978 -1.5761924 -10.837687 -200 45 -200 45 -200 45
961412135.35589 -1.5779666 -10.846422 -200 45 -200 45 -200 45
962412252.04201 -1.5808508 -10.84728 -200 45 -200 45 -200 45
963412368.72812 -1.5830104 -10.842266 -200 45 -200 45 -200 45
964412485.41424 -1.5846194 -10.85833 -200 45 -200 45 -200 45
965412602.10035 -1.5859979 -10.86869 -200 45 -200 45 -200 45
966412718.78646 -1.5878385 -10.865564 -200 45 -200 45 -200 45
967412835.47258 -1.5893171 -10.868272 -200 45 -200 45 -200 45
968412952.15869 -1.5924811 -10.879288 -200 45 -200 45 -200 45
969413068.84481 -1.5953777 -10.878096 -200 45 -200 45 -200 45
970413185.53092 -1.5954651 -10.885268 -200 45 -200 45 -200 45
971413302.21704 -1.5986449 -10.877687 -200 45 -200 45 -200 45
972413418.90315 -1.5998288 -10.879523 -200 45 -200 45 -200 45
973413535.58926 -1.6014342 -10.885005 -200 45 -200 45 -200 45
974413652.27538 -1.6035379 -10.894405 -200 45 -200 45 -200 45
975413768.96149 -1.6067438 -10.90466 -200 45 -200 45 -200 45
976413885.64761 -1.6084305 -10.913925 -200 45 -200 45 -200 45
977414002.33372 -1.6095887 -10.913163 -200 45 -200 45 -200 45
978414119.01984 -1.6112161 -10.917705 -200 45 -200 45 -200 45
979414235.70595 -1.6143005 -10.927411 -200 45 -200 45 -200 45
980414352.39207 -1.6163164 -10.921714 -200 45 -200 45 -200 45
981414469.07818 -1.6184826 -10.926184 -200 45 -200 45 -200 45
982414585.76429 -1.6194844 -10.943338 -200 45 -200 45 -200 45
983414702.45041 -1.6225253 -10.937666 -200 45 -200 45 -200 45
984414819.13652 -1.6244571 -10.937013 -200 45 -200 45 -200 45
985414935.82264 -1.6264349 -10.951164 -200 45 -200 45 -200 45
986415052.50875 -1.6295948 -10.941108 -200 45 -200 45 -200 45
987415169.19487 -1.6301227 -10.94945 -200 45 -200 45 -200 45
988415285.88098 -1.6309192 -10.954397 -200 45 -200 45 -200 45
989415402.56709 -1.6344706 -10.9603 -200 45 -200 45 -200 45
990415519.25321 -1.6360952 -10.966316 -200 45 -200 45 -200 45
991415635.93932 -1.638352 -10.969498 -200 45 -200 45 -200 45
992415752.62544 -1.6406809 -10.967497 -200 45 -200 45 -200 45
993415869.31155 -1.6419876 -10.982664 -200 45 -200 45 -200 45
994415985.99767 -1.6446031 -10.990041 -200 45 -200 45 -200 45
995416102.68378 -1.6473379 -10.982697 -200 45 -200 45 -200 45
996416219.36989 -1.6484092 -10.994447 -200 45 -200 45 -200 45
997416336.05601 -1.651985 -10.992032 -200 45 -200 45 -200 45
998416452.74212 -1.6532474 -10.990052 -200 45 -200 45 -200 45
999416569.42824 -1.6555855 -10.995049 -200 45 -200 45 -200 45
1000416686.1144 -1.6567006 -11.002337 -200 45 -200 45 -200 45
1001416802.8005 -1.6598731 -11.015735 -200 45 -200 45 -200 45
1002416919.4866 -1.6625112 -11.011513 -200 45 -200 45 -200 45
1003417036.1727 -1.6634156 -11.013973 -200 45 -200 45 -200 45
1004417152.8588 -1.6651407 -11.021594 -200 45 -200 45 -200 45
1005417269.5449 -1.6677908 -11.028955 -200 45 -200 45 -200 45
1006417386.231 -1.6705869 -11.028344 -200 45 -200 45 -200 45
1007417502.9172 -1.6731821 -11.033431 -200 45 -200 45 -200 45
1008417619.6033 -1.6747688 -11.032937 -200 45 -200 45 -200 45
1009417736.2894 -1.6764765 -11.044198 -200 45 -200 45 -200 45
1010417852.9755 -1.6789742 -11.045722 -200 45 -200 45 -200 45
1011417969.6616 -1.6801411 -11.056763 -200 45 -200 45 -200 45
1012418086.3477 -1.6842928 -11.051958 -200 45 -200 45 -200 45
1013418203.0338 -1.6862859 -11.058266 -200 45 -200 45 -200 45
1014418319.72 -1.6879086 -11.051608 -200 45 -200 45 -200 45
1015418436.4061 -1.6904958 -11.051951 -200 45 -200 45 -200 45
1016418553.0922 -1.6922143 -11.066505 -200 45 -200 45 -200 45
1017418669.7783 -1.6944882 -11.06248 -200 45 -200 45 -200 45
1018418786.4644 -1.6976831 -11.064556 -200 45 -200 45 -200 45
1019418903.1505 -1.6980642 -11.079405 -200 45 -200 45 -200 45
1020419019.8366 -1.7016437 -11.072587 -200 45 -200 45 -200 45
1021419136.5228 -1.7039685 -11.085129 -200 45 -200 45 -200 45
1022419253.2089 -1.7070212 -11.081798 -200 45 -200 45 -200 45
1023419369.895 -1.7096206 -11.089014 -200 45 -200 45 -200 45
1024419486.5811 -1.7109125 -11.088233 -200 45 -200 45 -200 45
1025419603.2672 -1.7125242 -11.08829 -200 45 -200 45 -200 45
1026419719.9533 -1.7168504 -11.095638 -200 45 -200 45 -200 45
1027419836.6394 -1.718029 -11.098658 -200 45 -200 45 -200 45
1028419953.3256 -1.7196364 -11.099505 -200 45 -200 45 -200 45
1029420070.0117 -1.7216084 -11.111495 -200 45 -200 45 -200 45
1030420186.6978 -1.7246227 -11.10635 -200 45 -200 45 -200 45
1031420303.3839 -1.7269368 -11.110102 -200 45 -200 45 -200 45
1032420420.07 -1.728793 -11.1142 -200 45 -200 45 -200 45
1033420536.7561 -1.7310915 -11.114554 -200 45 -200 45 -200 45
1034420653.4422 -1.7334149 -11.115096 -200 45 -200 45 -200 45
1035420770.1284 -1.7362324 -11.1204 -200 45 -200 45 -200 45
1036420886.8145 -1.7367479 -11.126688 -200 45 -200 45 -200 45
1037421003.5006 -1.739447 -11.13245 -200 45 -200 45 -200 45
1038421120.1867 -1.7414373 -11.143402 -200 45 -200 45 -200 45
1039421236.8728 -1.7451935 -11.136311 -200 45 -200 45 -200 45
1040421353.5589 -1.7472035 -11.146277 -200 45 -200 45 -200 45
1041421470.245 -1.7512498 -11.140191 -200 45 -200 45 -200 45
1042421586.9312 -1.7531002 -11.14249 -200 45 -200 45 -200 45
1043421703.6173 -1.7538599 -11.156466 -200 45 -200 45 -200 45
1044421820.3034 -1.7567854 -11.16118 -200 45 -200 45 -200 45
1045421936.9895 -1.758139 -11.152531 -200 45 -200 45 -200 45
1046422053.6756 -1.7597904 -11.163814 -200 45 -200 45 -200 45
1047422170.3617 -1.7640374 -11.156894 -200 45 -200 45 -200 45
1048422287.0478 -1.7666105 -11.164889 -200 45 -200 45 -200 45
1049422403.734 -1.7677307 -11.160297 -200 45 -200 45 -200 45
1050422520.4201 -1.7699277 -11.170405 -200 45 -200 45 -200 45
1051422637.1062 -1.7735475 -11.182526 -200 45 -200 45 -200 45
1052422753.7923 -1.7750895 -11.180447 -200 45 -200 45 -200 45
1053422870.4784 -1.7767853 -11.186588 -200 45 -200 45 -200 45
1054422987.1645 -1.7811214 -11.192998 -200 45 -200 45 -200 45
1055423103.8506 -1.7847294 -11.192522 -200 45 -200 45 -200 45
1056423220.5368 -1.7874397 -11.195014 -200 45 -200 45 -200 45
1057423337.2229 -1.7893404 -11.194453 -200 45 -200 45 -200 45
1058423453.909 -1.7919695 -11.181032 -200 45 -200 45 -200 45
1059423570.5951 -1.7910788 -11.182664 -200 45 -200 45 -200 45
1060423687.2812 -1.793362 -11.189182 -200 45 -200 45 -200 45
1061423803.9673 -1.796245 -11.200593 -200 45 -200 45 -200 45
1062423920.6534 -1.7979203 -11.207316 -200 45 -200 45 -200 45
1063424037.3396 -1.8004876 -11.22014 -200 45 -200 45 -200 45
1064424154.0257 -1.8034209 -11.223534 -200 45 -200 45 -200 45
1065424270.7118 -1.8052524 -11.219269 -200 45 -200 45 -200 45
1066424387.3979 -1.8072295 -11.224743 -200 45 -200 45 -200 45
1067424504.084 -1.8106781 -11.242537 -200 45 -200 45 -200 45
1068424620.7701 -1.8130409 -11.228349 -200 45 -200 45 -200 45
1069424737.4562 -1.8146379 -11.227269 -200 45 -200 45 -200 45
1070424854.1424 -1.8187538 -11.232255 -200 45 -200 45 -200 45
1071424970.8285 -1.8187294 -11.238255 -200 45 -200 45 -200 45
1072425087.5146 -1.819502 -11.261796 -200 45 -200 45 -200 45
1073425204.2007 -1.8242174 -11.258766 -200 45 -200 45 -200 45
1074425320.8868 -1.8251994 -11.274891 -200 45 -200 45 -200 45
1075425437.5729 -1.8271616 -11.269682 -200 45 -200 45 -200 45
1076425554.259 -1.8299589 -11.273067 -200 45 -200 45 -200 45
1077425670.9452 -1.8317306 -11.28406 -200 45 -200 45 -200 45
1078425787.6313 -1.8351091 -11.299426 -200 45 -200 45 -200 45
1079425904.3174 -1.8365744 -11.305035 -200 45 -200 45 -200 45
1080426021.0035 -1.8401955 -11.309729 -200 45 -200 45 -200 45
1081426137.6896 -1.8415059 -11.31714 -200 45 -200 45 -200 45
1082426254.3757 -1.8451481 -11.32548 -200 45 -200 45 -200 45
1083426371.0618 -1.8480728 -11.345089 -200 45 -200 45 -200 45
1084426487.748 -1.8507041 -11.340328 -200 45 -200 45 -200 45
1085426604.4341 -1.851897 -11.347906 -200 45 -200 45 -200 45
1086426721.1202 -1.8541101 -11.368302 -200 45 -200 45 -200 45
1087426837.8063 -1.8587899 -11.367445 -200 45 -200 45 -200 45
1088426954.4924 -1.862339 -11.370788 -200 45 -200 45 -200 45
1089427071.1785 -1.8642794 -11.384161 -200 45 -200 45 -200 45
1090427187.8646 -1.8649033 -11.400603 -200 45 -200 45 -200 45
1091427304.5508 -1.8703198 -11.412459 -200 45 -200 45 -200 45
1092427421.2369 -1.8731424 -11.426531 -200 45 -200 45 -200 45
1093427537.923 -1.8755672 -11.440175 -200 45 -200 45 -200 45
1094427654.6091 -1.8802665 -11.458965 -200 45 -200 45 -200 45
1095427771.2952 -1.8833872 -11.455726 -200 45 -200 45 -200 45
1096427887.9813 -1.885067 -11.481181 -200 45 -200 45 -200 45
1097428004.6674 -1.8901858 -11.493786 -200 45 -200 45 -200 45
1098428121.3536 -1.8952286 -11.521126 -200 45 -200 45 -200 45
1099428238.0397 -1.9007384 -11.523183 -200 45 -200 45 -200 45
1100428354.7258 -1.9058255 -11.530986 -200 45 -200 45 -200 45
1101428471.4119 -1.909222 -11.533502 -200 45 -200 45 -200 45
1102428588.098 -1.9108464 -11.533385 -200 45 -200 45 -200 45
1103428704.7841 -1.9133197 -11.556898 -200 45 -200 45 -200 45
1104428821.4702 -1.917449 -11.586573 -200 45 -200 45 -200 45
1105428938.1564 -1.9223922 -11.624742 -200 45 -200 45 -200 45
1106429054.8425 -1.9284015 -11.650033 -200 45 -200 45 -200 45
1107429171.5286 -1.9362893 -11.676008 -200 45 -200 45 -200 45
1108429288.2147 -1.9436524 -11.689257 -200 45 -200 45 -200 45
1109429404.9008 -1.9544762 -11.723877 -200 45 -200 45 -200 45
1110429521.5869 -1.964578 -11.737962 -200 45 -200 45 -200 45
1111429638.273 -1.9780018 -11.718649 -200 45 -200 45 -200 45
1112429754.9592 -1.9863746 -11.680103 -200 45 -200 45 -200 45
1113429871.6453 -1.9916803 -11.630335 -200 45 -200 45 -200 45
1114429988.3314 -1.9931735 -11.593342 -200 45 -200 45 -200 45
1115430105.0175 -1.9911996 -11.550356 -200 45 -200 45 -200 45
1116430221.7036 -1.9822794 -11.592054 -200 45 -200 45 -200 45
1117430338.3897 -1.9833275 -11.664664 -200 45 -200 45 -200 45
1118430455.0758 -1.9882371 -11.711284 -200 45 -200 45 -200 45
1119430571.762 -1.9898708 -11.789744 -200 45 -200 45 -200 45
1120430688.4481 -1.9963803 -11.876688 -200 45 -200 45 -200 45
1121430805.1342 -2.0069702 -11.964882 -200 45 -200 45 -200 45
1122430921.8203 -2.0198057 -12.037519 -200 45 -200 45 -200 45
1123431038.5064 -2.0326936 -12.128116 -200 45 -200 45 -200 45
1124431155.1925 -2.0512822 -12.222013 -200 45 -200 45 -200 45
1125431271.8786 -2.0688877 -12.321346 -200 45 -200 45 -200 45
1126431388.5648 -2.0938504 -12.462759 -200 45 -200 45 -200 45
1127431505.2509 -2.1304092 -12.603114 -200 45 -200 45 -200 45
1128431621.937 -2.1711152 -12.713213 -200 45 -200 45 -200 45
1129431738.6231 -2.2276278 -12.846151 -200 45 -200 45 -200 45
1130431855.3092 -2.2980716 -12.91804 -200 45 -200 45 -200 45
1131431971.9953 -2.3870633 -12.915488 -200 45 -200 45 -200 45
1132432088.6814 -2.505985 -12.798753 -200 45 -200 45 -200 45
1133432205.3676 -2.659224 -12.188506 -200 45 -200 45 -200 45
1134432322.0537 -2.7562306 -11.020164 -200 45 -200 45 -200 45
1135432438.7398 -2.7541289 -9.6526098 -200 45 -200 45 -200 45
1136432555.4259 -2.6718602 -8.6035862 -200 45 -200 45 -200 45
1137432672.112 -2.5799992 -7.9248524 -200 45 -200 45 -200 45
1138432788.7981 -2.4745533 -7.377634 -200 45 -200 45 -200 45
1139432905.4842 -2.3771634 -7.0986485 -200 45 -200 45 -200 45
1140433022.1704 -2.2752817 -6.7759686 -200 45 -200 45 -200 45
1141433138.8565 -2.1450431 -6.651432 -200 45 -200 45 -200 45
1142433255.5426 -2.0191216 -6.9057093 -200 45 -200 45 -200 45
1143433372.2287 -1.9388046 -7.3658118 -200 45 -200 45 -200 45
1144433488.9148 -1.8947848 -7.8082981 -200 45 -200 45 -200 45
1145433605.6009 -1.8690183 -8.2047396 -200 45 -200 45 -200 45
1146433722.287 -1.8570663 -8.5340233 -200 45 -200 45 -200 45
1147433838.9732 -1.8518051 -8.8118162 -200 45 -200 45 -200 45
1148433955.6593 -1.8531101 -9.0262327 -200 45 -200 45 -200 45
1149434072.3454 -1.854124 -9.2145176 -200 45 -200 45 -200 45
1150434189.0315 -1.8560275 -9.3574104 -200 45 -200 45 -200 45
1151434305.7176 -1.8616037 -9.5070257 -200 45 -200 45 -200 45
1152434422.4037 -1.8678473 -9.6329517 -200 45 -200 45 -200 45
1153434539.0898 -1.8774858 -9.7193279 -200 45 -200 45 -200 45
1154434655.776 -1.882188 -9.7793016 -200 45 -200 45 -200 45
1155434772.4621 -1.8830521 -9.8430033 -200 45 -200 45 -200 45
1156434889.1482 -1.888476 -9.9037552 -200 45 -200 45 -200 45
1157435005.8343 -1.8912339 -9.9531679 -200 45 -200 45 -200 45
1158435122.5204 -1.8939917 -10.008559 -200 45 -200 45 -200 45
1159435239.2065 -1.8980509 -10.065632 -200 45 -200 45 -200 45
1160435355.8926 -1.9013178 -10.110629 -200 45 -200 45 -200 45
1161435472.5788 -1.9066085 -10.147014 -200 45 -200 45 -200 45
1162435589.2649 -1.9123595 -10.184306 -200 45 -200 45 -200 45
1163435705.951 -1.919908 -10.194206 -200 45 -200 45 -200 45
1164435822.6371 -1.9167559 -10.178603 -200 45 -200 45 -200 45
1165435939.3232 -1.9174773 -10.236283 -200 45 -200 45 -200 45
1166436056.0093 -1.9189789 -10.250994 -200 45 -200 45 -200 45
1167436172.6954 -1.9201488 -10.284359 -200 45 -200 45 -200 45
1168436289.3816 -1.9242544 -10.313244 -200 45 -200 45 -200 45
1169436406.0677 -1.926921 -10.341947 -200 45 -200 45 -200 45
1170436522.7538 -1.9297302 -10.369836 -200 45 -200 45 -200 45
1171436639.4399 -1.9312321 -10.385587 -200 45 -200 45 -200 45
1172436756.126 -1.9355721 -10.411079 -200 45 -200 45 -200 45
1173436872.8121 -1.9398416 -10.430798 -200 45 -200 45 -200 45
1174436989.4982 -1.9396806 -10.440749 -200 45 -200 45 -200 45
1175437106.1844 -1.9444551 -10.462944 -200 45 -200 45 -200 45
1176437222.8705 -1.9467102 -10.488062 -200 45 -200 45 -200 45
1177437339.5566 -1.9480052 -10.482779 -200 45 -200 45 -200 45
1178437456.2427 -1.9517611 -10.508829 -200 45 -200 45 -200 45
1179437572.9288 -1.9544609 -10.525929 -200 45 -200 45 -200 45
1180437689.6149 -1.9574605 -10.533276 -200 45 -200 45 -200 45
1181437806.3011 -1.9606102 -10.543732 -200 45 -200 45 -200 45
1182437922.9872 -1.9614913 -10.556798 -200 45 -200 45 -200 45
1183438039.6733 -1.9631214 -10.580452 -200 45 -200 45 -200 45
1184438156.3594 -1.9681544 -10.573904 -200 45 -200 45 -200 45
1185438273.0455 -1.9672276 -10.570381 -200 45 -200 45 -200 45
1186438389.7316 -1.9707972 -10.598221 -200 45 -200 45 -200 45
1187438506.4177 -1.9745492 -10.604788 -200 45 -200 45 -200 45
1188438623.1039 -1.9761577 -10.613218 -200 45 -200 45 -200 45
1189438739.79 -1.9773003 -10.612558 -200 45 -200 45 -200 45
1190438856.4761 -1.9812727 -10.634842 -200 45 -200 45 -200 45
1191438973.1622 -1.9832078 -10.648129 -200 45 -200 45 -200 45
1192439089.8483 -1.9856336 -10.65377 -200 45 -200 45 -200 45
1193439206.5344 -1.9885637 -10.672566 -200 45 -200 45 -200 45
1194439323.2205 -1.9899302 -10.671227 -200 45 -200 45 -200 45
1195439439.9067 -1.9938617 -10.664281 -200 45 -200 45 -200 45
1196439556.5928 -1.9949958 -10.685508 -200 45 -200 45 -200 45
1197439673.2789 -1.9979954 -10.68547 -200 45 -200 45 -200 45
1198439789.965 -1.9995112 -10.695114 -200 45 -200 45 -200 45
1199439906.6511 -2.0014663 -10.699748 -200 45 -200 45 -200 45
1200440023.3372 -2.0037591 -10.705567 -200 45 -200 45 -200 45
1201440140.0233 -2.006053 -10.718536 -200 45 -200 45 -200 45
1202440256.7095 -2.0071895 -10.710798 -200 45 -200 45 -200 45
1203440373.3956 -2.0110567 -10.722284 -200 45 -200 45 -200 45
1204440490.0817 -2.0128145 -10.737249 -200 45 -200 45 -200 45
1205440606.7678 -2.0156703 -10.73976 -200 45 -200 45 -200 45
1206440723.4539 -2.0166149 -10.739172 -200 45 -200 45 -200 45
1207440840.14 -2.0202174 -10.746212 -200 45 -200 45 -200 45
1208440956.8261 -2.0206182 -10.763567 -200 45 -200 45 -200 45
1209441073.5123 -2.0225902 -10.762565 -200 45 -200 45 -200 45
1210441190.1984 -2.0242765 -10.763661 -200 45 -200 45 -200 45
1211441306.8845 -2.0279541 -10.772687 -200 45 -200 45 -200 45
1212441423.5706 -2.0296745 -10.774989 -200 45 -200 45 -200 45
1213441540.2567 -2.0315533 -10.773971 -200 45 -200 45 -200 45
1214441656.9428 -2.0360191 -10.779034 -200 45 -200 45 -200 45
1215441773.6289 -2.0368907 -10.780832 -200 45 -200 45 -200 45
1216441890.3151 -2.0374644 -10.790045 -200 45 -200 45 -200 45
1217442007.0012 -2.0406291 -10.79857 -200 45 -200 45 -200 45
1218442123.6873 -2.0427835 -10.800462 -200 45 -200 45 -200 45
1219442240.3734 -2.0449278 -10.804516 -200 45 -200 45 -200 45
1220442357.0595 -2.0464804 -10.810387 -200 45 -200 45 -200 45
1221442473.7456 -2.0503728 -10.803823 -200 45 -200 45 -200 45
1222442590.4317 -2.0507226 -10.811219 -200 45 -200 45 -200 45
1223442707.1179 -2.0541658 -10.815336 -200 45 -200 45 -200 45
1224442823.804 -2.0552709 -10.831331 -200 45 -200 45 -200 45
1225442940.4901 -2.0571823 -10.825201 -200 45 -200 45 -200 45
1226443057.1762 -2.0593841 -10.83071 -200 45 -200 45 -200 45
1227443173.8623 -2.0609474 -10.831468 -200 45 -200 45 -200 45
1228443290.5484 -2.0644612 -10.836159 -200 45 -200 45 -200 45
1229443407.2345 -2.0663917 -10.844033 -200 45 -200 45 -200 45
1230443523.9207 -2.0692928 -10.833018 -200 45 -200 45 -200 45
1231443640.6068 -2.0720375 -10.845945 -200 45 -200 45 -200 45
1232443757.2929 -2.0733838 -10.852228 -200 45 -200 45 -200 45
1233443873.979 -2.0737627 -10.853588 -200 45 -200 45 -200 45
1234443990.6651 -2.0787463 -10.859995 -200 45 -200 45 -200 45
1235444107.3512 -2.0806656 -10.872633 -200 45 -200 45 -200 45
1236444224.0373 -2.0821764 -10.872941 -200 45 -200 45 -200 45
1237444340.7235 -2.0839641 -10.876546 -200 45 -200 45 -200 45
1238444457.4096 -2.0878277 -10.875522 -200 45 -200 45 -200 45
1239444574.0957 -2.0914648 -10.894068 -200 45 -200 45 -200 45
1240444690.7818 -2.0974102 -10.895463 -200 45 -200 45 -200 45
1241444807.4679 -2.0995922 -10.895892 -200 45 -200 45 -200 45
1242444924.154 -2.1061587 -10.895859 -200 45 -200 45 -200 45
1243445040.8401 -2.1121678 -10.873676 -200 45 -200 45 -200 45
1244445157.5263 -2.1140096 -10.836838 -200 45 -200 45 -200 45
1245445274.2124 -2.1161792 -10.831015 -200 45 -200 45 -200 45
1246445390.8985 -2.1180623 -10.819046 -200 45 -200 45 -200 45
1247445507.5846 -2.1203635 -10.80036 -200 45 -200 45 -200 45
1248445624.2707 -2.1220028 -10.765369 -200 45 -200 45 -200 45
1249445740.9568 -2.121062 -10.739585 -200 45 -200 45 -200 45
1250445857.6429 -2.1180475 -10.719731 -200 45 -200 45 -200 45
1251445974.3291 -2.1149435 -10.717646 -200 45 -200 45 -200 45
1252446091.0152 -2.1160257 -10.73355 -200 45 -200 45 -200 45
1253446207.7013 -2.1151733 -10.740992 -200 45 -200 45 -200 45
1254446324.3874 -2.1170633 -10.739576 -200 45 -200 45 -200 45
1255446441.0735 -2.114641 -10.729744 -200 45 -200 45 -200 45
1256446557.7596 -2.1127155 -10.753705 -200 45 -200 45 -200 45
1257446674.4457 -2.1137295 -10.77927 -200 45 -200 45 -200 45
1258446791.1319 -2.1160932 -10.780876 -200 45 -200 45 -200 45
1259446907.818 -2.1166339 -10.785631 -200 45 -200 45 -200 45
1260447024.5041 -2.1196747 -10.799784 -200 45 -200 45 -200 45
1261447141.1902 -2.1220424 -10.823108 -200 45 -200 45 -200 45
1262447257.8763 -2.1232851 -10.825427 -200 45 -200 45 -200 45
1263447374.5624 -2.12533 -10.807447 -200 45 -200 45 -200 45
1264447491.2485 -2.1284535 -10.824002 -200 45 -200 45 -200 45
1265447607.9347 -2.1296194 -10.833378 -200 45 -200 45 -200 45
1266447724.6208 -2.1324203 -10.825822 -200 45 -200 45 -200 45
1267447841.3069 -2.1353884 -10.827341 -200 45 -200 45 -200 45
1268447957.993 -2.1361101 -10.824624 -200 45 -200 45 -200 45
1269448074.6791 -2.1389241 -10.836769 -200 45 -200 45 -200 45
1270448191.3652 -2.1391222 -10.829276 -200 45 -200 45 -200 45
1271448308.0513 -2.1421158 -10.848521 -200 45 -200 45 -200 45
1272448424.7375 -2.1447814 -10.841556 -200 45 -200 45 -200 45
1273448541.4236 -2.1459186 -10.846013 -200 45 -200 45 -200 45
1274448658.1097 -2.1477966 -10.853481 -200 45 -200 45 -200 45
1275448774.7958 -2.1490719 -10.846709 -200 45 -200 45 -200 45
1276448891.4819 -2.1518309 -10.848446 -200 45 -200 45 -200 45
1277449008.168 -2.1526318 -10.84613 -200 45 -200 45 -200 45
1278449124.8541 -2.1556823 -10.856229 -200 45 -200 45 -200 45
1279449241.5403 -2.1565039 -10.854543 -200 45 -200 45 -200 45
1280449358.2264 -2.1605825 -10.847517 -200 45 -200 45 -200 45
1281449474.9125 -2.1604753 -10.857727 -200 45 -200 45 -200 45
1282449591.5986 -2.1626413 -10.855725 -200 45 -200 45 -200 45
1283449708.2847 -2.164762 -10.85767 -200 45 -200 45 -200 45
1284449824.9708 -2.1674855 -10.85568 -200 45 -200 45 -200 45
1285449941.6569 -2.1690071 -10.864182 -200 45 -200 45 -200 45
1286450058.3431 -2.1715813 -10.870914 -200 45 -200 45 -200 45
1287450175.0292 -2.1736069 -10.866201 -200 45 -200 45 -200 45
1288450291.7153 -2.1756437 -10.866341 -200 45 -200 45 -200 45
1289450408.4014 -2.1769097 -10.850924 -200 45 -200 45 -200 45
1290450525.0875 -2.179682 -10.868732 -200 45 -200 45 -200 45
1291450641.7736 -2.1804857 -10.868048 -200 45 -200 45 -200 45
1292450758.4597 -2.1817093 -10.86711 -200 45 -200 45 -200 45
1293450875.1459 -2.1844563 -10.866287 -200 45 -200 45 -200 45
1294450991.832 -2.1860588 -10.873706 -200 45 -200 45 -200 45
1295451108.5181 -2.1885552 -10.8734 -200 45 -200 45 -200 45
1296451225.2042 -2.1902511 -10.869064 -200 45 -200 45 -200 45
1297451341.8903 -2.1926131 -10.867775 -200 45 -200 45 -200 45
1298451458.5764 -2.1921022 -10.875459 -200 45 -200 45 -200 45
1299451575.2625 -2.1954265 -10.886333 -200 45 -200 45 -200 45
1300451691.9487 -2.1982894 -10.866357 -200 45 -200 45 -200 45
1301451808.6348 -2.1981974 -10.879562 -200 45 -200 45 -200 45
1302451925.3209 -2.2002361 -10.878554 -200 45 -200 45 -200 45
1303452042.007 -2.202992 -10.870308 -200 45 -200 45 -200 45
1304452158.6931 -2.2056394 -10.882236 -200 45 -200 45 -200 45
1305452275.3792 -2.2055833 -10.883942 -200 45 -200 45 -200 45
1306452392.0653 -2.2091801 -10.892859 -200 45 -200 45 -200 45
1307452508.7515 -2.2112138 -10.882528 -200 45 -200 45 -200 45
1308452625.4376 -2.2115085 -10.882257 -200 45 -200 45 -200 45
1309452742.1237 -2.2160189 -10.883659 -200 45 -200 45 -200 45
1310452858.8098 -2.2160857 -10.883355 -200 45 -200 45 -200 45
1311452975.4959 -2.2174666 -10.89103 -200 45 -200 45 -200 45
1312453092.182 -2.2197547 -10.891718 -200 45 -200 45 -200 45
1313453208.8681 -2.2224436 -10.88905 -200 45 -200 45 -200 45
1314453325.5543 -2.223623 -10.894303 -200 45 -200 45 -200 45
1315453442.2404 -2.2265863 -10.890144 -200 45 -200 45 -200 45
1316453558.9265 -2.226882 -10.892659 -200 45 -200 45 -200 45
1317453675.6126 -2.2272775 -10.898835 -200 45 -200 45 -200 45
1318453792.2987 -2.2319863 -10.887415 -200 45 -200 45 -200 45
1319453908.9848 -2.2343497 -10.892248 -200 45 -200 45 -200 45
1320454025.6709 -2.2378817 -10.892063 -200 45 -200 45 -200 45
1321454142.3571 -2.2396553 -10.884731 -200 45 -200 45 -200 45
1322454259.0432 -2.2408664 -10.879745 -200 45 -200 45 -200 45
1323454375.7293 -2.2417085 -10.875972 -200 45 -200 45 -200 45
1324454492.4154 -2.2423363 -10.877871 -200 45 -200 45 -200 45
1325454609.1015 -2.2435699 -10.872554 -200 45 -200 45 -200 45
1326454725.7876 -2.2462783 -10.870931 -200 45 -200 45 -200 45
1327454842.4737 -2.24699 -10.879992 -200 45 -200 45 -200 45
1328454959.1599 -2.249192 -10.878198 -200 45 -200 45 -200 45
1329455075.846 -2.2509608 -10.880339 -200 45 -200 45 -200 45
1330455192.5321 -2.2511716 -10.880774 -200 45 -200 45 -200 45
1331455309.2182 -2.2528257 -10.880998 -200 45 -200 45 -200 45
1332455425.9043 -2.2554457 -10.881997 -200 45 -200 45 -200 45
1333455542.5904 -2.2571599 -10.89208 -200 45 -200 45 -200 45
1334455659.2765 -2.2592919 -10.885926 -200 45 -200 45 -200 45
1335455775.9627 -2.2608774 -10.890979 -200 45 -200 45 -200 45
1336455892.6488 -2.2620673 -10.891114 -200 45 -200 45 -200 45
1337456009.3349 -2.2649894 -10.881208 -200 45 -200 45 -200 45
1338456126.021 -2.2646813 -10.887561 -200 45 -200 45 -200 45
1339456242.7071 -2.2683864 -10.896268 -200 45 -200 45 -200 45
1340456359.3932 -2.2690847 -10.886712 -200 45 -200 45 -200 45
1341456476.0793 -2.2727597 -10.886911 -200 45 -200 45 -200 45
1342456592.7655 -2.2724373 -10.902331 -200 45 -200 45 -200 45
1343456709.4516 -2.2768617 -10.892633 -200 45 -200 45 -200 45
1344456826.1377 -2.2782896 -10.895053 -200 45 -200 45 -200 45
1345456942.8238 -2.2787523 -10.888415 -200 45 -200 45 -200 45
1346457059.5099 -2.2811913 -10.895616 -200 45 -200 45 -200 45
1347457176.196 -2.2853332 -10.891376 -200 45 -200 45 -200 45
1348457292.8821 -2.2844646 -10.892722 -200 45 -200 45 -200 45
1349457409.5683 -2.2865093 -10.896083 -200 45 -200 45 -200 45
1350457526.2544 -2.2886441 -10.895664 -200 45 -200 45 -200 45
1351457642.9405 -2.2920189 -10.890077 -200 45 -200 45 -200 45
1352457759.6266 -2.29228 -10.892038 -200 45 -200 45 -200 45
1353457876.3127 -2.2941072 -10.895257 -200 45 -200 45 -200 45
1354457992.9988 -2.2949038 -10.896154 -200 45 -200 45 -200 45
1355458109.6849 -2.2978725 -10.887454 -200 45 -200 45 -200 45
1356458226.3711 -2.2996058 -10.883604 -200 45 -200 45 -200 45
1357458343.0572 -2.3020997 -10.891355 -200 45 -200 45 -200 45
1358458459.7433 -2.3026037 -10.894666 -200 45 -200 45 -200 45
1359458576.4294 -2.3048539 -10.896748 -200 45 -200 45 -200 45
1360458693.1155 -2.3086977 -10.883954 -200 45 -200 45 -200 45
1361458809.8016 -2.3087294 -10.886816 -200 45 -200 45 -200 45
1362458926.4877 -2.3097687 -10.888479 -200 45 -200 45 -200 45
1363459043.1739 -2.3120351 -10.889531 -200 45 -200 45 -200 45
1364459159.86 -2.3156555 -10.893188 -200 45 -200 45 -200 45
1365459276.5461 -2.3153501 -10.887351 -200 45 -200 45 -200 45
1366459393.2322 -2.3184547 -10.89672 -200 45 -200 45 -200 45
1367459509.9183 -2.3190534 -10.888477 -200 45 -200 45 -200 45
1368459626.6044 -2.3201928 -10.873406 -200 45 -200 45 -200 45
1369459743.2905 -2.3228819 -10.875671 -200 45 -200 45 -200 45
1370459859.9767 -2.3249936 -10.880717 -200 45 -200 45 -200 45
1371459976.6628 -2.3271475 -10.879807 -200 45 -200 45 -200 45
1372460093.3489 -2.3257201 -10.878492 -200 45 -200 45 -200 45
1373460210.035 -2.3296049 -10.884549 -200 45 -200 45 -200 45
1374460326.7211 -2.3322995 -10.88107 -200 45 -200 45 -200 45
1375460443.4072 -2.3339577 -10.878686 -200 45 -200 45 -200 45
1376460560.0933 -2.3363154 -10.878568 -200 45 -200 45 -200 45
1377460676.7795 -2.3380432 -10.876663 -200 45 -200 45 -200 45
1378460793.4656 -2.3404169 -10.880415 -200 45 -200 45 -200 45
1379460910.1517 -2.3413284 -10.894692 -200 45 -200 45 -200 45
1380461026.8378 -2.3413649 -10.871529 -200 45 -200 45 -200 45
1381461143.5239 -2.3444774 -10.875106 -200 45 -200 45 -200 45
1382461260.21 -2.3471382 -10.87291 -200 45 -200 45 -200 45
1383461376.8961 -2.3473556 -10.879966 -200 45 -200 45 -200 45
1384461493.5823 -2.351496 -10.874447 -200 45 -200 45 -200 45
1385461610.2684 -2.3530433 -10.880742 -200 45 -200 45 -200 45
1386461726.9545 -2.3555372 -10.878896 -200 45 -200 45 -200 45
1387461843.6406 -2.3558006 -10.876093 -200 45 -200 45 -200 45
1388461960.3267 -2.3574424 -10.869025 -200 45 -200 45 -200 45
1389462077.0128 -2.3596425 -10.866206 -200 45 -200 45 -200 45
1390462193.6989 -2.3607128 -10.862242 -200 45 -200 45 -200 45
1391462310.3851 -2.3629169 -10.868525 -200 45 -200 45 -200 45
1392462427.0712 -2.3651814 -10.857944 -200 45 -200 45 -200 45
1393462543.7573 -2.3660939 -10.868592 -200 45 -200 45 -200 45
1394462660.4434 -2.3670049 -10.864394 -200 45 -200 45 -200 45
1395462777.1295 -2.3708286 -10.868198 -200 45 -200 45 -200 45
1396462893.8156 -2.3713517 -10.869123 -200 45 -200 45 -200 45
1397463010.5018 -2.3721421 -10.86949 -200 45 -200 45 -200 45
1398463127.1879 -2.3752017 -10.860291 -200 45 -200 45 -200 45
1399463243.874 -2.3757832 -10.873076 -200 45 -200 45 -200 45
1400463360.5601 -2.3811474 -10.855358 -200 45 -200 45 -200 45
1401463477.2462 -2.379482 -10.862586 -200 45 -200 45 -200 45
1402463593.9323 -2.3817494 -10.860184 -200 45 -200 45 -200 45
1403463710.6184 -2.3835838 -10.86306 -200 45 -200 45 -200 45
1404463827.3046 -2.3862708 -10.875171 -200 45 -200 45 -200 45
1405463943.9907 -2.3883903 -10.864518 -200 45 -200 45 -200 45
1406464060.6768 -2.3908265 -10.86058 -200 45 -200 45 -200 45
1407464177.3629 -2.392935 -10.865541 -200 45 -200 45 -200 45
1408464294.049 -2.393086 -10.859185 -200 45 -200 45 -200 45
1409464410.7351 -2.3957469 -10.860717 -200 45 -200 45 -200 45
1410464527.4212 -2.3943262 -10.856401 -200 45 -200 45 -200 45
1411464644.1074 -2.3988023 -10.85939 -200 45 -200 45 -200 45
1412464760.7935 -2.3983197 -10.869275 -200 45 -200 45 -200 45
1413464877.4796 -2.4023421 -10.863243 -200 45 -200 45 -200 45
1414464994.1657 -2.4036639 -10.856388 -200 45 -200 45 -200 45
1415465110.8518 -2.4050553 -10.86661 -200 45 -200 45 -200 45
1416465227.5379 -2.4070549 -10.859695 -200 45 -200 45 -200 45
1417465344.224 -2.4082375 -10.858828 -200 45 -200 45 -200 45
1418465460.9102 -2.4109321 -10.851213 -200 45 -200 45 -200 45
1419465577.5963 -2.4110343 -10.853735 -200 45 -200 45 -200 45
1420465694.2824 -2.4143505 -10.857678 -200 45 -200 45 -200 45
1421465810.9685 -2.4153926 -10.858961 -200 45 -200 45 -200 45
1422465927.6546 -2.4179387 -10.849998 -200 45 -200 45 -200 45
1423466044.3407 -2.4205232 -10.856827 -200 45 -200 45 -200 45
1424466161.0268 -2.4220099 -10.84858 -200 45 -200 45 -200 45
1425466277.713 -2.4226897 -10.842892 -200 45 -200 45 -200 45
1426466394.3991 -2.4249322 -10.848933 -200 45 -200 45 -200 45
1427466511.0852 -2.4289658 -10.842641 -200 45 -200 45 -200 45
1428466627.7713 -2.4281466 -10.851597 -200 45 -200 45 -200 45
1429466744.4574 -2.4295332 -10.8522 -200 45 -200 45 -200 45
1430466861.1435 -2.4313617 -10.847815 -200 45 -200 45 -200 45
1431466977.8296 -2.4339886 -10.843113 -200 45 -200 45 -200 45
1432467094.5158 -2.4347649 -10.838401 -200 45 -200 45 -200 45
1433467211.2019 -2.4365864 -10.84763 -200 45 -200 45 -200 45
1434467327.888 -2.4378214 -10.848721 -200 45 -200 45 -200 45
1435467444.5741 -2.4413264 -10.843202 -200 45 -200 45 -200 45
1436467561.2602 -2.4416926 -10.849885 -200 45 -200 45 -200 45
1437467677.9463 -2.4428573 -10.850353 -200 45 -200 45 -200 45
1438467794.6324 -2.445466 -10.847809 -200 45 -200 45 -200 45
1439467911.3186 -2.4485321 -10.841647 -200 45 -200 45 -200 45
1440468028.0047 -2.4492991 -10.834677 -200 45 -200 45 -200 45
1441468144.6908 -2.4521453 -10.845346 -200 45 -200 45 -200 45
1442468261.3769 -2.4537616 -10.842572 -200 45 -200 45 -200 45
1443468378.063 -2.4538352 -10.834629 -200 45 -200 45 -200 45
1444468494.7491 -2.4571095 -10.838919 -200 45 -200 45 -200 45
1445468611.4352 -2.4594197 -10.847321 -200 45 -200 45 -200 45
1446468728.1214 -2.4611058 -10.843248 -200 45 -200 45 -200 45
1447468844.8075 -2.4608788 -10.836693 -200 45 -200 45 -200 45
1448468961.4936 -2.4641495 -10.835958 -200 45 -200 45 -200 45
1449469078.1797 -2.4659529 -10.845454 -200 45 -200 45 -200 45
1450469194.8658 -2.4660871 -10.829153 -200 45 -200 45 -200 45
1451469311.5519 -2.4681935 -10.832109 -200 45 -200 45 -200 45
1452469428.238 -2.4711938 -10.828716 -200 45 -200 45 -200 45
1453469544.9242 -2.4729559 -10.827753 -200 45 -200 45 -200 45
1454469661.6103 -2.4754965 -10.829405 -200 45 -200 45 -200 45
1455469778.2964 -2.4753547 -10.834297 -200 45 -200 45 -200 45
1456469894.9825 -2.4771602 -10.832207 -200 45 -200 45 -200 45
1457470011.6686 -2.4798129 -10.83802 -200 45 -200 45 -200 45
1458470128.3547 -2.4801185 -10.820653 -200 45 -200 45 -200 45
1459470245.0408 -2.4829912 -10.832298 -200 45 -200 45 -200 45
1460470361.727 -2.4843132 -10.841463 -200 45 -200 45 -200 45
1461470478.4131 -2.4854074 -10.832696 -200 45 -200 45 -200 45
1462470595.0992 -2.4896059 -10.817033 -200 45 -200 45 -200 45
1463470711.7853 -2.4913659 -10.823907 -200 45 -200 45 -200 45
1464470828.4714 -2.4935021 -10.832498 -200 45 -200 45 -200 45
1465470945.1575 -2.4939656 -10.83075 -200 45 -200 45 -200 45
1466471061.8436 -2.4950492 -10.81971 -200 45 -200 45 -200 45
1467471178.5298 -2.4962301 -10.819071 -200 45 -200 45 -200 45
1468471295.2159 -2.4987981 -10.820873 -200 45 -200 45 -200 45
1469471411.902 -2.499774 -10.823779 -200 45 -200 45 -200 45
1470471528.5881 -2.5023594 -10.815311 -200 45 -200 45 -200 45
1471471645.2742 -2.5033958 -10.825021 -200 45 -200 45 -200 45
1472471761.9603 -2.5064971 -10.813795 -200 45 -200 45 -200 45
1473471878.6464 -2.5071785 -10.803927 -200 45 -200 45 -200 45
1474471995.3326 -2.5083399 -10.805182 -200 45 -200 45 -200 45
1475472112.0187 -2.5104859 -10.815273 -200 45 -200 45 -200 45
1476472228.7048 -2.5121109 -10.81119 -200 45 -200 45 -200 45
1477472345.3909 -2.5138142 -10.812538 -200 45 -200 45 -200 45
1478472462.077 -2.5177846 -10.802324 -200 45 -200 45 -200 45
1479472578.7631 -2.5178068 -10.816208 -200 45 -200 45 -200 45
1480472695.4492 -2.5177379 -10.811876 -200 45 -200 45 -200 45
1481472812.1354 -2.5199921 -10.801723 -200 45 -200 45 -200 45
1482472928.8215 -2.5232158 -10.80624 -200 45 -200 45 -200 45
1483473045.5076 -2.5237129 -10.801028 -200 45 -200 45 -200 45
1484473162.1937 -2.5262787 -10.807316 -200 45 -200 45 -200 45
1485473278.8798 -2.5281625 -10.796565 -200 45 -200 45 -200 45
1486473395.5659 -2.5300505 -10.801497 -200 45 -200 45 -200 45
1487473512.252 -2.5319381 -10.796405 -200 45 -200 45 -200 45
1488473628.9382 -2.5336416 -10.794801 -200 45 -200 45 -200 45
1489473745.6243 -2.534755 -10.796128 -200 45 -200 45 -200 45
1490473862.3104 -2.5372968 -10.792076 -200 45 -200 45 -200 45
1491473978.9965 -2.5368423 -10.795667 -200 45 -200 45 -200 45
1492474095.6826 -2.540247 -10.791587 -200 45 -200 45 -200 45
1493474212.3687 -2.542757 -10.796607 -200 45 -200 45 -200 45
1494474329.0548 -2.5444462 -10.796393 -200 45 -200 45 -200 45
1495474445.741 -2.544591 -10.790867 -200 45 -200 45 -200 45
1496474562.4271 -2.5482833 -10.780858 -200 45 -200 45 -200 45
1497474679.1132 -2.5503557 -10.784878 -200 45 -200 45 -200 45
1498474795.7993 -2.5513721 -10.782967 -200 45 -200 45 -200 45
1499474912.4854 -2.551986 -10.779502 -200 45 -200 45 -200 45
1500475029.1715 -2.553612 -10.77469 -200 45 -200 45 -200 45
1501475145.8576 -2.5553792 -10.781235 -200 45 -200 45 -200 45
1502475262.5438 -2.5588806 -10.781658 -200 45 -200 45 -200 45
1503475379.2299 -2.5599353 -10.785815 -200 45 -200 45 -200 45
1504475495.916 -2.5607438 -10.788857 -200 45 -200 45 -200 45
1505475612.6021 -2.5624847 -10.775553 -200 45 -200 45 -200 45
1506475729.2882 -2.5640953 -10.769295 -200 45 -200 45 -200 45
1507475845.9743 -2.5665023 -10.774649 -200 45 -200 45 -200 45
1508475962.6604 -2.5689692 -10.777308 -200 45 -200 45 -200 45
1509476079.3466 -2.570219 -10.778769 -200 45 -200 45 -200 45
1510476196.0327 -2.5714993 -10.776375 -200 45 -200 45 -200 45
1511476312.7188 -2.5739779 -10.775049 -200 45 -200 45 -200 45
1512476429.4049 -2.5769882 -10.768476 -200 45 -200 45 -200 45
1513476546.091 -2.5768149 -10.770591 -200 45 -200 45 -200 45
1514476662.7771 -2.5795882 -10.773872 -200 45 -200 45 -200 45
1515476779.4632 -2.5786445 -10.760962 -200 45 -200 45 -200 45
1516476896.1494 -2.5814803 -10.767186 -200 45 -200 45 -200 45
1517477012.8355 -2.5829434 -10.767562 -200 45 -200 45 -200 45
1518477129.5216 -2.5853727 -10.770688 -200 45 -200 45 -200 45
1519477246.2077 -2.5876164 -10.767047 -200 45 -200 45 -200 45
1520477362.8938 -2.5895131 -10.761263 -200 45 -200 45 -200 45
1521477479.5799 -2.5901511 -10.75929 -200 45 -200 45 -200 45
1522477596.266 -2.5933816 -10.754439 -200 45 -200 45 -200 45
1523477712.9522 -2.5954366 -10.761451 -200 45 -200 45 -200 45
1524477829.6383 -2.597152 -10.76535 -200 45 -200 45 -200 45
1525477946.3244 -2.5975738 -10.760669 -200 45 -200 45 -200 45
1526478063.0105 -2.6025627 -10.750125 -200 45 -200 45 -200 45
1527478179.6966 -2.6007457 -10.75332 -200 45 -200 45 -200 45
1528478296.3827 -2.6047313 -10.753546 -200 45 -200 45 -200 45
1529478413.0688 -2.6050284 -10.753288 -200 45 -200 45 -200 45
1530478529.755 -2.6064284 -10.75347 -200 45 -200 45 -200 45
1531478646.4411 -2.6079879 -10.747793 -200 45 -200 45 -200 45
1532478763.1272 -2.6092641 -10.75905 -200 45 -200 45 -200 45
1533478879.8133 -2.6134353 -10.739114 -200 45 -200 45 -200 45
1534478996.4994 -2.6137347 -10.752269 -200 45 -200 45 -200 45
1535479113.1855 -2.6150577 -10.745076 -200 45 -200 45 -200 45
1536479229.8716 -2.6186604 -10.744067 -200 45 -200 45 -200 45
1537479346.5578 -2.6190026 -10.750161 -200 45 -200 45 -200 45
1538479463.2439 -2.6207643 -10.747137 -200 45 -200 45 -200 45
1539479579.93 -2.6234076 -10.747544 -200 45 -200 45 -200 45
1540479696.6161 -2.625335 -10.74138 -200 45 -200 45 -200 45
1541479813.3022 -2.6266572 -10.740361 -200 45 -200 45 -200 45
1542479929.9883 -2.6279237 -10.738801 -200 45 -200 45 -200 45
1543480046.6744 -2.6305671 -10.732159 -200 45 -200 45 -200 45
1544480163.3606 -2.6306021 -10.735587 -200 45 -200 45 -200 45
1545480280.0467 -2.6338248 -10.734851 -200 45 -200 45 -200 45
1546480396.7328 -2.636451 -10.739066 -200 45 -200 45 -200 45
1547480513.4189 -2.6377854 -10.73982 -200 45 -200 45 -200 45
1548480630.105 -2.6377094 -10.727692 -200 45 -200 45 -200 45
1549480746.7911 -2.6399632 -10.722918 -200 45 -200 45 -200 45
1550480863.4772 -2.6405935 -10.723858 -200 45 -200 45 -200 45
1551480980.1634 -2.6439569 -10.73291 -200 45 -200 45 -200 45
1552481096.8495 -2.6468587 -10.725856 -200 45 -200 45 -200 45
1553481213.5356 -2.6453404 -10.73697 -200 45 -200 45 -200 45
1554481330.2217 -2.6503737 -10.723832 -200 45 -200 45 -200 45
1555481446.9078 -2.6515617 -10.733124 -200 45 -200 45 -200 45
1556481563.5939 -2.652554 -10.707536 -200 45 -200 45 -200 45
1557481680.28 -2.6560507 -10.714533 -200 45 -200 45 -200 45
1558481796.9662 -2.6552553 -10.720767 -200 45 -200 45 -200 45
1559481913.6523 -2.6583216 -10.723299 -200 45 -200 45 -200 45
1560482030.3384 -2.6601844 -10.719643 -200 45 -200 45 -200 45
1561482147.0245 -2.6616261 -10.713205 -200 45 -200 45 -200 45
1562482263.7106 -2.6637542 -10.713721 -200 45 -200 45 -200 45
1563482380.3967 -2.6659219 -10.712647 -200 45 -200 45 -200 45
1564482497.0828 -2.666904 -10.717546 -200 45 -200 45 -200 45
1565482613.769 -2.6694155 -10.713929 -200 45 -200 45 -200 45
1566482730.4551 -2.6682918 -10.712254 -200 45 -200 45 -200 45
1567482847.1412 -2.6713181 -10.711912 -200 45 -200 45 -200 45
1568482963.8273 -2.6741467 -10.717048 -200 45 -200 45 -200 45
1569483080.5134 -2.6758845 -10.705512 -200 45 -200 45 -200 45
1570483197.1995 -2.678324 -10.707618 -200 45 -200 45 -200 45
1571483313.8856 -2.6795876 -10.700324 -200 45 -200 45 -200 45
1572483430.5718 -2.6792276 -10.713246 -200 45 -200 45 -200 45
1573483547.2579 -2.6827252 -10.704104 -200 45 -200 45 -200 45
1574483663.944 -2.6843593 -10.703539 -200 45 -200 45 -200 45
1575483780.6301 -2.685113 -10.698506 -200 45 -200 45 -200 45
1576483897.3162 -2.6869633 -10.695538 -200 45 -200 45 -200 45
1577484014.0023 -2.6901956 -10.688259 -200 45 -200 45 -200 45
1578484130.6884 -2.6931615 -10.695474 -200 45 -200 45 -200 45
1579484247.3746 -2.6930594 -10.691451 -200 45 -200 45 -200 45
1580484364.0607 -2.694797 -10.688777 -200 45 -200 45 -200 45
1581484480.7468 -2.6953802 -10.694466 -200 45 -200 45 -200 45
1582484597.4329 -2.6973982 -10.679502 -200 45 -200 45 -200 45
1583484714.119 -2.6998069 -10.691587 -200 45 -200 45 -200 45
1584484830.8051 -2.7024751 -10.684585 -200 45 -200 45 -200 45
1585484947.4912 -2.7044601 -10.685304 -200 45 -200 45 -200 45
1586485064.1774 -2.7045081 -10.684239 -200 45 -200 45 -200 45
1587485180.8635 -2.7063529 -10.684109 -200 45 -200 45 -200 45
1588485297.5496 -2.7083168 -10.687613 -200 45 -200 45 -200 45
1589485414.2357 -2.7114193 -10.670651 -200 45 -200 45 -200 45
1590485530.9218 -2.7130947 -10.670296 -200 45 -200 45 -200 45
1591485647.6079 -2.7136023 -10.677155 -200 45 -200 45 -200 45
1592485764.294 -2.7145705 -10.672416 -200 45 -200 45 -200 45
1593485880.9802 -2.7156656 -10.677927 -200 45 -200 45 -200 45
1594485997.6663 -2.7201397 -10.664989 -200 45 -200 45 -200 45
1595486114.3524 -2.7194958 -10.664255 -200 45 -200 45 -200 45
1596486231.0385 -2.7212098 -10.673744 -200 45 -200 45 -200 45
1597486347.7246 -2.7238483 -10.666117 -200 45 -200 45 -200 45
1598486464.4107 -2.725785 -10.665607 -200 45 -200 45 -200 45
1599486581.0968 -2.7279425 -10.653667 -200 45 -200 45 -200 45
1600486697.783 -2.7294297 -10.654224 -200 45 -200 45 -200 45
1601486814.4691 -2.7299407 -10.658779 -200 45 -200 45 -200 45
1602486931.1552 -2.7326858 -10.674953 -200 45 -200 45 -200 45
1603487047.8413 -2.7342975 -10.656616 -200 45 -200 45 -200 45
1604487164.5274 -2.7369165 -10.650905 -200 45 -200 45 -200 45
1605487281.2135 -2.7373517 -10.653873 -200 45 -200 45 -200 45
1606487397.8997 -2.7414329 -10.655343 -200 45 -200 45 -200 45
1607487514.5858 -2.742255 -10.644893 -200 45 -200 45 -200 45
1608487631.2719 -2.7409391 -10.651683 -200 45 -200 45 -200 45
1609487747.958 -2.7448223 -10.648897 -200 45 -200 45 -200 45
1610487864.6441 -2.7470496 -10.644761 -200 45 -200 45 -200 45
1611487981.3302 -2.7492096 -10.643581 -200 45 -200 45 -200 45
1612488098.0163 -2.7485008 -10.646966 -200 45 -200 45 -200 45
1613488214.7025 -2.7533946 -10.640967 -200 45 -200 45 -200 45
1614488331.3886 -2.7542524 -10.638682 -200 45 -200 45 -200 45
1615488448.0747 -2.7557242 -10.639639 -200 45 -200 45 -200 45
1616488564.7608 -2.7599981 -10.62533 -200 45 -200 45 -200 45
1617488681.4469 -2.7588472 -10.625898 -200 45 -200 45 -200 45
1618488798.133 -2.7608318 -10.632425 -200 45 -200 45 -200 45
1619488914.8191 -2.7635324 -10.63995 -200 45 -200 45 -200 45
1620489031.5053 -2.7648997 -10.628584 -200 45 -200 45 -200 45
1621489148.1914 -2.765372 -10.626309 -200 45 -200 45 -200 45
1622489264.8775 -2.7689872 -10.63396 -200 45 -200 45 -200 45
1623489381.5636 -2.7709074 -10.63444 -200 45 -200 45 -200 45
1624489498.2497 -2.7715087 -10.627619 -200 45 -200 45 -200 45
1625489614.9358 -2.7735093 -10.627216 -200 45 -200 45 -200 45
1626489731.6219 -2.7758086 -10.630527 -200 45 -200 45 -200 45
1627489848.3081 -2.7783253 -10.63303 -200 45 -200 45 -200 45
1628489964.9942 -2.7799575 -10.620313 -200 45 -200 45 -200 45
1629490081.6803 -2.7791336 -10.619311 -200 45 -200 45 -200 45
1630490198.3664 -2.7820239 -10.614429 -200 45 -200 45 -200 45
1631490315.0525 -2.7856083 -10.609262 -200 45 -200 45 -200 45
1632490431.7386 -2.7873838 -10.609135 -200 45 -200 45 -200 45
1633490548.4247 -2.788012 -10.610527 -200 45 -200 45 -200 45
1634490665.1109 -2.7888911 -10.613128 -200 45 -200 45 -200 45
1635490781.797 -2.7928584 -10.610307 -200 45 -200 45 -200 45
1636490898.4831 -2.7940054 -10.607656 -200 45 -200 45 -200 45
1637491015.1692 -2.795032 -10.610033 -200 45 -200 45 -200 45
1638491131.8553 -2.7981765 -10.597147 -200 45 -200 45 -200 45
1639491248.5414 -2.8000503 -10.608514 -200 45 -200 45 -200 45
1640491365.2275 -2.8009644 -10.608544 -200 45 -200 45 -200 45
1641491481.9137 -2.8025184 -10.61049 -200 45 -200 45 -200 45
1642491598.5998 -2.8053575 -10.606322 -200 45 -200 45 -200 45
1643491715.2859 -2.8065696 -10.61037 -200 45 -200 45 -200 45
1644491831.972 -2.8089311 -10.613029 -200 45 -200 45 -200 45
1645491948.6581 -2.8102732 -10.619612 -200 45 -200 45 -200 45
1646492065.3442 -2.8126247 -10.601699 -200 45 -200 45 -200 45
1647492182.0303 -2.8149109 -10.605746 -200 45 -200 45 -200 45
1648492298.7165 -2.8175902 -10.600623 -200 45 -200 45 -200 45
1649492415.4026 -2.8178766 -10.607543 -200 45 -200 45 -200 45
1650492532.0887 -2.820545 -10.605253 -200 45 -200 45 -200 45
1651492648.7748 -2.8222029 -10.62025 -200 45 -200 45 -200 45
1652492765.4609 -2.8246598 -10.607285 -200 45 -200 45 -200 45
1653492882.147 -2.8257675 -10.610417 -200 45 -200 45 -200 45
1654492998.8331 -2.8295081 -10.616237 -200 45 -200 45 -200 45
1655493115.5193 -2.8311307 -10.62264 -200 45 -200 45 -200 45
1656493232.2054 -2.8332431 -10.618814 -200 45 -200 45 -200 45
1657493348.8915 -2.8345988 -10.615612 -200 45 -200 45 -200 45
1658493465.5776 -2.8383505 -10.626093 -200 45 -200 45 -200 45
1659493582.2637 -2.8404856 -10.617196 -200 45 -200 45 -200 45
1660493698.9498 -2.8425572 -10.640287 -200 45 -200 45 -200 45
1661493815.6359 -2.8435271 -10.624063 -200 45 -200 45 -200 45
1662493932.3221 -2.8472667 -10.627454 -200 45 -200 45 -200 45
1663494049.0082 -2.8517399 -10.63502 -200 45 -200 45 -200 45
1664494165.6943 -2.8549616 -10.64619 -200 45 -200 45 -200 45
1665494282.3804 -2.8571837 -10.647255 -200 45 -200 45 -200 45
1666494399.0665 -2.8603003 -10.646151 -200 45 -200 45 -200 45
1667494515.7526 -2.8618076 -10.652065 -200 45 -200 45 -200 45
1668494632.4387 -2.8682535 -10.656169 -200 45 -200 45 -200 45
1669494749.1249 -2.8736699 -10.6751 -200 45 -200 45 -200 45
1670494865.811 -2.8789215 -10.682261 -200 45 -200 45 -200 45
1671494982.4971 -2.8842301 -10.696202 -200 45 -200 45 -200 45
1672495099.1832 -2.8946819 -10.724146 -200 45 -200 45 -200 45
1673495215.8693 -2.9082725 -10.720548 -200 45 -200 45 -200 45
1674495332.5554 -2.9239888 -10.726884 -200 45 -200 45 -200 45
1675495449.2415 -2.9486725 -10.659493 -200 45 -200 45 -200 45
1676495565.9277 -2.9722908 -10.462931 -200 45 -200 45 -200 45
1677495682.6138 -2.9724133 -10.174707 -200 45 -200 45 -200 45
1678495799.2999 -2.9475539 -9.9407187 -200 45 -200 45 -200 45
1679495915.986 -2.9113367 -9.8921928 -200 45 -200 45 -200 45
1680496032.6721 -2.887867 -9.9442959 -200 45 -200 45 -200 45
1681496149.3582 -2.8745267 -10.028107 -200 45 -200 45 -200 45
1682496266.0443 -2.8701758 -10.086779 -200 45 -200 45 -200 45
1683496382.7305 -2.86833 -10.135694 -200 45 -200 45 -200 45
1684496499.4166 -2.866502 -10.171314 -200 45 -200 45 -200 45
1685496616.1027 -2.8662591 -10.196129 -200 45 -200 45 -200 45
1686496732.7888 -2.8652496 -10.218489 -200 45 -200 45 -200 45
1687496849.4749 -2.8649127 -10.243391 -200 45 -200 45 -200 45
1688496966.161 -2.864357 -10.263251 -200 45 -200 45 -200 45
1689497082.8471 -2.8664947 -10.300854 -200 45 -200 45 -200 45
1690497199.5333 -2.8686864 -10.320098 -200 45 -200 45 -200 45
1691497316.2194 -2.8693018 -10.332673 -200 45 -200 45 -200 45
1692497432.9055 -2.8712454 -10.354723 -200 45 -200 45 -200 45
1693497549.5916 -2.8757639 -10.367436 -200 45 -200 45 -200 45
1694497666.2777 -2.8761032 -10.368633 -200 45 -200 45 -200 45
1695497782.9638 -2.8800192 -10.381655 -200 45 -200 45 -200 45
1696497899.6499 -2.8815734 -10.384759 -200 45 -200 45 -200 45
1697498016.3361 -2.8854926 -10.394731 -200 45 -200 45 -200 45
1698498133.0222 -2.8850136 -10.380812 -200 45 -200 45 -200 45
1699498249.7083 -2.8867769 -10.3943 -200 45 -200 45 -200 45
1700498366.3944 -2.8904636 -10.404865 -200 45 -200 45 -200 45
1701498483.0805 -2.8919606 -10.406538 -200 45 -200 45 -200 45
1702498599.7666 -2.89412 -10.396481 -200 45 -200 45 -200 45
1703498716.4527 -2.8974676 -10.407918 -200 45 -200 45 -200 45
1704498833.1389 -2.8968654 -10.411485 -200 45 -200 45 -200 45
1705498949.825 -2.901768 -10.412694 -200 45 -200 45 -200 45
1706499066.5111 -2.9026079 -10.412703 -200 45 -200 45 -200 45
1707499183.1972 -2.9046769 -10.411783 -200 45 -200 45 -200 45
1708499299.8833 -2.9051182 -10.419347 -200 45 -200 45 -200 45
1709499416.5694 -2.9084828 -10.414268 -200 45 -200 45 -200 45
1710499533.2555 -2.9121814 -10.401246 -200 45 -200 45 -200 45
1711499649.9417 -2.9129477 -10.409538 -200 45 -200 45 -200 45
1712499766.6278 -2.9152036 -10.418925 -200 45 -200 45 -200 45
1713499883.3139 -2.9155018 -10.398935 -200 45 -200 45 -200 45
1714500000 -2.9181135 -10.41553 -200 45 -200 45 -200 45
1715500116.6861 -2.9200494 -10.398622 -200 45 -200 45 -200 45
1716500233.3722 -2.9219038 -10.4014 -200 45 -200 45 -200 45
1717500350.0583 -2.921886 -10.406594 -200 45 -200 45 -200 45
1718500466.7445 -2.9269552 -10.397089 -200 45 -200 45 -200 45
1719500583.4306 -2.9277339 -10.400874 -200 45 -200 45 -200 45
1720500700.1167 -2.929688 -10.402119 -200 45 -200 45 -200 45
1721500816.8028 -2.9304574 -10.392001 -200 45 -200 45 -200 45
1722500933.4889 -2.933671 -10.39865 -200 45 -200 45 -200 45
1723501050.175 -2.9356136 -10.395992 -200 45 -200 45 -200 45
1724501166.8611 -2.937927 -10.404769 -200 45 -200 45 -200 45
1725501283.5473 -2.9375513 -10.408513 -200 45 -200 45 -200 45
1726501400.2334 -2.9409261 -10.401144 -200 45 -200 45 -200 45
1727501516.9195 -2.9422066 -10.402188 -200 45 -200 45 -200 45
1728501633.6056 -2.9430304 -10.393309 -200 45 -200 45 -200 45
1729501750.2917 -2.9465048 -10.397205 -200 45 -200 45 -200 45
1730501866.9778 -2.9471548 -10.401441 -200 45 -200 45 -200 45
1731501983.6639 -2.9482493 -10.392472 -200 45 -200 45 -200 45
1732502100.3501 -2.9507551 -10.399888 -200 45 -200 45 -200 45
1733502217.0362 -2.9532034 -10.389731 -200 45 -200 45 -200 45
1734502333.7223 -2.9570663 -10.397158 -200 45 -200 45 -200 45
1735502450.4084 -2.9585752 -10.390524 -200 45 -200 45 -200 45
1736502567.0945 -2.9586413 -10.3849 -200 45 -200 45 -200 45
1737502683.7806 -2.9608412 -10.381531 -200 45 -200 45 -200 45
1738502800.4667 -2.9617217 -10.388531 -200 45 -200 45 -200 45
1739502917.1529 -2.9638662 -10.381794 -200 45 -200 45 -200 45
1740503033.839 -2.9674513 -10.393327 -200 45 -200 45 -200 45
1741503150.5251 -2.9674056 -10.384266 -200 45 -200 45 -200 45
1742503267.2112 -2.9714158 -10.377987 -200 45 -200 45 -200 45
1743503383.8973 -2.9716589 -10.378288 -200 45 -200 45 -200 45
1744503500.5834 -2.9741139 -10.374104 -200 45 -200 45 -200 45
1745503617.2695 -2.9753966 -10.377399 -200 45 -200 45 -200 45
1746503733.9557 -2.9779623 -10.364697 -200 45 -200 45 -200 45
1747503850.6418 -2.980123 -10.376933 -200 45 -200 45 -200 45
1748503967.3279 -2.9814112 -10.379452 -200 45 -200 45 -200 45
1749504084.014 -2.9823139 -10.374207 -200 45 -200 45 -200 45
1750504200.7001 -2.9833541 -10.385791 -200 45 -200 45 -200 45
1751504317.3862 -2.9863579 -10.374425 -200 45 -200 45 -200 45
1752504434.0723 -2.9869156 -10.365617 -200 45 -200 45 -200 45
1753504550.7585 -2.9898934 -10.363381 -200 45 -200 45 -200 45
1754504667.4446 -2.9911854 -10.368046 -200 45 -200 45 -200 45
1755504784.1307 -2.9936917 -10.354897 -200 45 -200 45 -200 45
1756504900.8168 -2.9963264 -10.373191 -200 45 -200 45 -200 45
1757505017.5029 -2.9976406 -10.3534 -200 45 -200 45 -200 45
1758505134.189 -2.9991441 -10.358989 -200 45 -200 45 -200 45
1759505250.8751 -3.0015051 -10.359696 -200 45 -200 45 -200 45
1760505367.5613 -3.0038378 -10.364405 -200 45 -200 45 -200 45
1761505484.2474 -3.0063572 -10.3586 -200 45 -200 45 -200 45
1762505600.9335 -3.0075529 -10.347956 -200 45 -200 45 -200 45
1763505717.6196 -3.0080729 -10.364217 -200 45 -200 45 -200 45
1764505834.3057 -3.0098443 -10.350299 -200 45 -200 45 -200 45
1765505950.9918 -3.0112934 -10.358456 -200 45 -200 45 -200 45
1766506067.6779 -3.0143142 -10.344247 -200 45 -200 45 -200 45
1767506184.3641 -3.0158563 -10.359125 -200 45 -200 45 -200 45
1768506301.0502 -3.0186422 -10.34758 -200 45 -200 45 -200 45
1769506417.7363 -3.0194788 -10.357544 -200 45 -200 45 -200 45
1770506534.4224 -3.0233631 -10.348225 -200 45 -200 45 -200 45
1771506651.1085 -3.0218706 -10.34018 -200 45 -200 45 -200 45
1772506767.7946 -3.0228145 -10.339556 -200 45 -200 45 -200 45
1773506884.4807 -3.0267706 -10.343579 -200 45 -200 45 -200 45
1774507001.1669 -3.0272765 -10.34569 -200 45 -200 45 -200 45
1775507117.853 -3.0290468 -10.348749 -200 45 -200 45 -200 45
1776507234.5391 -3.0322161 -10.34124 -200 45 -200 45 -200 45
1777507351.2252 -3.0344682 -10.337054 -200 45 -200 45 -200 45
1778507467.9113 -3.0361259 -10.332232 -200 45 -200 45 -200 45
1779507584.5974 -3.0373135 -10.337441 -200 45 -200 45 -200 45
1780507701.2835 -3.0402455 -10.338452 -200 45 -200 45 -200 45
1781507817.9697 -3.0411847 -10.343709 -200 45 -200 45 -200 45
1782507934.6558 -3.0441897 -10.343417 -200 45 -200 45 -200 45
1783508051.3419 -3.0442204 -10.336847 -200 45 -200 45 -200 45
1784508168.028 -3.0475035 -10.336704 -200 45 -200 45 -200 45
1785508284.7141 -3.0491538 -10.329191 -200 45 -200 45 -200 45
1786508401.4002 -3.04984 -10.342742 -200 45 -200 45 -200 45
1787508518.0863 -3.05286 -10.327657 -200 45 -200 45 -200 45
1788508634.7725 -3.055377 -10.333457 -200 45 -200 45 -200 45
1789508751.4586 -3.0558164 -10.32969 -200 45 -200 45 -200 45
1790508868.1447 -3.0584767 -10.325888 -200 45 -200 45 -200 45
1791508984.8308 -3.0600417 -10.31783 -200 45 -200 45 -200 45
1792509101.5169 -3.0615203 -10.327847 -200 45 -200 45 -200 45
1793509218.203 -3.0628982 -10.317319 -200 45 -200 45 -200 45
1794509334.8891 -3.0660272 -10.331306 -200 45 -200 45 -200 45
1795509451.5753 -3.0674007 -10.31569 -200 45 -200 45 -200 45
1796509568.2614 -3.0680296 -10.327559 -200 45 -200 45 -200 45
1797509684.9475 -3.0713019 -10.316215 -200 45 -200 45 -200 45
1798509801.6336 -3.0737348 -10.326404 -200 45 -200 45 -200 45
1799509918.3197 -3.0755394 -10.317163 -200 45 -200 45 -200 45
1800510035.0058 -3.0777853 -10.316712 -200 45 -200 45 -200 45
1801510151.6919 -3.0769727 -10.308321 -200 45 -200 45 -200 45
1802510268.3781 -3.0805166 -10.313683 -200 45 -200 45 -200 45
1803510385.0642 -3.0823438 -10.318381 -200 45 -200 45 -200 45
1804510501.7503 -3.0846806 -10.31717 -200 45 -200 45 -200 45
1805510618.4364 -3.0851316 -10.318564 -200 45 -200 45 -200 45
1806510735.1225 -3.0884461 -10.301088 -200 45 -200 45 -200 45
1807510851.8086 -3.0894444 -10.319951 -200 45 -200 45 -200 45
1808510968.4947 -3.0937085 -10.309017 -200 45 -200 45 -200 45
1809511085.1809 -3.094224 -10.306944 -200 45 -200 45 -200 45
1810511201.867 -3.0943205 -10.310448 -200 45 -200 45 -200 45
1811511318.5531 -3.0955412 -10.311933 -200 45 -200 45 -200 45
1812511435.2392 -3.0993688 -10.307869 -200 45 -200 45 -200 45
1813511551.9253 -3.1023204 -10.300692 -200 45 -200 45 -200 45
1814511668.6114 -3.1021194 -10.306324 -200 45 -200 45 -200 45
1815511785.2975 -3.1045213 -10.297421 -200 45 -200 45 -200 45
1816511901.9837 -3.1084452 -10.304445 -200 45 -200 45 -200 45
1817512018.6698 -3.1092417 -10.303225 -200 45 -200 45 -200 45
1818512135.3559 -3.1100302 -10.301934 -200 45 -200 45 -200 45
1819512252.042 -3.1120906 -10.303687 -200 45 -200 45 -200 45
1820512368.7281 -3.1154113 -10.302303 -200 45 -200 45 -200 45
1821512485.4142 -3.1155877 -10.304429 -200 45 -200 45 -200 45
1822512602.1004 -3.1171298 -10.298766 -200 45 -200 45 -200 45
1823512718.7865 -3.1201808 -10.306831 -200 45 -200 45 -200 45
1824512835.4726 -3.120564 -10.293611 -200 45 -200 45 -200 45
1825512952.1587 -3.1224272 -10.298309 -200 45 -200 45 -200 45
1826513068.8448 -3.1250579 -10.2922 -200 45 -200 45 -200 45
1827513185.5309 -3.1297388 -10.29669 -200 45 -200 45 -200 45
1828513302.217 -3.1293452 -10.299153 -200 45 -200 45 -200 45
1829513418.9032 -3.1317055 -10.291634 -200 45 -200 45 -200 45
1830513535.5893 -3.1331694 -10.284953 -200 45 -200 45 -200 45
1831513652.2754 -3.1355915 -10.290453 -200 45 -200 45 -200 45
1832513768.9615 -3.1388273 -10.280329 -200 45 -200 45 -200 45
1833513885.6476 -3.1389148 -10.289445 -200 45 -200 45 -200 45
1834514002.3337 -3.1412232 -10.286155 -200 45 -200 45 -200 45
1835514119.0198 -3.144562 -10.287914 -200 45 -200 45 -200 45
1836514235.706 -3.1472192 -10.301045 -200 45 -200 45 -200 45
1837514352.3921 -3.1487422 -10.292616 -200 45 -200 45 -200 45
1838514469.0782 -3.1501188 -10.283748 -200 45 -200 45 -200 45
1839514585.7643 -3.1539347 -10.288877 -200 45 -200 45 -200 45
1840514702.4504 -3.154599 -10.287669 -200 45 -200 45 -200 45
1841514819.1365 -3.1580083 -10.284554 -200 45 -200 45 -200 45
1842514935.8226 -3.1583402 -10.28281 -200 45 -200 45 -200 45
1843515052.5088 -3.1615427 -10.286467 -200 45 -200 45 -200 45
1844515169.1949 -3.1627095 -10.286476 -200 45 -200 45 -200 45
1845515285.881 -3.1647341 -10.273077 -200 45 -200 45 -200 45
1846515402.5671 -3.166194 -10.270461 -200 45 -200 45 -200 45
1847515519.2532 -3.1701465 -10.283629 -200 45 -200 45 -200 45
1848515635.9393 -3.1707246 -10.287032 -200 45 -200 45 -200 45
1849515752.6254 -3.1744959 -10.276917 -200 45 -200 45 -200 45
1850515869.3116 -3.1753323 -10.272672 -200 45 -200 45 -200 45
1851515985.9977 -3.1773586 -10.289485 -200 45 -200 45 -200 45
1852516102.6838 -3.1806202 -10.28331 -200 45 -200 45 -200 45
1853516219.3699 -3.1817219 -10.283072 -200 45 -200 45 -200 45
1854516336.056 -3.1854885 -10.291689 -200 45 -200 45 -200 45
1855516452.7421 -3.1895423 -10.291454 -200 45 -200 45 -200 45
1856516569.4282 -3.1926701 -10.295217 -200 45 -200 45 -200 45
1857516686.1144 -3.1966779 -10.268275 -200 45 -200 45 -200 45
1858516802.8005 -3.1981409 -10.238892 -200 45 -200 45 -200 45
1859516919.4866 -3.1975129 -10.240424 -200 45 -200 45 -200 45
1860517036.1727 -3.1986227 -10.236242 -200 45 -200 45 -200 45
1861517152.8588 -3.2012079 -10.217991 -200 45 -200 45 -200 45
1862517269.5449 -3.2015805 -10.233557 -200 45 -200 45 -200 45
1863517386.231 -3.2033515 -10.214576 -200 45 -200 45 -200 45
1864517502.9172 -3.2046463 -10.22704 -200 45 -200 45 -200 45
1865517619.6033 -3.2057946 -10.2151 -200 45 -200 45 -200 45
1866517736.2894 -3.2084866 -10.231983 -200 45 -200 45 -200 45
1867517852.9755 -3.2065635 -10.233739 -200 45 -200 45 -200 45
1868517969.6616 -3.2092388 -10.226695 -200 45 -200 45 -200 45
1869518086.3477 -3.2106965 -10.232743 -200 45 -200 45 -200 45
1870518203.0338 -3.21279 -10.239381 -200 45 -200 45 -200 45
1871518319.72 -3.2135084 -10.250185 -200 45 -200 45 -200 45
1872518436.4061 -3.2176304 -10.253531 -200 45 -200 45 -200 45
1873518553.0922 -3.2183843 -10.269854 -200 45 -200 45 -200 45
1874518669.7783 -3.2207556 -10.256935 -200 45 -200 45 -200 45
1875518786.4644 -3.2235293 -10.25919 -200 45 -200 45 -200 45
1876518903.1505 -3.2265604 -10.272631 -200 45 -200 45 -200 45
1877519019.8366 -3.2273686 -10.284736 -200 45 -200 45 -200 45
1878519136.5228 -3.2298772 -10.268036 -200 45 -200 45 -200 45
1879519253.2089 -3.2338665 -10.268284 -200 45 -200 45 -200 45
1880519369.895 -3.235543 -10.276218 -200 45 -200 45 -200 45
1881519486.5811 -3.2378893 -10.285371 -200 45 -200 45 -200 45
1882519603.2672 -3.2403314 -10.282413 -200 45 -200 45 -200 45
1883519719.9533 -3.2438798 -10.288442 -200 45 -200 45 -200 45
1884519836.6394 -3.2456729 -10.290487 -200 45 -200 45 -200 45
1885519953.3256 -3.2484014 -10.297054 -200 45 -200 45 -200 45
1886520070.0117 -3.2483859 -10.288795 -200 45 -200 45 -200 45
1887520186.6978 -3.2515895 -10.298421 -200 45 -200 45 -200 45
1888520303.3839 -3.2528124 -10.288913 -200 45 -200 45 -200 45
1889520420.07 -3.2584515 -10.293692 -200 45 -200 45 -200 45
1890520536.7561 -3.2592297 -10.300635 -200 45 -200 45 -200 45
1891520653.4422 -3.2630408 -10.309234 -200 45 -200 45 -200 45
1892520770.1284 -3.2641201 -10.303097 -200 45 -200 45 -200 45
1893520886.8145 -3.2683575 -10.303949 -200 45 -200 45 -200 45
1894521003.5006 -3.269172 -10.314935 -200 45 -200 45 -200 45
1895521120.1867 -3.2709875 -10.313113 -200 45 -200 45 -200 45
1896521236.8728 -3.2747812 -10.305492 -200 45 -200 45 -200 45
1897521353.5589 -3.2773464 -10.321118 -200 45 -200 45 -200 45
1898521470.245 -3.27931 -10.328672 -200 45 -200 45 -200 45
1899521586.9312 -3.2822578 -10.328573 -200 45 -200 45 -200 45
1900521703.6173 -3.2838664 -10.323518 -200 45 -200 45 -200 45
1901521820.3034 -3.2878594 -10.328623 -200 45 -200 45 -200 45
1902521936.9895 -3.2887516 -10.342238 -200 45 -200 45 -200 45
1903522053.6756 -3.2923307 -10.334229 -200 45 -200 45 -200 45
1904522170.3617 -3.2954705 -10.345921 -200 45 -200 45 -200 45
1905522287.0478 -3.2982044 -10.339528 -200 45 -200 45 -200 45
1906522403.734 -3.3004355 -10.346954 -200 45 -200 45 -200 45
1907522520.4201 -3.3017681 -10.352928 -200 45 -200 45 -200 45
1908522637.1062 -3.305675 -10.35829 -200 45 -200 45 -200 45
1909522753.7923 -3.3086829 -10.368057 -200 45 -200 45 -200 45
1910522870.4784 -3.3126438 -10.375124 -200 45 -200 45 -200 45
1911522987.1645 -3.3165126 -10.368407 -200 45 -200 45 -200 45
1912523103.8506 -3.3168206 -10.388695 -200 45 -200 45 -200 45
1913523220.5368 -3.3188756 -10.388397 -200 45 -200 45 -200 45
1914523337.2229 -3.3225875 -10.3968 -200 45 -200 45 -200 45
1915523453.909 -3.3257246 -10.396388 -200 45 -200 45 -200 45
1916523570.5951 -3.3305199 -10.393978 -200 45 -200 45 -200 45
1917523687.2812 -3.3337014 -10.406348 -200 45 -200 45 -200 45
1918523803.9673 -3.3343329 -10.42386 -200 45 -200 45 -200 45
1919523920.6534 -3.3399847 -10.420969 -200 45 -200 45 -200 45
1920524037.3396 -3.3425386 -10.434929 -200 45 -200 45 -200 45
1921524154.0257 -3.3445368 -10.434491 -200 45 -200 45 -200 45
1922524270.7118 -3.350595 -10.446306 -200 45 -200 45 -200 45
1923524387.3979 -3.3521485 -10.460173 -200 45 -200 45 -200 45
1924524504.084 -3.3563213 -10.460308 -200 45 -200 45 -200 45
1925524620.7701 -3.3596199 -10.461294 -200 45 -200 45 -200 45
1926524737.4562 -3.3640668 -10.473429 -200 45 -200 45 -200 45
1927524854.1424 -3.3673837 -10.474578 -200 45 -200 45 -200 45
1928524970.8285 -3.3717906 -10.496284 -200 45 -200 45 -200 45
1929525087.5146 -3.3742182 -10.495624 -200 45 -200 45 -200 45
1930525204.2007 -3.3770518 -10.51423 -200 45 -200 45 -200 45
1931525320.8868 -3.3827591 -10.523867 -200 45 -200 45 -200 45
1932525437.5729 -3.3861051 -10.539879 -200 45 -200 45 -200 45
1933525554.259 -3.3911235 -10.554274 -200 45 -200 45 -200 45
1934525670.9452 -3.3958206 -10.559608 -200 45 -200 45 -200 45
1935525787.6313 -3.3998396 -10.579702 -200 45 -200 45 -200 45
1936525904.3174 -3.4066312 -10.59406 -200 45 -200 45 -200 45
1937526021.0035 -3.4113047 -10.631379 -200 45 -200 45 -200 45
1938526137.6896 -3.417345 -10.630157 -200 45 -200 45 -200 45
1939526254.3757 -3.4226065 -10.65162 -200 45 -200 45 -200 45
1940526371.0618 -3.4298484 -10.670959 -200 45 -200 45 -200 45
1941526487.748 -3.434767 -10.691755 -200 45 -200 45 -200 45
1942526604.4341 -3.4419732 -10.695276 -200 45 -200 45 -200 45
1943526721.1202 -3.4520242 -10.711115 -200 45 -200 45 -200 45
1944526837.8063 -3.4593034 -10.727497 -200 45 -200 45 -200 45
1945526954.4924 -3.4655316 -10.744225 -200 45 -200 45 -200 45
1946527071.1785 -3.470346 -10.759907 -200 45 -200 45 -200 45
1947527187.8646 -3.4787209 -10.770704 -200 45 -200 45 -200 45
1948527304.5508 -3.4850056 -10.772465 -200 45 -200 45 -200 45
1949527421.2369 -3.4926507 -10.804146 -200 45 -200 45 -200 45
1950527537.923 -3.501008 -10.852131 -200 45 -200 45 -200 45
1951527654.6091 -3.5122352 -10.861594 -200 45 -200 45 -200 45
1952527771.2952 -3.5197592 -10.893641 -200 45 -200 45 -200 45
1953527887.9813 -3.528743 -10.934233 -200 45 -200 45 -200 45
1954528004.6674 -3.5385773 -10.962874 -200 45 -200 45 -200 45
1955528121.3536 -3.5500422 -11.025048 -200 45 -200 45 -200 45
1956528238.0397 -3.5646789 -11.092104 -200 45 -200 45 -200 45
1957528354.7258 -3.5784597 -11.150065 -200 45 -200 45 -200 45
1958528471.4119 -3.5930486 -11.216312 -200 45 -200 45 -200 45
1959528588.098 -3.612998 -11.300746 -200 45 -200 45 -200 45
1960528704.7841 -3.6361041 -11.396872 -200 45 -200 45 -200 45
1961528821.4702 -3.6628959 -11.502412 -200 45 -200 45 -200 45
1962528938.1564 -3.6941795 -11.639053 -200 45 -200 45 -200 45
1963529054.8425 -3.7365806 -11.782224 -200 45 -200 45 -200 45
1964529171.5286 -3.7903178 -11.949316 -200 45 -200 45 -200 45
1965529288.2147 -3.8649573 -12.103664 -200 45 -200 45 -200 45
1966529404.9008 -3.967737 -12.238707 -200 45 -200 45 -200 45
1967529521.5869 -4.1171436 -12.168324 -200 45 -200 45 -200 45
1968529638.273 -4.306325 -11.619638 -200 45 -200 45 -200 45
1969529754.9592 -4.4539428 -10.246028 -200 45 -200 45 -200 45
1970529871.6453 -4.4674993 -8.5640669 -200 45 -200 45 -200 45
1971529988.3314 -4.3700008 -7.243454 -200 45 -200 45 -200 45
1972530105.0175 -4.2423582 -6.5812631 -200 45 -200 45 -200 45
1973530221.7036 -4.1599064 -6.2696452 -200 45 -200 45 -200 45
1974530338.3897 -4.1029062 -5.8724041 -200 45 -200 45 -200 45
1975530455.0758 -4.0398855 -5.5043359 -200 45 -200 45 -200 45
1976530571.762 -3.9843402 -4.9517312 -200 45 -200 45 -200 45
1977530688.4481 -3.8454313 -4.3805985 -200 45 -200 45 -200 45
1978530805.1342 -3.6868877 -4.5110841 -200 45 -200 45 -200 45
1979530921.8203 -3.5992837 -5.0061588 -200 45 -200 45 -200 45
1980531038.5064 -3.5862236 -5.3664851 -200 45 -200 45 -200 45
1981531155.1925 -3.5902994 -5.2321568 -200 45 -200 45 -200 45
1982531271.8786 -3.5233252 -4.8743243 -200 45 -200 45 -200 45
1983531388.5648 -3.4022932 -4.8715191 -200 45 -200 45 -200 45
1984531505.2509 -3.3052959 -5.2891793 -200 45 -200 45 -200 45
1985531621.937 -3.2609365 -5.7921677 -200 45 -200 45 -200 45
1986531738.6231 -3.2351618 -6.1617975 -200 45 -200 45 -200 45
1987531855.3092 -3.2080448 -6.4727063 -200 45 -200 45 -200 45
1988531971.9953 -3.1817093 -6.8312054 -200 45 -200 45 -200 45
1989532088.6814 -3.1752608 -7.2340961 -200 45 -200 45 -200 45
1990532205.3676 -3.1838593 -7.5751343 -200 45 -200 45 -200 45
1991532322.0537 -3.1984706 -7.8446002 -200 45 -200 45 -200 45
1992532438.7398 -3.2124116 -8.0457096 -200 45 -200 45 -200 45
1993532555.4259 -3.2277777 -8.2214193 -200 45 -200 45 -200 45
1994532672.112 -3.2413194 -8.3414145 -200 45 -200 45 -200 45
1995532788.7981 -3.2507093 -8.4686098 -200 45 -200 45 -200 45
1996532905.4842 -3.2616057 -8.565135 -200 45 -200 45 -200 45
1997533022.1704 -3.274663 -8.6567488 -200 45 -200 45 -200 45
1998533138.8565 -3.2857342 -8.7342176 -200 45 -200 45 -200 45
1999533255.5426 -3.293678 -8.814539 -200 45 -200 45 -200 45
2000533372.2287 -3.3015637 -8.8768511 -200 45 -200 45 -200 45
2001533488.9148 -3.3117361 -8.9389162 -200 45 -200 45 -200 45
2002533605.6009 -3.3181853 -8.9832668 -200 45 -200 45 -200 45
2003533722.287 -3.325979 -9.0416679 -200 45 -200 45 -200 45
2004533838.9732 -3.3336508 -9.087657 -200 45 -200 45 -200 45
2005533955.6593 -3.341665 -9.1403465 -200 45 -200 45 -200 45
2006534072.3454 -3.348079 -9.1721821 -200 45 -200 45 -200 45
2007534189.0315 -3.3546839 -9.2154703 -200 45 -200 45 -200 45
2008534305.7176 -3.3608048 -9.2547464 -200 45 -200 45 -200 45
2009534422.4037 -3.3681829 -9.2863197 -200 45 -200 45 -200 45
2010534539.0898 -3.3744681 -9.3202143 -200 45 -200 45 -200 45
2011534655.776 -3.3812439 -9.3371658 -200 45 -200 45 -200 45
2012534772.4621 -3.3859091 -9.3802385 -200 45 -200 45 -200 45
2013534889.1482 -3.3921139 -9.4022436 -200 45 -200 45 -200 45
2014535005.8343 -3.397639 -9.4207935 -200 45 -200 45 -200 45
2015535122.5204 -3.4038279 -9.4536333 -200 45 -200 45 -200 45
2016535239.2065 -3.4081981 -9.4788628 -200 45 -200 45 -200 45
2017535355.8926 -3.4147048 -9.5018845 -200 45 -200 45 -200 45
2018535472.5788 -3.4194686 -9.535079 -200 45 -200 45 -200 45
2019535589.2649 -3.4236882 -9.5529518 -200 45 -200 45 -200 45
2020535705.951 -3.4310935 -9.5622244 -200 45 -200 45 -200 45
2021535822.6371 -3.4365466 -9.6043673 -200 45 -200 45 -200 45
2022535939.3232 -3.4421751 -9.6280909 -200 45 -200 45 -200 45
2023536056.0093 -3.4468808 -9.6414194 -200 45 -200 45 -200 45
2024536172.6954 -3.4524176 -9.6641588 -200 45 -200 45 -200 45
2025536289.3816 -3.4586074 -9.678813 -200 45 -200 45 -200 45
2026536406.0677 -3.462528 -9.7007456 -200 45 -200 45 -200 45
2027536522.7538 -3.4676642 -9.727561 -200 45 -200 45 -200 45
2028536639.4399 -3.4729698 -9.735918 -200 45 -200 45 -200 45
2029536756.126 -3.4765563 -9.7700357 -200 45 -200 45 -200 45
2030536872.8121 -3.4843659 -9.797801 -200 45 -200 45 -200 45
2031536989.4982 -3.4892149 -9.8165407 -200 45 -200 45 -200 45
2032537106.1844 -3.4943118 -9.8359156 -200 45 -200 45 -200 45
2033537222.8705 -3.4996614 -9.8506165 -200 45 -200 45 -200 45
2034537339.5566 -3.5052931 -9.8633127 -200 45 -200 45 -200 45
2035537456.2427 -3.5098825 -9.8879251 -200 45 -200 45 -200 45
2036537572.9288 -3.5143061 -9.9108725 -200 45 -200 45 -200 45
2037537689.6149 -3.5206947 -9.934473 -200 45 -200 45 -200 45
2038537806.3011 -3.5264215 -9.9562187 -200 45 -200 45 -200 45
2039537922.9872 -3.5350087 -9.9707117 -200 45 -200 45 -200 45
2040538039.6733 -3.5408206 -10.011788 -200 45 -200 45 -200 45
2041538156.3594 -3.5446596 -10.017819 -200 45 -200 45 -200 45
2042538273.0455 -3.5512464 -10.04413 -200 45 -200 45 -200 45
2043538389.7316 -3.5585575 -10.066051 -200 45 -200 45 -200 45
2044538506.4177 -3.5639536 -10.092445 -200 45 -200 45 -200 45
2045538623.1039 -3.5695312 -10.113772 -200 45 -200 45 -200 45
2046538739.79 -3.5768523 -10.137873 -200 45 -200 45 -200 45
2047538856.4761 -3.5828021 -10.171424 -200 45 -200 45 -200 45
2048538973.1622 -3.5872149 -10.193972 -200 45 -200 45 -200 45
2049539089.8483 -3.596257 -10.210573 -200 45 -200 45 -200 45
2050539206.5344 -3.6040151 -10.240791 -200 45 -200 45 -200 45
2051539323.2205 -3.6102829 -10.279847 -200 45 -200 45 -200 45
2052539439.9067 -3.6177082 -10.30401 -200 45 -200 45 -200 45
2053539556.5928 -3.6238785 -10.327805 -200 45 -200 45 -200 45
2054539673.2789 -3.6328192 -10.370677 -200 45 -200 45 -200 45
2055539789.965 -3.6391978 -10.408277 -200 45 -200 45 -200 45
2056539906.6511 -3.6493182 -10.443126 -200 45 -200 45 -200 45
2057540023.3372 -3.6582224 -10.46955 -200 45 -200 45 -200 45
2058540140.0233 -3.666959 -10.494723 -200 45 -200 45 -200 45
2059540256.7095 -3.6757281 -10.541846 -200 45 -200 45 -200 45
2060540373.3956 -3.6848948 -10.573571 -200 45 -200 45 -200 45
2061540490.0817 -3.6942773 -10.6182 -200 45 -200 45 -200 45
2062540606.7678 -3.7057214 -10.664724 -200 45 -200 45 -200 45
2063540723.4539 -3.7164381 -10.712573 -200 45 -200 45 -200 45
2064540840.14 -3.7271185 -10.749116 -200 45 -200 45 -200 45
2065540956.8261 -3.7382376 -10.804409 -200 45 -200 45 -200 45
2066541073.5123 -3.749789 -10.850168 -200 45 -200 45 -200 45
2067541190.1984 -3.7613077 -10.912719 -200 45 -200 45 -200 45
2068541306.8845 -3.7745099 -10.969914 -200 45 -200 45 -200 45
2069541423.5706 -3.789902 -11.019586 -200 45 -200 45 -200 45
2070541540.2567 -3.805238 -11.086059 -200 45 -200 45 -200 45
2071541656.9428 -3.8203082 -11.163752 -200 45 -200 45 -200 45
2072541773.6289 -3.8363731 -11.224417 -200 45 -200 45 -200 45
2073541890.3151 -3.8539057 -11.305286 -200 45 -200 45 -200 45
2074542007.0012 -3.8715217 -11.393426 -200 45 -200 45 -200 45
2075542123.6873 -3.8897378 -11.474968 -200 45 -200 45 -200 45
2076542240.3734 -3.912122 -11.553447 -200 45 -200 45 -200 45
2077542357.0595 -3.9324369 -11.665276 -200 45 -200 45 -200 45
2078542473.7456 -3.9574809 -11.78346 -200 45 -200 45 -200 45
2079542590.4317 -3.9823623 -11.900574 -200 45 -200 45 -200 45
2080542707.1179 -4.011939 -12.042676 -200 45 -200 45 -200 45
2081542823.804 -4.0442381 -12.179731 -200 45 -200 45 -200 45
2082542940.4901 -4.0780602 -12.332468 -200 45 -200 45 -200 45
2083543057.1762 -4.1166954 -12.510799 -200 45 -200 45 -200 45
2084543173.8623 -4.1589551 -12.686835 -200 45 -200 45 -200 45
2085543290.5484 -4.2056379 -12.887814 -200 45 -200 45 -200 45
2086543407.2345 -4.2598028 -13.121431 -200 45 -200 45 -200 45
2087543523.9207 -4.3225131 -13.379882 -200 45 -200 45 -200 45
2088543640.6068 -4.3930926 -13.691202 -200 45 -200 45 -200 45
2089543757.2929 -4.4809356 -14.049542 -200 45 -200 45 -200 45
2090543873.979 -4.5859518 -14.473863 -200 45 -200 45 -200 45
2091543990.6651 -4.7187433 -14.926405 -200 45 -200 45 -200 45
2092544107.3512 -4.8863006 -15.443355 -200 45 -200 45 -200 45
2093544224.0373 -5.112483 -16.08675 -200 45 -200 45 -200 45
2094544340.7235 -5.4465094 -16.725306 -200 45 -200 45 -200 45
2095544457.4096 -5.9457159 -16.96628 -200 45 -200 45 -200 45
2096544574.0957 -6.676384 -15.787614 -200 45 -200 45 -200 45
2097544690.7818 -7.4465852 -10.448359 -200 45 -200 45 -200 45
2098544807.4679 -7.3772144 -2.5832517 -200 45 -200 45 -200 45
2099544924.154 -6.8391929 1.2045686 -200 45 -200 45 -200 45
2100545040.8401 -6.5422173 2.9065733 -200 45 -200 45 -200 45
2101545157.5263 -6.3650408 5.3095055 -200 45 -200 45 -200 45
2102545274.2124 -5.9527159 8.3441858 -200 45 -200 45 -200 45
2103545390.8985 -5.382297 9.4144573 -200 45 -200 45 -200 45
2104545507.5846 -4.9232059 9.1765385 -200 45 -200 45 -200 45
2105545624.2707 -4.5911217 8.2484798 -200 45 -200 45 -200 45
2106545740.9568 -4.4402161 7.3874183 -200 45 -200 45 -200 45
2107545857.6429 -4.3141255 7.3968873 -200 45 -200 45 -200 45
2108545974.3291 -4.0999775 7.3821473 -200 45 -200 45 -200 45
2109546091.0152 -3.9237409 6.8990903 -200 45 -200 45 -200 45
2110546207.7013 -3.7820332 6.4179702 -200 45 -200 45 -200 45
2111546324.3874 -3.7086561 6.2496495 -200 45 -200 45 -200 45
2112546441.0735 -3.526906 6.5620265 -200 45 -200 45 -200 45
2113546557.7596 -3.3178411 6.0827513 -200 45 -200 45 -200 45
2114546674.4457 -3.1316359 5.7263145 -200 45 -200 45 -200 45
2115546791.1319 -2.8895802 4.8117433 -200 45 -200 45 -200 45
2116546907.818 -2.7415235 3.2573528 -200 45 -200 45 -200 45
2117547024.5041 -2.6889615 1.7914613 -200 45 -200 45 -200 45
2118547141.1902 -2.688647 0.5821836 -200 45 -200 45 -200 45
2119547257.8763 -2.7082133 -0.37333304 -200 45 -200 45 -200 45
2120547374.5624 -2.7372718 -1.1394045 -200 45 -200 45 -200 45
2121547491.2485 -2.768667 -1.7729753 -200 45 -200 45 -200 45
2122547607.9347 -2.7986019 -2.3027782 -200 45 -200 45 -200 45
2123547724.6208 -2.8313239 -2.7651553 -200 45 -200 45 -200 45
2124547841.3069 -2.857743 -3.1517546 -200 45 -200 45 -200 45
2125547957.993 -2.8848336 -3.4840729 -200 45 -200 45 -200 45
2126548074.6791 -2.9116442 -3.7738421 -200 45 -200 45 -200 45
2127548191.3652 -2.9333978 -4.0345416 -200 45 -200 45 -200 45
2128548308.0513 -2.9550018 -4.2611713 -200 45 -200 45 -200 45
2129548424.7375 -2.9765668 -4.4738331 -200 45 -200 45 -200 45
2130548541.4236 -2.9967425 -4.6660852 -200 45 -200 45 -200 45
2131548658.1097 -3.0158706 -4.8486524 -200 45 -200 45 -200 45
2132548774.7958 -3.0329885 -4.9974241 -200 45 -200 45 -200 45
2133548891.4819 -3.0476511 -5.1549211 -200 45 -200 45 -200 45
2134549008.168 -3.0628121 -5.2769208 -200 45 -200 45 -200 45
2135549124.8541 -3.0788398 -5.3976769 -200 45 -200 45 -200 45
2136549241.5403 -3.0934706 -5.5203843 -200 45 -200 45 -200 45
2137549358.2264 -3.1053386 -5.6125708 -200 45 -200 45 -200 45
2138549474.9125 -3.120837 -5.7156167 -200 45 -200 45 -200 45
2139549591.5986 -3.1318033 -5.802135 -200 45 -200 45 -200 45
2140549708.2847 -3.143919 -5.8883905 -200 45 -200 45 -200 45
2141549824.9708 -3.1524127 -5.9665923 -200 45 -200 45 -200 45
2142549941.6569 -3.1639807 -6.0418124 -200 45 -200 45 -200 45
2143550058.3431 -3.1735938 -6.112277 -200 45 -200 45 -200 45
2144550175.0292 -3.1828759 -6.1785898 -200 45 -200 45 -200 45
2145550291.7153 -3.194495 -6.2338805 -200 45 -200 45 -200 45
2146550408.4014 -3.2010589 -6.2953367 -200 45 -200 45 -200 45
2147550525.0875 -3.2090061 -6.3578343 -200 45 -200 45 -200 45
2148550641.7736 -3.2174354 -6.4097204 -200 45 -200 45 -200 45
2149550758.4597 -3.2259557 -6.4510837 -200 45 -200 45 -200 45
2150550875.1459 -3.2335498 -6.4993591 -200 45 -200 45 -200 45
2151550991.832 -3.2416587 -6.5455723 -200 45 -200 45 -200 45
2152551108.5181 -3.2474449 -6.590764 -200 45 -200 45 -200 45
2153551225.2042 -3.25525 -6.6298556 -200 45 -200 45 -200 45
2154551341.8903 -3.2618487 -6.6605458 -200 45 -200 45 -200 45
2155551458.5764 -3.2703726 -6.6938486 -200 45 -200 45 -200 45
2156551575.2625 -3.2742822 -6.7336226 -200 45 -200 45 -200 45
2157551691.9487 -3.2815125 -6.7679892 -200 45 -200 45 -200 45
2158551808.6348 -3.2879868 -6.8056626 -200 45 -200 45 -200 45
2159551925.3209 -3.293817 -6.8306532 -200 45 -200 45 -200 45
2160552042.007 -3.3008835 -6.8497834 -200 45 -200 45 -200 45
2161552158.6931 -3.3047791 -6.8962297 -200 45 -200 45 -200 45
2162552275.3792 -3.3101859 -6.9214802 -200 45 -200 45 -200 45
2163552392.0653 -3.3175893 -6.9376855 -200 45 -200 45 -200 45
2164552508.7515 -3.3213229 -6.9596143 -200 45 -200 45 -200 45
2165552625.4376 -3.3261268 -6.9775672 -200 45 -200 45 -200 45
2166552742.1237 -3.3308074 -7.0156589 -200 45 -200 45 -200 45
2167552858.8098 -3.3364697 -7.0259705 -200 45 -200 45 -200 45
2168552975.4959 -3.3411813 -7.0494509 -200 45 -200 45 -200 45
2169553092.182 -3.3464267 -7.0661902 -200 45 -200 45 -200 45
2170553208.8681 -3.350142 -7.0834103 -200 45 -200 45 -200 45
2171553325.5543 -3.3575144 -7.1079106 -200 45 -200 45 -200 45
2172553442.2404 -3.3601799 -7.1354318 -200 45 -200 45 -200 45
2173553558.9265 -3.3647146 -7.1446404 -200 45 -200 45 -200 45
2174553675.6126 -3.3691633 -7.1543756 -200 45 -200 45 -200 45
2175553792.2987 -3.3734453 -7.1628399 -200 45 -200 45 -200 45
2176553908.9848 -3.3783925 -7.1784258 -200 45 -200 45 -200 45
2177554025.6709 -3.3820798 -7.2064266 -200 45 -200 45 -200 45
2178554142.3571 -3.3848605 -7.2045641 -200 45 -200 45 -200 45
2179554259.0432 -3.3887036 -7.2190781 -200 45 -200 45 -200 45
2180554375.7293 -3.3914964 -7.2470117 -200 45 -200 45 -200 45
2181554492.4154 -3.3960643 -7.2509384 -200 45 -200 45 -200 45
2182554609.1015 -3.3986514 -7.2619681 -200 45 -200 45 -200 45
2183554725.7876 -3.4041631 -7.2827663 -200 45 -200 45 -200 45
2184554842.4737 -3.40694 -7.2825389 -200 45 -200 45 -200 45
2185554959.1599 -3.4094136 -7.3031201 -200 45 -200 45 -200 45
2186555075.846 -3.4135177 -7.3153229 -200 45 -200 45 -200 45
2187555192.5321 -3.4183507 -7.313098 -200 45 -200 45 -200 45
2188555309.2182 -3.4202774 -7.3360896 -200 45 -200 45 -200 45
2189555425.9043 -3.4238243 -7.3458114 -200 45 -200 45 -200 45
2190555542.5904 -3.4266036 -7.3465672 -200 45 -200 45 -200 45
2191555659.2765 -3.4314473 -7.3701038 -200 45 -200 45 -200 45
2192555775.9627 -3.4334226 -7.3740664 -200 45 -200 45 -200 45
2193555892.6488 -3.4380903 -7.3778195 -200 45 -200 45 -200 45
2194556009.3349 -3.4394624 -7.3958859 -200 45 -200 45 -200 45
2195556126.021 -3.4440165 -7.3968177 -200 45 -200 45 -200 45
2196556242.7071 -3.446691 -7.4001021 -200 45 -200 45 -200 45
2197556359.3932 -3.4512262 -7.4155493 -200 45 -200 45 -200 45
2198556476.0793 -3.4528363 -7.4153433 -200 45 -200 45 -200 45
2199556592.7655 -3.4557292 -7.435781 -200 45 -200 45 -200 45
2200556709.4516 -3.4593613 -7.4392066 -200 45 -200 45 -200 45
2201556826.1377 -3.4633176 -7.4363232 -200 45 -200 45 -200 45
2202556942.8238 -3.4652333 -7.453393 -200 45 -200 45 -200 45
2203557059.5099 -3.4690614 -7.4578676 -200 45 -200 45 -200 45
2204557176.196 -3.4701638 -7.4593 -200 45 -200 45 -200 45
2205557292.8821 -3.4734828 -7.4748139 -200 45 -200 45 -200 45
2206557409.5683 -3.4767473 -7.4749994 -200 45 -200 45 -200 45
2207557526.2544 -3.4788334 -7.4901538 -200 45 -200 45 -200 45
2208557642.9405 -3.482208 -7.4860044 -200 45 -200 45 -200 45
2209557759.6266 -3.4842982 -7.499949 -200 45 -200 45 -200 45
2210557876.3127 -3.4868286 -7.4951816 -200 45 -200 45 -200 45
2211557992.9988 -3.4897232 -7.4912362 -200 45 -200 45 -200 45
2212558109.6849 -3.49226 -7.494081 -200 45 -200 45 -200 45
2213558226.3711 -3.4968796 -7.5005665 -200 45 -200 45 -200 45
2214558343.0572 -3.4982989 -7.5170188 -200 45 -200 45 -200 45
2215558459.7433 -3.4997768 -7.5138125 -200 45 -200 45 -200 45
2216558576.4294 -3.5020218 -7.5385618 -200 45 -200 45 -200 45
2217558693.1155 -3.5039668 -7.513185 -200 45 -200 45 -200 45
2218558809.8016 -3.5068233 -7.5327621 -200 45 -200 45 -200 45
2219558926.4877 -3.5092247 -7.5494766 -200 45 -200 45 -200 45
2220559043.1739 -3.5136673 -7.5357113 -200 45 -200 45 -200 45
2221559159.86 -3.5152354 -7.5532713 -200 45 -200 45 -200 45
2222559276.5461 -3.5143375 -7.5431161 -200 45 -200 45 -200 45
2223559393.2322 -3.5198121 -7.5501142 -200 45 -200 45 -200 45
2224559509.9183 -3.5214241 -7.559217 -200 45 -200 45 -200 45
2225559626.6044 -3.524312 -7.5606227 -200 45 -200 45 -200 45
2226559743.2905 -3.5270185 -7.5571928 -200 45 -200 45 -200 45
2227559859.9767 -3.5286379 -7.5587554 -200 45 -200 45 -200 45
2228559976.6628 -3.5306513 -7.5782571 -200 45 -200 45 -200 45
2229560093.3489 -3.5323865 -7.5818276 -200 45 -200 45 -200 45
2230560210.035 -3.5356131 -7.580132 -200 45 -200 45 -200 45
2231560326.7211 -3.5378973 -7.577961 -200 45 -200 45 -200 45
2232560443.4072 -3.5395572 -7.5895696 -200 45 -200 45 -200 45
2233560560.0933 -3.5426209 -7.6003289 -200 45 -200 45 -200 45
2234560676.7795 -3.5444694 -7.6040769 -200 45 -200 45 -200 45
2235560793.4656 -3.5472996 -7.5936089 -200 45 -200 45 -200 45
2236560910.1517 -3.5488596 -7.6096025 -200 45 -200 45 -200 45
2237561026.8378 -3.5513818 -7.6170664 -200 45 -200 45 -200 45
2238561143.5239 -3.5542526 -7.6212463 -200 45 -200 45 -200 45
2239561260.21 -3.5564122 -7.6221199 -200 45 -200 45 -200 45
2240561376.8961 -3.5576413 -7.6212125 -200 45 -200 45 -200 45
2241561493.5823 -3.5600774 -7.6210108 -200 45 -200 45 -200 45
2242561610.2684 -3.5639327 -7.6427145 -200 45 -200 45 -200 45
2243561726.9545 -3.5661342 -7.6288638 -200 45 -200 45 -200 45
2244561843.6406 -3.5663679 -7.6371317 -200 45 -200 45 -200 45
2245561960.3267 -3.5698218 -7.6413116 -200 45 -200 45 -200 45
2246562077.0128 -3.5717006 -7.6300564 -200 45 -200 45 -200 45
2247562193.6989 -3.5751472 -7.6360903 -200 45 -200 45 -200 45
2248562310.3851 -3.577158 -7.6444111 -200 45 -200 45 -200 45
2249562427.0712 -3.5798688 -7.6487122 -200 45 -200 45 -200 45
2250562543.7573 -3.5823302 -7.6395445 -200 45 -200 45 -200 45
2251562660.4434 -3.5832324 -7.6582618 -200 45 -200 45 -200 45
2252562777.1295 -3.5862455 -7.6461501 -200 45 -200 45 -200 45
2253562893.8156 -3.5896926 -7.644042 -200 45 -200 45 -200 45
2254563010.5018 -3.589587 -7.6566377 -200 45 -200 45 -200 45
2255563127.1879 -3.592593 -7.6595879 -200 45 -200 45 -200 45
2256563243.874 -3.5948772 -7.6710086 -200 45 -200 45 -200 45
2257563360.5601 -3.5967813 -7.6517859 -200 45 -200 45 -200 45
2258563477.2462 -3.5992537 -7.6505079 -200 45 -200 45 -200 45
2259563593.9323 -3.6003335 -7.6597104 -200 45 -200 45 -200 45
2260563710.6184 -3.6038516 -7.6596518 -200 45 -200 45 -200 45
2261563827.3046 -3.605417 -7.6610289 -200 45 -200 45 -200 45
2262563943.9907 -3.6090853 -7.6589422 -200 45 -200 45 -200 45
2263564060.6768 -3.6074443 -7.6660919 -200 45 -200 45 -200 45
2264564177.3629 -3.6129596 -7.6658306 -200 45 -200 45 -200 45
2265564294.049 -3.6142795 -7.6680727 -200 45 -200 45 -200 45
2266564410.7351 -3.6166968 -7.6614718 -200 45 -200 45 -200 45
2267564527.4212 -3.6181211 -7.6699467 -200 45 -200 45 -200 45
2268564644.1074 -3.6199594 -7.6687145 -200 45 -200 45 -200 45
2269564760.7935 -3.6219459 -7.677115 -200 45 -200 45 -200 45
2270564877.4796 -3.625104 -7.677258 -200 45 -200 45 -200 45
2271564994.1657 -3.6276927 -7.6757307 -200 45 -200 45 -200 45
2272565110.8518 -3.6312361 -7.6707168 -200 45 -200 45 -200 45
2273565227.5379 -3.6321862 -7.6727223 -200 45 -200 45 -200 45
2274565344.224 -3.6354685 -7.6811275 -200 45 -200 45 -200 45
2275565460.9102 -3.6351507 -7.6864772 -200 45 -200 45 -200 45
2276565577.5963 -3.6374223 -7.6817484 -200 45 -200 45 -200 45
2277565694.2824 -3.6392839 -7.678637 -200 45 -200 45 -200 45
2278565810.9685 -3.6417327 -7.6706886 -200 45 -200 45 -200 45
2279565927.6546 -3.64467 -7.6727462 -200 45 -200 45 -200 45
2280566044.3407 -3.6468067 -7.6715617 -200 45 -200 45 -200 45
2281566161.0268 -3.6479986 -7.676496 -200 45 -200 45 -200 45
2282566277.713 -3.6525459 -7.6810141 -200 45 -200 45 -200 45
2283566394.3991 -3.6557012 -7.6751752 -200 45 -200 45 -200 45
2284566511.0852 -3.6529732 -7.6876616 -200 45 -200 45 -200 45
2285566627.7713 -3.6572149 -7.6822715 -200 45 -200 45 -200 45
2286566744.4574 -3.6597991 -7.6766357 -200 45 -200 45 -200 45
2287566861.1435 -3.6613739 -7.6788445 -200 45 -200 45 -200 45
2288566977.8296 -3.6637998 -7.6767287 -200 45 -200 45 -200 45
2289567094.5158 -3.66763 -7.6875982 -200 45 -200 45 -200 45
2290567211.2019 -3.6671374 -7.6659031 -200 45 -200 45 -200 45
2291567327.888 -3.670244 -7.6786456 -200 45 -200 45 -200 45
2292567444.5741 -3.6735272 -7.6817284 -200 45 -200 45 -200 45
2293567561.2602 -3.6756079 -7.6827908 -200 45 -200 45 -200 45
2294567677.9463 -3.6768601 -7.6843524 -200 45 -200 45 -200 45
2295567794.6324 -3.6784732 -7.6957331 -200 45 -200 45 -200 45
2296567911.3186 -3.6823764 -7.6801543 -200 45 -200 45 -200 45
2297568028.0047 -3.6863885 -7.6776366 -200 45 -200 45 -200 45
2298568144.6908 -3.6882648 -7.673686 -200 45 -200 45 -200 45
2299568261.3769 -3.6883974 -7.6805744 -200 45 -200 45 -200 45
2300568378.063 -3.6906877 -7.6946549 -200 45 -200 45 -200 45
2301568494.7491 -3.6927743 -7.7028098 -200 45 -200 45 -200 45
2302568611.4352 -3.6970823 -7.6811037 -200 45 -200 45 -200 45
2303568728.1214 -3.6983862 -7.6948256 -200 45 -200 45 -200 45
2304568844.8075 -3.7010007 -7.6856985 -200 45 -200 45 -200 45
2305568961.4936 -3.7033441 -7.6905832 -200 45 -200 45 -200 45
2306569078.1797 -3.7038743 -7.6813254 -200 45 -200 45 -200 45
2307569194.8658 -3.7088289 -7.6945224 -200 45 -200 45 -200 45
2308569311.5519 -3.7090635 -7.6915531 -200 45 -200 45 -200 45
2309569428.238 -3.7128541 -7.7015538 -200 45 -200 45 -200 45
2310569544.9242 -3.7166543 -7.6998506 -200 45 -200 45 -200 45
2311569661.6103 -3.7177615 -7.6940408 -200 45 -200 45 -200 45
2312569778.2964 -3.7206442 -7.6901922 -200 45 -200 45 -200 45
2313569894.9825 -3.7252245 -7.6998219 -200 45 -200 45 -200 45
2314570011.6686 -3.7243829 -7.7035222 -200 45 -200 45 -200 45
2315570128.3547 -3.7295482 -7.7067842 -200 45 -200 45 -200 45
2316570245.0408 -3.7338269 -7.706686 -200 45 -200 45 -200 45
2317570361.727 -3.7365215 -7.7214589 -200 45 -200 45 -200 45
2318570478.4131 -3.7405705 -7.7249193 -200 45 -200 45 -200 45
2319570595.0992 -3.7456548 -7.7139182 -200 45 -200 45 -200 45
2320570711.7853 -3.7521698 -7.7095251 -200 45 -200 45 -200 45
2321570828.4714 -3.7534418 -7.7053356 -200 45 -200 45 -200 45
2322570945.1575 -3.7593117 -7.7100286 -200 45 -200 45 -200 45
2323571061.8436 -3.7681577 -7.6795506 -200 45 -200 45 -200 45
2324571178.5298 -3.7734046 -7.6343756 -200 45 -200 45 -200 45
2325571295.2159 -3.7790618 -7.6041045 -200 45 -200 45 -200 45
2326571411.902 -3.7808611 -7.5512147 -200 45 -200 45 -200 45
2327571528.5881 -3.7805984 -7.5015593 -200 45 -200 45 -200 45
2328571645.2742 -3.776679 -7.4902091 -200 45 -200 45 -200 45
2329571761.9603 -3.775629 -7.4650126 -200 45 -200 45 -200 45
2330571878.6464 -3.7721031 -7.4493885 -200 45 -200 45 -200 45
2331571995.3326 -3.7725153 -7.4322276 -200 45 -200 45 -200 45
2332572112.0187 -3.77035 -7.4302001 -200 45 -200 45 -200 45
2333572228.7048 -3.7679212 -7.4148893 -200 45 -200 45 -200 45
2334572345.3909 -3.7671254 -7.4309044 -200 45 -200 45 -200 45
2335572462.077 -3.7676487 -7.4310899 -200 45 -200 45 -200 45
2336572578.7631 -3.767312 -7.4241076 -200 45 -200 45 -200 45
2337572695.4492 -3.7660606 -7.4250193 -200 45 -200 45 -200 45
2338572812.1354 -3.7667038 -7.4340515 -200 45 -200 45 -200 45
2339572928.8215 -3.7659152 -7.4490786 -200 45 -200 45 -200 45
2340573045.5076 -3.7671649 -7.4527087 -200 45 -200 45 -200 45
2341573162.1937 -3.7675974 -7.4581866 -200 45 -200 45 -200 45
2342573278.8798 -3.7670987 -7.4636459 -200 45 -200 45 -200 45
2343573395.5659 -3.768316 -7.4654703 -200 45 -200 45 -200 45
2344573512.252 -3.7684541 -7.4729109 -200 45 -200 45 -200 45
2345573628.9382 -3.7664149 -7.5009823 -200 45 -200 45 -200 45
2346573745.6243 -3.7694159 -7.5136719 -200 45 -200 45 -200 45
2347573862.3104 -3.7718608 -7.5313926 -200 45 -200 45 -200 45
2348573978.9965 -3.7732339 -7.5387845 -200 45 -200 45 -200 45
2349574095.6826 -3.7754834 -7.5436778 -200 45 -200 45 -200 45
2350574212.3687 -3.7781236 -7.5437646 -200 45 -200 45 -200 45
2351574329.0548 -3.7799351 -7.5558987 -200 45 -200 45 -200 45
2352574445.741 -3.7840741 -7.5542669 -200 45 -200 45 -200 45
2353574562.4271 -3.7849314 -7.5569582 -200 45 -200 45 -200 45
2354574679.1132 -3.7876163 -7.5669351 -200 45 -200 45 -200 45
2355574795.7993 -3.789058 -7.5764565 -200 45 -200 45 -200 45
2356574912.4854 -3.7930388 -7.5749512 -200 45 -200 45 -200 45
2357575029.1715 -3.7950406 -7.5625076 -200 45 -200 45 -200 45
2358575145.8576 -3.7979035 -7.5787277 -200 45 -200 45 -200 45
2359575262.5438 -3.7990215 -7.5796814 -200 45 -200 45 -200 45
2360575379.2299 -3.801724 -7.5871081 -200 45 -200 45 -200 45
2361575495.916 -3.8053679 -7.5865064 -200 45 -200 45 -200 45
2362575612.6021 -3.8063896 -7.5866628 -200 45 -200 45 -200 45
2363575729.2882 -3.8100483 -7.5936098 -200 45 -200 45 -200 45
2364575845.9743 -3.8117416 -7.6000547 -200 45 -200 45 -200 45
2365575962.6604 -3.8125179 -7.5896697 -200 45 -200 45 -200 45
2366576079.3466 -3.8161144 -7.5997725 -200 45 -200 45 -200 45
2367576196.0327 -3.8199704 -7.5936069 -200 45 -200 45 -200 45
2368576312.7188 -3.8220997 -7.603148 -200 45 -200 45 -200 45
2369576429.4049 -3.8218334 -7.5990515 -200 45 -200 45 -200 45
2370576546.091 -3.8253727 -7.6100955 -200 45 -200 45 -200 45
2371576662.7771 -3.8283548 -7.596415 -200 45 -200 45 -200 45
2372576779.4632 -3.8292303 -7.6002078 -200 45 -200 45 -200 45
2373576896.1494 -3.8331957 -7.6063046 -200 45 -200 45 -200 45
2374577012.8355 -3.8351102 -7.6064472 -200 45 -200 45 -200 45
2375577129.5216 -3.8383832 -7.6027999 -200 45 -200 45 -200 45
2376577246.2077 -3.8410406 -7.6113973 -200 45 -200 45 -200 45
2377577362.8938 -3.8410983 -7.6122451 -200 45 -200 45 -200 45
2378577479.5799 -3.8448243 -7.6127572 -200 45 -200 45 -200 45
2379577596.266 -3.8467431 -7.6120939 -200 45 -200 45 -200 45
2380577712.9522 -3.8473415 -7.6118727 -200 45 -200 45 -200 45
2381577829.6383 -3.8502381 -7.6092319 -200 45 -200 45 -200 45
2382577946.3244 -3.8530209 -7.6099339 -200 45 -200 45 -200 45
2383578063.0105 -3.8572924 -7.6139708 -200 45 -200 45 -200 45
2384578179.6966 -3.8579419 -7.6177802 -200 45 -200 45 -200 45
2385578296.3827 -3.8608792 -7.6275702 -200 45 -200 45 -200 45
2386578413.0688 -3.8624265 -7.6086712 -200 45 -200 45 -200 45
2387578529.755 -3.8643193 -7.6144681 -200 45 -200 45 -200 45
2388578646.4411 -3.8682835 -7.6173873 -200 45 -200 45 -200 45
2389578763.1272 -3.8710735 -7.6194124 -200 45 -200 45 -200 45
2390578879.8133 -3.8723288 -7.6283402 -200 45 -200 45 -200 45
2391578996.4994 -3.8750758 -7.6207452 -200 45 -200 45 -200 45
2392579113.1855 -3.8781939 -7.6320405 -200 45 -200 45 -200 45
2393579229.8716 -3.8800573 -7.6284857 -200 45 -200 45 -200 45
2394579346.5578 -3.8834834 -7.6402197 -200 45 -200 45 -200 45
2395579463.2439 -3.8870351 -7.6371088 -200 45 -200 45 -200 45
2396579579.93 -3.8877177 -7.6397443 -200 45 -200 45 -200 45
2397579696.6161 -3.8918815 -7.6410189 -200 45 -200 45 -200 45
2398579813.3022 -3.8951824 -7.6388826 -200 45 -200 45 -200 45
2399579929.9883 -3.8959637 -7.6423697 -200 45 -200 45 -200 45
2400580046.6744 -3.9000721 -7.6412296 -200 45 -200 45 -200 45
2401580163.3606 -3.9024467 -7.6526442 -200 45 -200 45 -200 45
2402580280.0467 -3.9044499 -7.6437731 -200 45 -200 45 -200 45
2403580396.7328 -3.9081728 -7.6553206 -200 45 -200 45 -200 45
2404580513.4189 -3.9099801 -7.6489086 -200 45 -200 45 -200 45
2405580630.105 -3.9143391 -7.6539512 -200 45 -200 45 -200 45
2406580746.7911 -3.9173646 -7.6573644 -200 45 -200 45 -200 45
2407580863.4772 -3.9186912 -7.6617274 -200 45 -200 45 -200 45
2408580980.1634 -3.9237409 -7.6737895 -200 45 -200 45 -200 45
2409581096.8495 -3.9253862 -7.6891212 -200 45 -200 45 -200 45
2410581213.5356 -3.9310784 -7.6857557 -200 45 -200 45 -200 45
2411581330.2217 -3.9333618 -7.6827106 -200 45 -200 45 -200 45
2412581446.9078 -3.9365246 -7.6969085 -200 45 -200 45 -200 45
2413581563.5939 -3.9410763 -7.6784825 -200 45 -200 45 -200 45
2414581680.28 -3.9417367 -7.6887903 -200 45 -200 45 -200 45
2415581796.9662 -3.9464345 -7.6787138 -200 45 -200 45 -200 45
2416581913.6523 -3.9504774 -7.6986094 -200 45 -200 45 -200 45
2417582030.3384 -3.9542823 -7.6924877 -200 45 -200 45 -200 45
2418582147.0245 -3.9566605 -7.7205396 -200 45 -200 45 -200 45
2419582263.7106 -3.9606841 -7.7201715 -200 45 -200 45 -200 45
2420582380.3967 -3.9632232 -7.7325339 -200 45 -200 45 -200 45
2421582497.0828 -3.9686012 -7.7338295 -200 45 -200 45 -200 45
2422582613.769 -3.972554 -7.7246923 -200 45 -200 45 -200 45
2423582730.4551 -3.974735 -7.7574773 -200 45 -200 45 -200 45
2424582847.1412 -3.9817133 -7.771718 -200 45 -200 45 -200 45
2425582963.8273 -3.9853919 -7.7662086 -200 45 -200 45 -200 45
2426583080.5134 -3.9891458 -7.7651696 -200 45 -200 45 -200 45
2427583197.1995 -3.9942367 -7.7910748 -200 45 -200 45 -200 45
2428583313.8856 -3.9994884 -7.7839451 -200 45 -200 45 -200 45
2429583430.5718 -4.002275 -7.798974 -200 45 -200 45 -200 45
2430583547.2579 -4.0097685 -7.8115149 -200 45 -200 45 -200 45
2431583663.944 -4.0154648 -7.8082972 -200 45 -200 45 -200 45
2432583780.6301 -4.0197539 -7.8379741 -200 45 -200 45 -200 45
2433583897.3162 -4.0234327 -7.8527508 -200 45 -200 45 -200 45
2434584014.0023 -4.0291824 -7.8496242 -200 45 -200 45 -200 45
2435584130.6884 -4.0351896 -7.8696175 -200 45 -200 45 -200 45
2436584247.3746 -4.042954 -7.8874111 -200 45 -200 45 -200 45
2437584364.0607 -4.0478115 -7.8967299 -200 45 -200 45 -200 45
2438584480.7468 -4.0551782 -7.9052176 -200 45 -200 45 -200 45
2439584597.4329 -4.0592232 -7.9175749 -200 45 -200 45 -200 45
2440584714.119 -4.0691743 -7.9495096 -200 45 -200 45 -200 45
2441584830.8051 -4.0742784 -7.9657774 -200 45 -200 45 -200 45
2442584947.4912 -4.0827208 -7.978159 -200 45 -200 45 -200 45
2443585064.1774 -4.0923514 -8.0039845 -200 45 -200 45 -200 45
2444585180.8635 -4.0997462 -8.0374975 -200 45 -200 45 -200 45
2445585297.5496 -4.1065536 -8.056201 -200 45 -200 45 -200 45
2446585414.2357 -4.1191311 -8.0706224 -200 45 -200 45 -200 45
2447585530.9218 -4.1273522 -8.1289854 -200 45 -200 45 -200 45
2448585647.6079 -4.1386428 -8.1524935 -200 45 -200 45 -200 45
2449585764.294 -4.1516194 -8.1828938 -200 45 -200 45 -200 45
2450585880.9802 -4.1635146 -8.2123928 -200 45 -200 45 -200 45
2451585997.6663 -4.1784101 -8.2559652 -200 45 -200 45 -200 45
2452586114.3524 -4.1931601 -8.3065081 -200 45 -200 45 -200 45
2453586231.0385 -4.2103558 -8.35394 -200 45 -200 45 -200 45
2454586347.7246 -4.2291183 -8.3902769 -200 45 -200 45 -200 45
2455586464.4107 -4.2507901 -8.4516211 -200 45 -200 45 -200 45
2456586581.0968 -4.2732983 -8.4979506 -200 45 -200 45 -200 45
2457586697.783 -4.30023 -8.5781126 -200 45 -200 45 -200 45
2458586814.4691 -4.3315387 -8.6333618 -200 45 -200 45 -200 45
2459586931.1552 -4.3664107 -8.6925478 -200 45 -200 45 -200 45
2460587047.8413 -4.4073248 -8.7382803 -200 45 -200 45 -200 45
2461587164.5274 -4.4538684 -8.7817402 -200 45 -200 45 -200 45
2462587281.2135 -4.5103993 -8.835474 -200 45 -200 45 -200 45
2463587397.8997 -4.5772324 -8.8432903 -200 45 -200 45 -200 45
2464587514.5858 -4.6630254 -8.7989998 -200 45 -200 45 -200 45
2465587631.2719 -4.7643023 -8.6199465 -200 45 -200 45 -200 45
2466587747.958 -4.873333 -8.2485752 -200 45 -200 45 -200 45
2467587864.6441 -4.9882641 -7.6432762 -200 45 -200 45 -200 45
2468587981.3302 -5.0874977 -6.7389379 -200 45 -200 45 -200 45
2469588098.0163 -5.1466165 -5.5327263 -200 45 -200 45 -200 45
2470588214.7025 -5.1381464 -4.2249112 -200 45 -200 45 -200 45
2471588331.3886 -5.0727715 -3.0744655 -200 45 -200 45 -200 45
2472588448.0747 -4.9720697 -2.1546609 -200 45 -200 45 -200 45
2473588564.7608 -4.8598413 -1.4947203 -200 45 -200 45 -200 45
2474588681.4469 -4.7421398 -1.0239459 -200 45 -200 45 -200 45
2475588798.133 -4.6291909 -0.69998264 -200 45 -200 45 -200 45
2476588914.8191 -4.5184941 -0.45549613 -200 45 -200 45 -200 45
2477589031.5053 -4.4047232 -0.34823737 -200 45 -200 45 -200 45
2478589148.1914 -4.3002558 -0.41568673 -200 45 -200 45 -200 45
2479589264.8775 -4.2147865 -0.55645603 -200 45 -200 45 -200 45
2480589381.5636 -4.1415653 -0.65800846 -200 45 -200 45 -200 45
2481589498.2497 -4.0628257 -0.77725106 -200 45 -200 45 -200 45
2482589614.9358 -3.9865408 -1.0312816 -200 45 -200 45 -200 45
2483589731.6219 -3.9267714 -1.3656461 -200 45 -200 45 -200 45
2484589848.3081 -3.8861799 -1.7185436 -200 45 -200 45 -200 45
2485589964.9942 -3.8579891 -2.0313165 -200 45 -200 45 -200 45
2486590081.6803 -3.839844 -2.3002446 -200 45 -200 45 -200 45
2487590198.3664 -3.8245461 -2.5200176 -200 45 -200 45 -200 45
2488590315.0525 -3.8111029 -2.694046 -200 45 -200 45 -200 45
2489590431.7386 -3.7929163 -2.8369071 -200 45 -200 45 -200 45
2490590548.4247 -3.775171 -2.9807143 -200 45 -200 45 -200 45
2491590665.1109 -3.7513342 -3.1465621 -200 45 -200 45 -200 45
2492590781.797 -3.7280462 -3.344461 -200 45 -200 45 -200 45
2493590898.4831 -3.7097068 -3.5789497 -200 45 -200 45 -200 45
2494591015.1692 -3.698988 -3.8163145 -200 45 -200 45 -200 45
2495591131.8553 -3.6931806 -4.0800366 -200 45 -200 45 -200 45
2496591248.5414 -3.6963296 -4.3006654 -200 45 -200 45 -200 45
2497591365.2275 -3.7025781 -4.5242391 -200 45 -200 45 -200 45
2498591481.9137 -3.7098081 -4.7068844 -200 45 -200 45 -200 45
2499591598.5998 -3.7201576 -4.8514452 -200 45 -200 45 -200 45
2500591715.2859 -3.7321932 -4.9832988 -200 45 -200 45 -200 45
2501591831.972 -3.7390735 -5.090169 -200 45 -200 45 -200 45
2502591948.6581 -3.7501745 -5.1842728 -200 45 -200 45 -200 45
2503592065.3442 -3.7602174 -5.2728906 -200 45 -200 45 -200 45
2504592182.0303 -3.7694485 -5.3728352 -200 45 -200 45 -200 45
2505592298.7165 -3.779139 -5.4327655 -200 45 -200 45 -200 45
2506592415.4026 -3.7859392 -5.4897637 -200 45 -200 45 -200 45
2507592532.0887 -3.7956347 -5.5358477 -200 45 -200 45 -200 45
2508592648.7748 -3.8017981 -5.585763 -200 45 -200 45 -200 45
2509592765.4609 -3.8105581 -5.6389832 -200 45 -200 45 -200 45
2510592882.147 -3.8155012 -5.6842036 -200 45 -200 45 -200 45
2511592998.8331 -3.8230023 -5.7175326 -200 45 -200 45 -200 45
2512593115.5193 -3.830097 -5.76472 -200 45 -200 45 -200 45
2513593232.2054 -3.8348439 -5.773756 -200 45 -200 45 -200 45
2514593348.8915 -3.8420656 -5.8142977 -200 45 -200 45 -200 45
2515593465.5776 -3.8465278 -5.8426809 -200 45 -200 45 -200 45
2516593582.2637 -3.8526986 -5.8736839 -200 45 -200 45 -200 45
2517593698.9498 -3.8591025 -5.8988423 -200 45 -200 45 -200 45
2518593815.6359 -3.864224 -5.9092002 -200 45 -200 45 -200 45
2519593932.3221 -3.8708885 -5.9398308 -200 45 -200 45 -200 45
2520594049.0082 -3.8735921 -5.9714375 -200 45 -200 45 -200 45
2521594165.6943 -3.8774099 -5.9892821 -200 45 -200 45 -200 45
2522594282.3804 -3.8840363 -5.9976611 -200 45 -200 45 -200 45
2523594399.0665 -3.8873961 -6.010004 -200 45 -200 45 -200 45
2524594515.7526 -3.8916788 -6.019383 -200 45 -200 45 -200 45
2525594632.4387 -3.8974905 -6.0400209 -200 45 -200 45 -200 45
2526594749.1249 -3.9004016 -6.0547757 -200 45 -200 45 -200 45
2527594865.811 -3.9074717 -6.0685759 -200 45 -200 45 -200 45
2528594982.4971 -3.909116 -6.0851393 -200 45 -200 45 -200 45
2529595099.1832 -3.9130371 -6.0787792 -200 45 -200 45 -200 45
2530595215.8693 -3.916075 -6.0970664 -200 45 -200 45 -200 45
2531595332.5554 -3.9222846 -6.100306 -200 45 -200 45 -200 45
2532595449.2415 -3.9240506 -6.1103725 -200 45 -200 45 -200 45
2533595565.9277 -3.9270632 -6.1244583 -200 45 -200 45 -200 45
2534595682.6138 -3.9297006 -6.1262813 -200 45 -200 45 -200 45
2535595799.2999 -3.9359891 -6.1566243 -200 45 -200 45 -200 45
2536595915.986 -3.9373548 -6.150928 -200 45 -200 45 -200 45
2537596032.6721 -3.9392617 -6.1562281 -200 45 -200 45 -200 45
2538596149.3582 -3.9454956 -6.1590052 -200 45 -200 45 -200 45
2539596266.0443 -3.9489458 -6.1768837 -200 45 -200 45 -200 45
2540596382.7305 -3.9514465 -6.1740408 -200 45 -200 45 -200 45
2541596499.4166 -3.9522674 -6.1860356 -200 45 -200 45 -200 45
2542596616.1027 -3.9553428 -6.1892924 -200 45 -200 45 -200 45
2543596732.7888 -3.9594622 -6.1997757 -200 45 -200 45 -200 45
2544596849.4749 -3.9620368 -6.2075901 -200 45 -200 45 -200 45
2545596966.161 -3.9648941 -6.2005796 -200 45 -200 45 -200 45
2546597082.8471 -3.9715252 -6.2142715 -200 45 -200 45 -200 45
2547597199.5333 -3.9701922 -6.2143149 -200 45 -200 45 -200 45
2548597316.2194 -3.9749861 -6.2221842 -200 45 -200 45 -200 45
2549597432.9055 -3.9768336 -6.2390375 -200 45 -200 45 -200 45
2550597549.5916 -3.9810638 -6.2267113 -200 45 -200 45 -200 45
2551597666.2777 -3.9840095 -6.2488971 -200 45 -200 45 -200 45
2552597782.9638 -3.9865646 -6.2428026 -200 45 -200 45 -200 45
2553597899.6499 -3.9890702 -6.2475939 -200 45 -200 45 -200 45
2554598016.3361 -3.9921889 -6.2517447 -200 45 -200 45 -200 45
2555598133.0222 -3.9968226 -6.2613187 -200 45 -200 45 -200 45
2556598249.7083 -3.9975393 -6.2594395 -200 45 -200 45 -200 45
2557598366.3944 -4.0008984 -6.2563429 -200 45 -200 45 -200 45
2558598483.0805 -4.0047126 -6.2720423 -200 45 -200 45 -200 45
2559598599.7666 -4.0066729 -6.2749867 -200 45 -200 45 -200 45
2560598716.4527 -4.0120735 -6.2828732 -200 45 -200 45 -200 45
2561598833.1389 -4.0131326 -6.2774696 -200 45 -200 45 -200 45
2562598949.825 -4.0169158 -6.2696161 -200 45 -200 45 -200 45
2563599066.5111 -4.0196347 -6.2796474 -200 45 -200 45 -200 45
2564599183.1972 -4.0216279 -6.2861481 -200 45 -200 45 -200 45
2565599299.8833 -4.0266447 -6.2857718 -200 45 -200 45 -200 45
2566599416.5694 -4.0287862 -6.2823248 -200 45 -200 45 -200 45
2567599533.2555 -4.0318155 -6.2857041 -200 45 -200 45 -200 45
2568599649.9417 -4.0354271 -6.292223 -200 45 -200 45 -200 45
2569599766.6278 -4.0377011 -6.291882 -200 45 -200 45 -200 45
2570599883.3139 -4.0401821 -6.299015 -200 45 -200 45 -200 45
2571600000 -4.0457015 -6.3015509 -200 45 -200 45 -200 45
2572600116.6861 -4.0480266 -6.2986016 -200 45 -200 45 -200 45
2573600233.3722 -4.0473466 -6.3062491 -200 45 -200 45 -200 45
2574600350.0583 -4.0529847 -6.3108406 -200 45 -200 45 -200 45
2575600466.7445 -4.0551648 -6.2981672 -200 45 -200 45 -200 45
2576600583.4306 -4.0610876 -6.2964458 -200 45 -200 45 -200 45
2577600700.1167 -4.0638866 -6.2968173 -200 45 -200 45 -200 45
2578600816.8028 -4.0657377 -6.299336 -200 45 -200 45 -200 45
2579600933.4889 -4.0682673 -6.301074 -200 45 -200 45 -200 45
2580601050.175 -4.0738735 -6.2934332 -200 45 -200 45 -200 45
2581601166.8611 -4.0790973 -6.3086023 -200 45 -200 45 -200 45
2582601283.5473 -4.0833611 -6.3127432 -200 45 -200 45 -200 45
2583601400.2334 -4.0874548 -6.2939734 -200 45 -200 45 -200 45
2584601516.9195 -4.0914941 -6.3019028 -200 45 -200 45 -200 45
2585601633.6056 -4.0996222 -6.2962275 -200 45 -200 45 -200 45
2586601750.2917 -4.1049085 -6.2809591 -200 45 -200 45 -200 45
2587601866.9778 -4.113596 -6.2688704 -200 45 -200 45 -200 45
2588601983.6639 -4.1194153 -6.2451315 -200 45 -200 45 -200 45
2589602100.3501 -4.1262856 -6.204762 -200 45 -200 45 -200 45
2590602217.0362 -4.129858 -6.1316133 -200 45 -200 45 -200 45
2591602333.7223 -4.1367216 -6.0888414 -200 45 -200 45 -200 45
2592602450.4084 -4.1363611 -6.0171781 -200 45 -200 45 -200 45
2593602567.0945 -4.1325593 -5.9452457 -200 45 -200 45 -200 45
2594602683.7806 -4.1286893 -5.9021468 -200 45 -200 45 -200 45
2595602800.4667 -4.1239128 -5.8624506 -200 45 -200 45 -200 45
2596602917.1529 -4.1163888 -5.835587 -200 45 -200 45 -200 45
2597603033.839 -4.1101623 -5.8145275 -200 45 -200 45 -200 45
2598603150.5251 -4.1040812 -5.8280392 -200 45 -200 45 -200 45
2599603267.2112 -4.0985446 -5.8386588 -200 45 -200 45 -200 45
2600603383.8973 -4.0933418 -5.8675218 -200 45 -200 45 -200 45
2601603500.5834 -4.0908508 -5.8793163 -200 45 -200 45 -200 45
2602603617.2695 -4.0910797 -5.9011188 -200 45 -200 45 -200 45
2603603733.9557 -4.0916896 -5.926096 -200 45 -200 45 -200 45
2604603850.6418 -4.0904646 -5.9321427 -200 45 -200 45 -200 45
2605603967.3279 -4.0928779 -5.960907 -200 45 -200 45 -200 45
2606604084.014 -4.0940099 -5.9668798 -200 45 -200 45 -200 45
2607604200.7001 -4.0950003 -5.9843135 -200 45 -200 45 -200 45
2608604317.3862 -4.0968022 -5.9859776 -200 45 -200 45 -200 45
2609604434.0723 -4.0954008 -5.9985089 -200 45 -200 45 -200 45
2610604550.7585 -4.0983262 -6.0056643 -200 45 -200 45 -200 45
2611604667.4446 -4.0976477 -6.0227513 -200 45 -200 45 -200 45
2612604784.1307 -4.0972762 -6.0318809 -200 45 -200 45 -200 45
2613604900.8168 -4.1022048 -6.0500717 -200 45 -200 45 -200 45
2614605017.5029 -4.1033411 -6.0576134 -200 45 -200 45 -200 45
2615605134.189 -4.1084046 -6.0702558 -200 45 -200 45 -200 45
2616605250.8751 -4.1094751 -6.0644445 -200 45 -200 45 -200 45
2617605367.5613 -4.1114082 -6.070724 -200 45 -200 45 -200 45
2618605484.2474 -4.1120639 -6.067678 -200 45 -200 45 -200 45
2619605600.9335 -4.1152935 -6.0780463 -200 45 -200 45 -200 45
2620605717.6196 -4.117238 -6.0929976 -200 45 -200 45 -200 45
2621605834.3057 -4.1195679 -6.0757637 -200 45 -200 45 -200 45
2622605950.9918 -4.1210713 -6.0874529 -200 45 -200 45 -200 45
2623606067.6779 -4.1247473 -6.0909715 -200 45 -200 45 -200 45
2624606184.3641 -4.1267757 -6.0962582 -200 45 -200 45 -200 45
2625606301.0502 -4.1281748 -6.1008353 -200 45 -200 45 -200 45
2626606417.7363 -4.1314206 -6.1067634 -200 45 -200 45 -200 45
2627606534.4224 -4.1308503 -6.0990486 -200 45 -200 45 -200 45
2628606651.1085 -4.1356344 -6.1083999 -200 45 -200 45 -200 45
2629606767.7946 -4.1369023 -6.0902238 -200 45 -200 45 -200 45
2630606884.4807 -4.1409454 -6.1180964 -200 45 -200 45 -200 45
2631607001.1669 -4.1422334 -6.1000471 -200 45 -200 45 -200 45
2632607117.853 -4.1448073 -6.1015863 -200 45 -200 45 -200 45
2633607234.5391 -4.1463089 -6.0980062 -200 45 -200 45 -200 45
2634607351.2252 -4.1493211 -6.1060438 -200 45 -200 45 -200 45
2635607467.9113 -4.1506391 -6.1068082 -200 45 -200 45 -200 45
2636607584.5974 -4.1539316 -6.0836196 -200 45 -200 45 -200 45
2637607701.2835 -4.1571002 -6.0912023 -200 45 -200 45 -200 45
2638607817.9697 -4.1574183 -6.0956306 -200 45 -200 45 -200 45
2639607934.6558 -4.1590519 -6.096468 -200 45 -200 45 -200 45
2640608051.3419 -4.1639309 -6.0964952 -200 45 -200 45 -200 45
2641608168.028 -4.165451 -6.0900612 -200 45 -200 45 -200 45
2642608284.7141 -4.1667323 -6.096652 -200 45 -200 45 -200 45
2643608401.4002 -4.1680393 -6.0827193 -200 45 -200 45 -200 45
2644608518.0863 -4.1702418 -6.0772734 -200 45 -200 45 -200 45
2645608634.7725 -4.1744456 -6.0746107 -200 45 -200 45 -200 45
2646608751.4586 -4.1772184 -6.0936069 -200 45 -200 45 -200 45
2647608868.1447 -4.1795354 -6.08779 -200 45 -200 45 -200 45
2648608984.8308 -4.1798735 -6.0927873 -200 45 -200 45 -200 45
2649609101.5169 -4.1836319 -6.0727882 -200 45 -200 45 -200 45
2650609218.203 -4.1870632 -6.0835547 -200 45 -200 45 -200 45
2651609334.8891 -4.1878352 -6.0762811 -200 45 -200 45 -200 45
2652609451.5753 -4.1887865 -6.0813909 -200 45 -200 45 -200 45
2653609568.2614 -4.1904855 -6.0874791 -200 45 -200 45 -200 45
2654609684.9475 -4.1949091 -6.0642982 -200 45 -200 45 -200 45
2655609801.6336 -4.1951299 -6.0726018 -200 45 -200 45 -200 45
2656609918.3197 -4.1977067 -6.0505247 -200 45 -200 45 -200 45
2657610035.0058 -4.2025723 -6.0583606 -200 45 -200 45 -200 45
2658610151.6919 -4.2022061 -6.073195 -200 45 -200 45 -200 45
2659610268.3781 -4.2055149 -6.0713615 -200 45 -200 45 -200 45
2660610385.0642 -4.2070298 -6.0697308 -200 45 -200 45 -200 45
2661610501.7503 -4.21103 -6.0562768 -200 45 -200 45 -200 45
2662610618.4364 -4.2125387 -6.0634136 -200 45 -200 45 -200 45
2663610735.1225 -4.2145767 -6.0649829 -200 45 -200 45 -200 45
2664610851.8086 -4.2155399 -6.0532126 -200 45 -200 45 -200 45
2665610968.4947 -4.218833 -6.0587425 -200 45 -200 45 -200 45
2666611085.1809 -4.2212234 -6.0619073 -200 45 -200 45 -200 45
2667611201.867 -4.2253828 -6.0581045 -200 45 -200 45 -200 45
2668611318.5531 -4.2253408 -6.0611587 -200 45 -200 45 -200 45
2669611435.2392 -4.2271194 -6.0614686 -200 45 -200 45 -200 45
2670611551.9253 -4.2305536 -6.0562291 -200 45 -200 45 -200 45
2671611668.6114 -4.2318363 -6.051167 -200 45 -200 45 -200 45
2672611785.2975 -4.235961 -6.0682735 -200 45 -200 45 -200 45
2673611901.9837 -4.23704 -6.0674176 -200 45 -200 45 -200 45
2674612018.6698 -4.2391586 -6.0635166 -200 45 -200 45 -200 45
2675612135.3559 -4.2427301 -6.054811 -200 45 -200 45 -200 45
2676612252.042 -4.2453923 -6.0494413 -200 45 -200 45 -200 45
2677612368.7281 -4.2471027 -6.0603728 -200 45 -200 45 -200 45
2678612485.4142 -4.251606 -6.0509048 -200 45 -200 45 -200 45
2679612602.1004 -4.2529693 -6.0591784 -200 45 -200 45 -200 45
2680612718.7865 -4.2566495 -6.0469952 -200 45 -200 45 -200 45
2681612835.4726 -4.2595162 -6.0539556 -200 45 -200 45 -200 45
2682612952.1587 -4.2615151 -6.0582037 -200 45 -200 45 -200 45
2683613068.8448 -4.2648454 -6.0568161 -200 45 -200 45 -200 45
2684613185.5309 -4.2677317 -6.060729 -200 45 -200 45 -200 45
2685613302.217 -4.2721939 -6.0521054 -200 45 -200 45 -200 45
2686613418.9032 -4.2752218 -6.0433259 -200 45 -200 45 -200 45
2687613535.5893 -4.2808561 -6.0560746 -200 45 -200 45 -200 45
2688613652.2754 -4.2828436 -6.0566711 -200 45 -200 45 -200 45
2689613768.9615 -4.2870698 -6.0528255 -200 45 -200 45 -200 45
2690613885.6476 -4.2931552 -6.0710707 -200 45 -200 45 -200 45
2691614002.3337 -4.2966824 -6.0473928 -200 45 -200 45 -200 45
2692614119.0198 -4.3026047 -6.0638928 -200 45 -200 45 -200 45
2693614235.706 -4.3090191 -6.042191 -200 45 -200 45 -200 45
2694614352.3921 -4.3197627 -6.0409784 -200 45 -200 45 -200 45
2695614469.0782 -4.3262606 -6.0068493 -200 45 -200 45 -200 45
2696614585.7643 -4.3344984 -5.9487214 -200 45 -200 45 -200 45
2697614702.4504 -4.3403025 -5.9010105 -200 45 -200 45 -200 45
2698614819.1365 -4.3433805 -5.8348327 -200 45 -200 45 -200 45
2699614935.8226 -4.3452535 -5.7354069 -200 45 -200 45 -200 45
2700615052.5088 -4.3406825 -5.6621108 -200 45 -200 45 -200 45
2701615169.1949 -4.3323131 -5.6021948 -200 45 -200 45 -200 45
2702615285.881 -4.3243632 -5.5598001 -200 45 -200 45 -200 45
2703615402.5671 -4.315609 -5.5533867 -200 45 -200 45 -200 45
2704615519.2532 -4.308012 -5.5693717 -200 45 -200 45 -200 45
2705615635.9393 -4.3025794 -5.5880165 -200 45 -200 45 -200 45
2706615752.6254 -4.2996664 -5.6206684 -200 45 -200 45 -200 45
2707615869.3116 -4.296443 -5.6484199 -200 45 -200 45 -200 45
2708615985.9977 -4.2970943 -5.6847825 -200 45 -200 45 -200 45
2709616102.6838 -4.2969575 -5.7115889 -200 45 -200 45 -200 45
2710616219.3699 -4.3019652 -5.7259932 -200 45 -200 45 -200 45
2711616336.056 -4.3025408 -5.7388301 -200 45 -200 45 -200 45
2712616452.7421 -4.3027768 -5.7565002 -200 45 -200 45 -200 45
2713616569.4282 -4.3063188 -5.7634697 -200 45 -200 45 -200 45
2714616686.1144 -4.3078198 -5.7702279 -200 45 -200 45 -200 45
2715616802.8005 -4.3123064 -5.7813678 -200 45 -200 45 -200 45
2716616919.4866 -4.3129292 -5.7718706 -200 45 -200 45 -200 45
2717617036.1727 -4.3139868 -5.7780962 -200 45 -200 45 -200 45
2718617152.8588 -4.3162932 -5.7963581 -200 45 -200 45 -200 45
2719617269.5449 -4.3192616 -5.8010631 -200 45 -200 45 -200 45
2720617386.231 -4.319901 -5.8054209 -200 45 -200 45 -200 45
2721617502.9172 -4.3220997 -5.8048687 -200 45 -200 45 -200 45
2722617619.6033 -4.3229709 -5.8044448 -200 45 -200 45 -200 45
2723617736.2894 -4.3245082 -5.8232093 -200 45 -200 45 -200 45
2724617852.9755 -4.3292437 -5.8374043 -200 45 -200 45 -200 45
2725617969.6616 -4.3304558 -5.8280625 -200 45 -200 45 -200 45
2726618086.3477 -4.3321958 -5.8367186 -200 45 -200 45 -200 45
2727618203.0338 -4.3357601 -5.8484693 -200 45 -200 45 -200 45
2728618319.72 -4.3395576 -5.8449054 -200 45 -200 45 -200 45
2729618436.4061 -4.3409915 -5.8487725 -200 45 -200 45 -200 45
2730618553.0922 -4.3431444 -5.855824 -200 45 -200 45 -200 45
2731618669.7783 -4.3431702 -5.8518567 -200 45 -200 45 -200 45
2732618786.4644 -4.348496 -5.858222 -200 45 -200 45 -200 45
2733618903.1505 -4.3505692 -5.847724 -200 45 -200 45 -200 45
2734619019.8366 -4.3532429 -5.8575358 -200 45 -200 45 -200 45
2735619136.5228 -4.3570113 -5.8589954 -200 45 -200 45 -200 45
2736619253.2089 -4.3612647 -5.8664694 -200 45 -200 45 -200 45
2737619369.895 -4.3619161 -5.8783526 -200 45 -200 45 -200 45
2738619486.5811 -4.3644223 -5.8685646 -200 45 -200 45 -200 45
2739619603.2672 -4.3673339 -5.8759961 -200 45 -200 45 -200 45
2740619719.9533 -4.3683062 -5.8684378 -200 45 -200 45 -200 45
2741619836.6394 -4.3741145 -5.8809538 -200 45 -200 45 -200 45
2742619953.3256 -4.3768415 -5.877697 -200 45 -200 45 -200 45
2743620070.0117 -4.3808541 -5.8798652 -200 45 -200 45 -200 45
2744620186.6978 -4.3837957 -5.8802137 -200 45 -200 45 -200 45
2745620303.3839 -4.3853798 -5.8722916 -200 45 -200 45 -200 45
2746620420.07 -4.3898597 -5.8857818 -200 45 -200 45 -200 45
2747620536.7561 -4.3919463 -5.8897238 -200 45 -200 45 -200 45
2748620653.4422 -4.3948798 -5.8892059 -200 45 -200 45 -200 45
2749620770.1284 -4.3999581 -5.8973718 -200 45 -200 45 -200 45
2750620886.8145 -4.4025135 -5.8877602 -200 45 -200 45 -200 45
2751621003.5006 -4.4045115 -5.8885264 -200 45 -200 45 -200 45
2752621120.1867 -4.4086637 -5.8915634 -200 45 -200 45 -200 45
2753621236.8728 -4.4129558 -5.8893924 -200 45 -200 45 -200 45
2754621353.5589 -4.4137521 -5.9073448 -200 45 -200 45 -200 45
2755621470.245 -4.4177556 -5.9049206 -200 45 -200 45 -200 45
2756621586.9312 -4.4205165 -5.8825421 -200 45 -200 45 -200 45
2757621703.6173 -4.4231415 -5.89184 -200 45 -200 45 -200 45
2758621820.3034 -4.4283338 -5.9107046 -200 45 -200 45 -200 45
2759621936.9895 -4.4305062 -5.9089589 -200 45 -200 45 -200 45
2760622053.6756 -4.4360056 -5.9024734 -200 45 -200 45 -200 45
2761622170.3617 -4.4396291 -5.9170904 -200 45 -200 45 -200 45
2762622287.0478 -4.4430552 -5.9075069 -200 45 -200 45 -200 45
2763622403.734 -4.445806 -5.9090199 -200 45 -200 45 -200 45
2764622520.4201 -4.4510427 -5.9365029 -200 45 -200 45 -200 45
2765622637.1062 -4.4541988 -5.9184027 -200 45 -200 45 -200 45
2766622753.7923 -4.4578118 -5.9333062 -200 45 -200 45 -200 45
2767622870.4784 -4.463079 -5.9338536 -200 45 -200 45 -200 45
2768622987.1645 -4.4659562 -5.9451575 -200 45 -200 45 -200 45
2769623103.8506 -4.4698963 -5.9280109 -200 45 -200 45 -200 45
2770623220.5368 -4.4770465 -5.9257259 -200 45 -200 45 -200 45
2771623337.2229 -4.4807472 -5.9409056 -200 45 -200 45 -200 45
2772623453.909 -4.4842453 -5.9334145 -200 45 -200 45 -200 45
2773623570.5951 -4.4877534 -5.9339581 -200 45 -200 45 -200 45
2774623687.2812 -4.4916029 -5.9456911 -200 45 -200 45 -200 45
2775623803.9673 -4.4958549 -5.9615045 -200 45 -200 45 -200 45
2776623920.6534 -4.4991693 -5.9598885 -200 45 -200 45 -200 45
2777624037.3396 -4.5056229 -5.9750133 -200 45 -200 45 -200 45
2778624154.0257 -4.5110836 -5.9746742 -200 45 -200 45 -200 45
2779624270.7118 -4.5149179 -5.9639544 -200 45 -200 45 -200 45
2780624387.3979 -4.5193696 -6.0042882 -200 45 -200 45 -200 45
2781624504.084 -4.5250201 -6.0010986 -200 45 -200 45 -200 45
2782624620.7701 -4.5295973 -6.0050983 -200 45 -200 45 -200 45
2783624737.4562 -4.5372553 -6.0150676 -200 45 -200 45 -200 45
2784624854.1424 -4.5415664 -6.0151272 -200 45 -200 45 -200 45
2785624970.8285 -4.5446491 -6.0363545 -200 45 -200 45 -200 45
2786625087.5146 -4.5511312 -6.036037 -200 45 -200 45 -200 45
2787625204.2007 -4.5565648 -6.0567575 -200 45 -200 45 -200 45
2788625320.8868 -4.5651393 -6.0573058 -200 45 -200 45 -200 45
2789625437.5729 -4.5707808 -6.0767608 -200 45 -200 45 -200 45
2790625554.259 -4.575325 -6.0989509 -200 45 -200 45 -200 45
2791625670.9452 -4.5840454 -6.1049442 -200 45 -200 45 -200 45
2792625787.6313 -4.589819 -6.1087027 -200 45 -200 45 -200 45
2793625904.3174 -4.5987315 -6.1454902 -200 45 -200 45 -200 45
2794626021.0035 -4.6064835 -6.1467662 -200 45 -200 45 -200 45
2795626137.6896 -4.6166177 -6.15976 -200 45 -200 45 -200 45
2796626254.3757 -4.6249776 -6.1830397 -200 45 -200 45 -200 45
2797626371.0618 -4.6328573 -6.2012095 -200 45 -200 45 -200 45
2798626487.748 -4.641788 -6.2184386 -200 45 -200 45 -200 45
2799626604.4341 -4.6545506 -6.2356176 -200 45 -200 45 -200 45
2800626721.1202 -4.6625352 -6.2468104 -200 45 -200 45 -200 45
2801626837.8063 -4.6742501 -6.2664261 -200 45 -200 45 -200 45
2802626954.4924 -4.6855316 -6.2782602 -200 45 -200 45 -200 45
2803627071.1785 -4.6943097 -6.2927938 -200 45 -200 45 -200 45
2804627187.8646 -4.7075224 -6.3388133 -200 45 -200 45 -200 45
2805627304.5508 -4.7194009 -6.3453374 -200 45 -200 45 -200 45
2806627421.2369 -4.7335415 -6.377306 -200 45 -200 45 -200 45
2807627537.923 -4.749526 -6.4154224 -200 45 -200 45 -200 45
2808627654.6091 -4.7641611 -6.4478798 -200 45 -200 45 -200 45
2809627771.2952 -4.7824492 -6.4689255 -200 45 -200 45 -200 45
2810627887.9813 -4.800436 -6.4982042 -200 45 -200 45 -200 45
2811628004.6674 -4.8186836 -6.5261569 -200 45 -200 45 -200 45
2812628121.3536 -4.8394074 -6.5614448 -200 45 -200 45 -200 45
2813628238.0397 -4.8641286 -6.603054 -200 45 -200 45 -200 45
2814628354.7258 -4.887898 -6.6320271 -200 45 -200 45 -200 45
2815628471.4119 -4.9153175 -6.6588483 -200 45 -200 45 -200 45
2816628588.098 -4.9460855 -6.7077284 -200 45 -200 45 -200 45
2817628704.7841 -4.9783258 -6.7345676 -200 45 -200 45 -200 45
2818628821.4702 -5.0173178 -6.7591972 -200 45 -200 45 -200 45
2819628938.1564 -5.0586414 -6.7759571 -200 45 -200 45 -200 45
2820629054.8425 -5.1057858 -6.7719936 -200 45 -200 45 -200 45
2821629171.5286 -5.1588483 -6.7754259 -200 45 -200 45 -200 45
2822629288.2147 -5.2196646 -6.754529 -200 45 -200 45 -200 45
2823629404.9008 -5.2873054 -6.682569 -200 45 -200 45 -200 45
2824629521.5869 -5.3626809 -6.5586834 -200 45 -200 45 -200 45
2825629638.273 -5.4520435 -6.3944254 -200 45 -200 45 -200 45
2826629754.9592 -5.5473256 -6.0961843 -200 45 -200 45 -200 45
2827629871.6453 -5.6544514 -5.6856546 -200 45 -200 45 -200 45
2828629988.3314 -5.7682757 -5.0321155 -200 45 -200 45 -200 45
2829630105.0175 -5.8730836 -4.1097312 -200 45 -200 45 -200 45
2830630221.7036 -5.9522347 -2.902406 -200 45 -200 45 -200 45
2831630338.3897 -5.9778934 -1.4406846 -200 45 -200 45 -200 45
2832630455.0758 -5.9316058 0.047788754 -200 45 -200 45 -200 45
2833630571.762 -5.8194814 1.3142358 -200 45 -200 45 -200 45
2834630688.4481 -5.6766028 2.2272501 -200 45 -200 45 -200 45
2835630805.1342 -5.5233431 2.8178394 -200 45 -200 45 -200 45
2836630921.8203 -5.3846703 3.1338036 -200 45 -200 45 -200 45
2837631038.5064 -5.269278 3.3179886 -200 45 -200 45 -200 45
2838631155.1925 -5.1715617 3.4704702 -200 45 -200 45 -200 45
2839631271.8786 -5.0737753 3.6518295 -200 45 -200 45 -200 45
2840631388.5648 -4.9689651 3.818536 -200 45 -200 45 -200 45
2841631505.2509 -4.8572674 3.8604879 -200 45 -200 45 -200 45
2842631621.937 -4.748795 3.7716272 -200 45 -200 45 -200 45
2843631738.6231 -4.6514359 3.5842409 -200 45 -200 45 -200 45
2844631855.3092 -4.5661521 3.3395588 -200 45 -200 45 -200 45
2845631971.9953 -4.4908009 3.0490181 -200 45 -200 45 -200 45
2846632088.6814 -4.4275227 2.715544 -200 45 -200 45 -200 45
2847632205.3676 -4.3792987 2.3716218 -200 45 -200 45 -200 45
2848632322.0537 -4.3435578 2.0502484 -200 45 -200 45 -200 45
2849632438.7398 -4.3130984 1.7701064 -200 45 -200 45 -200 45
2850632555.4259 -4.2893395 1.510944 -200 45 -200 45 -200 45
2851632672.112 -4.2697177 1.2767184 -200 45 -200 45 -200 45
2852632788.7981 -4.2529626 1.0744957 -200 45 -200 45 -200 45
2853632905.4842 -4.2379642 0.91548407 -200 45 -200 45 -200 45
2854633022.1704 -4.2222295 0.79320723 -200 45 -200 45 -200 45
2855633138.8565 -4.2010722 0.67675567 -200 45 -200 45 -200 45
2856633255.5426 -4.1764812 0.58991915 -200 45 -200 45 -200 45
2857633372.2287 -4.1402965 0.46986639 -200 45 -200 45 -200 45
2858633488.9148 -4.1041546 0.28568086 -200 45 -200 45 -200 45
2859633605.6009 -4.0689211 0.035030916 -200 45 -200 45 -200 45
2860633722.287 -4.044755 -0.27995944 -200 45 -200 45 -200 45
2861633838.9732 -4.0287614 -0.62645739 -200 45 -200 45 -200 45
2862633955.6593 -4.0249605 -0.95476389 -200 45 -200 45 -200 45
2863634072.3454 -4.0280662 -1.2491961 -200 45 -200 45 -200 45
2864634189.0315 -4.0345497 -1.5019435 -200 45 -200 45 -200 45
2865634305.7176 -4.0481834 -1.7324586 -200 45 -200 45 -200 45
2866634422.4037 -4.0584583 -1.9298952 -200 45 -200 45 -200 45
2867634539.0898 -4.0710797 -2.08887 -200 45 -200 45 -200 45
2868634655.776 -4.0827236 -2.2334378 -200 45 -200 45 -200 45
2869634772.4621 -4.0967274 -2.3525047 -200 45 -200 45 -200 45
2870634889.1482 -4.1069455 -2.4854915 -200 45 -200 45 -200 45
2871635005.8343 -4.1187301 -2.5870566 -200 45 -200 45 -200 45
2872635122.5204 -4.1286917 -2.6813493 -200 45 -200 45 -200 45
2873635239.2065 -4.1379533 -2.7806582 -200 45 -200 45 -200 45
2874635355.8926 -4.14992 -2.856658 -200 45 -200 45 -200 45
2875635472.5788 -4.1580873 -2.937886 -200 45 -200 45 -200 45
2876635589.2649 -4.1717281 -3.0063758 -200 45 -200 45 -200 45
2877635705.951 -4.1798863 -3.074399 -200 45 -200 45 -200 45
2878635822.6371 -4.1898427 -3.1213315 -200 45 -200 45 -200 45
2879635939.3232 -4.1978374 -3.1784537 -200 45 -200 45 -200 45
2880636056.0093 -4.2069836 -3.2322698 -200 45 -200 45 -200 45
2881636172.6954 -4.2157269 -3.2769766 -200 45 -200 45 -200 45
2882636289.3816 -4.2236233 -3.3116167 -200 45 -200 45 -200 45
2883636406.0677 -4.2324114 -3.3579614 -200 45 -200 45 -200 45
2884636522.7538 -4.2382736 -3.3866446 -200 45 -200 45 -200 45
2885636639.4399 -4.247333 -3.4210863 -200 45 -200 45 -200 45
2886636756.126 -4.2516999 -3.4714124 -200 45 -200 45 -200 45
2887636872.8121 -4.2618084 -3.4896264 -200 45 -200 45 -200 45
2888636989.4983 -4.2638578 -3.5134242 -200 45 -200 45 -200 45
2889637106.1844 -4.2727008 -3.5301826 -200 45 -200 45 -200 45
2890637222.8705 -4.2814007 -3.5857563 -200 45 -200 45 -200 45
2891637339.5566 -4.2861705 -3.5805321 -200 45 -200 45 -200 45
2892637456.2427 -4.2940979 -3.6051941 -200 45 -200 45 -200 45
2893637572.9288 -4.2977934 -3.6319613 -200 45 -200 45 -200 45
2894637689.6149 -4.3050985 -3.6510563 -200 45 -200 45 -200 45
2895637806.3011 -4.3072252 -3.6678445 -200 45 -200 45 -200 45
2896637922.9872 -4.3142033 -3.6978035 -200 45 -200 45 -200 45
2897638039.6733 -4.3201418 -3.7101815 -200 45 -200 45 -200 45
2898638156.3594 -4.3243427 -3.7170713 -200 45 -200 45 -200 45
2899638273.0455 -4.3306389 -3.7416046 -200 45 -200 45 -200 45
2900638389.7316 -4.3346195 -3.7515087 -200 45 -200 45 -200 45
2901638506.4177 -4.3394136 -3.765425 -200 45 -200 45 -200 45
2902638623.1039 -4.3427181 -3.7781026 -200 45 -200 45 -200 45
2903638739.79 -4.348712 -3.7930367 -200 45 -200 45 -200 45
2904638856.4761 -4.3543754 -3.8101361 -200 45 -200 45 -200 45
2905638973.1622 -4.3581777 -3.8217721 -200 45 -200 45 -200 45
2906639089.8483 -4.3631434 -3.8308353 -200 45 -200 45 -200 45
2907639206.5344 -4.3670173 -3.8443315 -200 45 -200 45 -200 45
2908639323.2205 -4.3720131 -3.8519578 -200 45 -200 45 -200 45
2909639439.9067 -4.3785691 -3.8602228 -200 45 -200 45 -200 45
2910639556.5928 -4.382463 -3.8758314 -200 45 -200 45 -200 45
2911639673.2789 -4.3863959 -3.8915384 -200 45 -200 45 -200 45
2912639789.965 -4.3917875 -3.9020445 -200 45 -200 45 -200 45
2913639906.6511 -4.3957915 -3.9079731 -200 45 -200 45 -200 45
2914640023.3372 -4.3985114 -3.9333856 -200 45 -200 45 -200 45
2915640140.0233 -4.405303 -3.9320519 -200 45 -200 45 -200 45
2916640256.7095 -4.4090538 -3.9409227 -200 45 -200 45 -200 45
2917640373.3956 -4.4139962 -3.9552226 -200 45 -200 45 -200 45
2918640490.0817 -4.4187059 -3.9564581 -200 45 -200 45 -200 45
2919640606.7678 -4.4214058 -3.9760282 -200 45 -200 45 -200 45
2920640723.4539 -4.4272571 -3.9613013 -200 45 -200 45 -200 45
2921640840.14 -4.4337821 -3.9989028 -200 45 -200 45 -200 45
2922640956.8261 -4.4382691 -4.0117955 -200 45 -200 45 -200 45
2923641073.5123 -4.4453979 -4.0159602 -200 45 -200 45 -200 45
2924641190.1984 -4.4526482 -4.0303459 -200 45 -200 45 -200 45
2925641306.8845 -4.4571438 -4.0409231 -200 45 -200 45 -200 45
2926641423.5706 -4.4656153 -4.0472283 -200 45 -200 45 -200 45
2927641540.2567 -4.4749684 -4.0643082 -200 45 -200 45 -200 45
2928641656.9428 -4.4852576 -4.0480766 -200 45 -200 45 -200 45
2929641773.6289 -4.4955096 -4.0320711 -200 45 -200 45 -200 45
2930641890.3151 -4.5054326 -3.992837 -200 45 -200 45 -200 45
2931642007.0012 -4.5145011 -3.95959 -200 45 -200 45 -200 45
2932642123.6873 -4.5211477 -3.8910725 -200 45 -200 45 -200 45
2933642240.3734 -4.5286808 -3.8390441 -200 45 -200 45 -200 45
2934642357.0595 -4.5281062 -3.763149 -200 45 -200 45 -200 45
2935642473.7456 -4.5296874 -3.6925447 -200 45 -200 45 -200 45
2936642590.4317 -4.5265074 -3.6639991 -200 45 -200 45 -200 45
2937642707.1179 -4.5259633 -3.6188874 -200 45 -200 45 -200 45
2938642823.804 -4.5233879 -3.5841205 -200 45 -200 45 -200 45
2939642940.4901 -4.5197392 -3.5650842 -200 45 -200 45 -200 45
2940643057.1762 -4.5160666 -3.5423408 -200 45 -200 45 -200 45
2941643173.8623 -4.5118976 -3.5267684 -200 45 -200 45 -200 45
2942643290.5484 -4.5100622 -3.5184743 -200 45 -200 45 -200 45
2943643407.2345 -4.5074849 -3.5274444 -200 45 -200 45 -200 45
2944643523.9207 -4.5058537 -3.5215819 -200 45 -200 45 -200 45
2945643640.6068 -4.5019689 -3.5323451 -200 45 -200 45 -200 45
2946643757.2929 -4.4991903 -3.5332758 -200 45 -200 45 -200 45
2947643873.979 -4.4990134 -3.5375013 -200 45 -200 45 -200 45
2948643990.6651 -4.4995689 -3.5496066 -200 45 -200 45 -200 45
2949644107.3512 -4.4978943 -3.5834165 -200 45 -200 45 -200 45
2950644224.0373 -4.4981885 -3.5869439 -200 45 -200 45 -200 45
2951644340.7235 -4.4987135 -3.5992489 -200 45 -200 45 -200 45
2952644457.4096 -4.4985509 -3.6330495 -200 45 -200 45 -200 45
2953644574.0957 -4.501246 -3.6420901 -200 45 -200 45 -200 45
2954644690.7818 -4.5013442 -3.6593542 -200 45 -200 45 -200 45
2955644807.4679 -4.5033231 -3.6527627 -200 45 -200 45 -200 45
2956644924.154 -4.5076132 -3.6787186 -200 45 -200 45 -200 45
2957645040.8401 -4.510252 -3.6836398 -200 45 -200 45 -200 45
2958645157.5263 -4.5113339 -3.6965642 -200 45 -200 45 -200 45
2959645274.2124 -4.5162334 -3.6979592 -200 45 -200 45 -200 45
2960645390.8985 -4.5192518 -3.7094724 -200 45 -200 45 -200 45
2961645507.5846 -4.5205135 -3.7052388 -200 45 -200 45 -200 45
2962645624.2707 -4.521934 -3.7108653 -200 45 -200 45 -200 45
2963645740.9568 -4.5251336 -3.7228782 -200 45 -200 45 -200 45
2964645857.6429 -4.5289078 -3.7270877 -200 45 -200 45 -200 45
2965645974.3291 -4.5330772 -3.735147 -200 45 -200 45 -200 45
2966646091.0152 -4.5384989 -3.717999 -200 45 -200 45 -200 45
2967646207.7013 -4.5384278 -3.7241595 -200 45 -200 45 -200 45
2968646324.3874 -4.5426083 -3.7136576 -200 45 -200 45 -200 45
2969646441.0735 -4.5421033 -3.6902378 -200 45 -200 45 -200 45
2970646557.7596 -4.5447526 -3.6890638 -200 45 -200 45 -200 45
2971646674.4457 -4.5453258 -3.6783016 -200 45 -200 45 -200 45
2972646791.1319 -4.5468063 -3.6804368 -200 45 -200 45 -200 45
2973646907.818 -4.5476961 -3.6699069 -200 45 -200 45 -200 45
2974647024.5041 -4.5490251 -3.67185 -200 45 -200 45 -200 45
2975647141.1902 -4.5488563 -3.6965322 -200 45 -200 45 -200 45
2976647257.8763 -4.548461 -3.6856465 -200 45 -200 45 -200 45
2977647374.5624 -4.552084 -3.7001705 -200 45 -200 45 -200 45
2978647491.2485 -4.5502353 -3.710402 -200 45 -200 45 -200 45
2979647607.9347 -4.5522633 -3.7241445 -200 45 -200 45 -200 45
2980647724.6208 -4.5547452 -3.7297986 -200 45 -200 45 -200 45
2981647841.3069 -4.5566802 -3.7333255 -200 45 -200 45 -200 45
2982647957.993 -4.5564523 -3.7380733 -200 45 -200 45 -200 45
2983648074.6791 -4.557025 -3.7613311 -200 45 -200 45 -200 45
2984648191.3652 -4.5594716 -3.7633033 -200 45 -200 45 -200 45
2985648308.0513 -4.5624313 -3.78848 -200 45 -200 45 -200 45
2986648424.7375 -4.5649714 -3.7973397 -200 45 -200 45 -200 45
2987648541.4236 -4.5696549 -3.8183503 -200 45 -200 45 -200 45
2988648658.1097 -4.5711408 -3.8473125 -200 45 -200 45 -200 45
2989648774.7958 -4.5762887 -3.8644431 -200 45 -200 45 -200 45
2990648891.4819 -4.5819378 -3.8683221 -200 45 -200 45 -200 45
2991649008.168 -4.5849242 -3.8821805 -200 45 -200 45 -200 45
2992649124.8541 -4.5881715 -3.8880525 -200 45 -200 45 -200 45
2993649241.5403 -4.5939474 -3.9124749 -200 45 -200 45 -200 45
2994649358.2264 -4.5982714 -3.920897 -200 45 -200 45 -200 45
2995649474.9125 -4.6033287 -3.9232504 -200 45 -200 45 -200 45
2996649591.5986 -4.6081381 -3.9230268 -200 45 -200 45 -200 45
2997649708.2847 -4.6142745 -3.9436727 -200 45 -200 45 -200 45
2998649824.9708 -4.6192994 -3.936034 -200 45 -200 45 -200 45
2999649941.6569 -4.6202826 -3.9397373 -200 45 -200 45 -200 45
3000650058.3431 -4.6261353 -3.9378304 -200 45 -200 45 -200 45
3001650175.0292 -4.6334839 -3.9457364 -200 45 -200 45 -200 45
3002650291.7153 -4.6374311 -3.9669333 -200 45 -200 45 -200 45
3003650408.4014 -4.638896 -3.9542317 -200 45 -200 45 -200 45
3004650525.0875 -4.6468854 -3.9451096 -200 45 -200 45 -200 45
3005650641.7736 -4.6503258 -3.9538293 -200 45 -200 45 -200 45
3006650758.4597 -4.6554718 -3.9877036 -200 45 -200 45 -200 45
3007650875.1459 -4.6599989 -3.9694934 -200 45 -200 45 -200 45
3008650991.832 -4.6648836 -3.983444 -200 45 -200 45 -200 45
3009651108.5181 -4.6704183 -3.9894247 -200 45 -200 45 -200 45
3010651225.2042 -4.6759582 -3.99354 -200 45 -200 45 -200 45
3011651341.8903 -4.6816216 -4.0109591 -200 45 -200 45 -200 45
3012651458.5764 -4.6889191 -3.9928026 -200 45 -200 45 -200 45
3013651575.2625 -4.6982298 -4.009728 -200 45 -200 45 -200 45
3014651691.9487 -4.7011919 -4.0257339 -200 45 -200 45 -200 45
3015651808.6348 -4.7061477 -4.0245643 -200 45 -200 45 -200 45
3016651925.3209 -4.7156153 -4.0434923 -200 45 -200 45 -200 45
3017652042.007 -4.7205553 -4.062047 -200 45 -200 45 -200 45
3018652158.6931 -4.7300534 -4.062191 -200 45 -200 45 -200 45
3019652275.3792 -4.7384863 -4.0692525 -200 45 -200 45 -200 45
3020652392.0653 -4.7479763 -4.0764623 -200 45 -200 45 -200 45
3021652508.7515 -4.7593827 -4.0970316 -200 45 -200 45 -200 45
3022652625.4376 -4.7693467 -4.1085358 -200 45 -200 45 -200 45
3023652742.1237 -4.7792745 -4.1163845 -200 45 -200 45 -200 45
3024652858.8098 -4.7923188 -4.1376491 -200 45 -200 45 -200 45
3025652975.4959 -4.806406 -4.140378 -200 45 -200 45 -200 45
3026653092.182 -4.8201909 -4.1427307 -200 45 -200 45 -200 45
3027653208.8681 -4.838027 -4.1429272 -200 45 -200 45 -200 45
3028653325.5543 -4.8557281 -4.1327367 -200 45 -200 45 -200 45
3029653442.2404 -4.8763742 -4.1214633 -200 45 -200 45 -200 45
3030653558.9265 -4.8976655 -4.0997162 -200 45 -200 45 -200 45
3031653675.6126 -4.9196177 -4.0828686 -200 45 -200 45 -200 45
3032653792.2987 -4.9464107 -4.0304856 -200 45 -200 45 -200 45
3033653908.9848 -4.9810152 -3.9541357 -200 45 -200 45 -200 45
3034654025.6709 -5.0139775 -3.8233931 -200 45 -200 45 -200 45
3035654142.3571 -5.0525002 -3.6494896 -200 45 -200 45 -200 45
3036654259.0432 -5.0908308 -3.3818698 -200 45 -200 45 -200 45
3037654375.7293 -5.1189489 -3.0371153 -200 45 -200 45 -200 45
3038654492.4154 -5.1315203 -2.6222036 -200 45 -200 45 -200 45
3039654609.1015 -5.1309533 -2.15189 -200 45 -200 45 -200 45
3040654725.7876 -5.1046786 -1.7199455 -200 45 -200 45 -200 45
3041654842.4737 -5.0655928 -1.3643169 -200 45 -200 45 -200 45
3042654959.1599 -5.0176454 -1.0997102 -200 45 -200 45 -200 45
3043655075.846 -4.9673138 -0.93694574 -200 45 -200 45 -200 45
3044655192.5321 -4.9195395 -0.85471284 -200 45 -200 45 -200 45
3045655309.2182 -4.8739009 -0.84238851 -200 45 -200 45 -200 45
3046655425.9043 -4.8336105 -0.87304282 -200 45 -200 45 -200 45
3047655542.5904 -4.8011827 -0.94441307 -200 45 -200 45 -200 45
3048655659.2765 -4.772409 -1.0304371 -200 45 -200 45 -200 45
3049655775.9627 -4.7519369 -1.0918312 -200 45 -200 45 -200 45
3050655892.6488 -4.7309718 -1.1893842 -200 45 -200 45 -200 45
3051656009.3349 -4.7154493 -1.2838527 -200 45 -200 45 -200 45
3052656126.021 -4.7002611 -1.3954538 -200 45 -200 45 -200 45
3053656242.7071 -4.6894817 -1.4926518 -200 45 -200 45 -200 45
3054656359.3932 -4.6809101 -1.5816463 -200 45 -200 45 -200 45
3055656476.0793 -4.6716127 -1.6688925 -200 45 -200 45 -200 45
3056656592.7655 -4.6658583 -1.7474647 -200 45 -200 45 -200 45
3057656709.4516 -4.6580925 -1.8464514 -200 45 -200 45 -200 45
3058656826.1377 -4.6511035 -1.9488266 -200 45 -200 45 -200 45
3059656942.8238 -4.6486464 -2.0646632 -200 45 -200 45 -200 45
3060657059.5099 -4.646554 -2.1847951 -200 45 -200 45 -200 45
3061657176.196 -4.6478701 -2.2905669 -200 45 -200 45 -200 45
3062657292.8821 -4.6523933 -2.3971603 -200 45 -200 45 -200 45
3063657409.5683 -4.6559467 -2.501802 -200 45 -200 45 -200 45
3064657526.2544 -4.6609578 -2.60271 -200 45 -200 45 -200 45
3065657642.9405 -4.6699605 -2.6930685 -200 45 -200 45 -200 45
3066657759.6266 -4.6811681 -2.7948318 -200 45 -200 45 -200 45
3067657876.3127 -4.6924491 -2.8670623 -200 45 -200 45 -200 45
3068657992.9988 -4.7044473 -2.9674397 -200 45 -200 45 -200 45
3069658109.6849 -4.7197375 -3.0533409 -200 45 -200 45 -200 45
3070658226.3711 -4.7365808 -3.1609497 -200 45 -200 45 -200 45
3071658343.0572 -4.7563367 -3.2149255 -200 45 -200 45 -200 45
3072658459.7433 -4.7784438 -3.274615 -200 45 -200 45 -200 45
3073658576.4294 -4.802351 -3.3336587 -200 45 -200 45 -200 45
3074658693.1155 -4.8293772 -3.3723817 -200 45 -200 45 -200 45
3075658809.8016 -4.8590045 -3.3965325 -200 45 -200 45 -200 45
3076658926.4877 -4.8928404 -3.4143462 -200 45 -200 45 -200 45
3077659043.1739 -4.929285 -3.4046607 -200 45 -200 45 -200 45
3078659159.86 -4.968061 -3.3650193 -200 45 -200 45 -200 45
3079659276.5461 -5.0140772 -3.2814496 -200 45 -200 45 -200 45
3080659393.2322 -5.0639439 -3.1295314 -200 45 -200 45 -200 45
3081659509.9183 -5.1151462 -2.8807075 -200 45 -200 45 -200 45
3082659626.6044 -5.1592426 -2.5236814 -200 45 -200 45 -200 45
3083659743.2905 -5.1923685 -2.0856724 -200 45 -200 45 -200 45
3084659859.9767 -5.2140446 -1.5633637 -200 45 -200 45 -200 45
3085659976.6628 -5.2113628 -1.0349672 -200 45 -200 45 -200 45
3086660093.3489 -5.1909151 -0.53202003 -200 45 -200 45 -200 45
3087660210.035 -5.1494756 -0.063376576 -200 45 -200 45 -200 45
3088660326.7211 -5.0977378 0.2851932 -200 45 -200 45 -200 45
3089660443.4072 -5.0412583 0.54427093 -200 45 -200 45 -200 45
3090660560.0933 -4.9853435 0.70628321 -200 45 -200 45 -200 45
3091660676.7795 -4.9312549 0.75771672 -200 45 -200 45 -200 45
3092660793.4656 -4.8869095 0.78086823 -200 45 -200 45 -200 45
3093660910.1517 -4.8470545 0.77687252 -200 45 -200 45 -200 45
3094661026.8378 -4.8120751 0.7490992 -200 45 -200 45 -200 45
3095661143.5239 -4.7803669 0.72350228 -200 45 -200 45 -200 45
3096661260.21 -4.751349 0.69171458 -200 45 -200 45 -200 45
3097661376.8961 -4.7234049 0.66425133 -200 45 -200 45 -200 45
3098661493.5823 -4.6994438 0.62046778 -200 45 -200 45 -200 45
3099661610.2684 -4.6723032 0.58909374 -200 45 -200 45 -200 45
3100661726.9545 -4.6483264 0.55464554 -200 45 -200 45 -200 45
3101661843.6406 -4.6214762 0.492035 -200 45 -200 45 -200 45
3102661960.3267 -4.5943084 0.40173778 -200 45 -200 45 -200 45
3103662077.0128 -4.5730271 0.30450666 -200 45 -200 45 -200 45
3104662193.6989 -4.5518126 0.19010401 -200 45 -200 45 -200 45
3105662310.3851 -4.5372005 0.057308208 -200 45 -200 45 -200 45
3106662427.0712 -4.5267134 -0.026680024 -200 45 -200 45 -200 45
3107662543.7573 -4.5090051 -0.1171914 -200 45 -200 45 -200 45
3108662660.4434 -4.4933629 -0.22552343 -200 45 -200 45 -200 45
3109662777.1295 -4.4782844 -0.3449561 -200 45 -200 45 -200 45
3110662893.8156 -4.4649401 -0.48021096 -200 45 -200 45 -200 45
3111663010.5018 -4.456593 -0.64904624 -200 45 -200 45 -200 45
3112663127.1879 -4.4500122 -0.81142831 -200 45 -200 45 -200 45
3113663243.874 -4.4460974 -0.96701616 -200 45 -200 45 -200 45
3114663360.5601 -4.4482236 -1.1035687 -200 45 -200 45 -200 45
3115663477.2462 -4.4495325 -1.2402159 -200 45 -200 45 -200 45
3116663593.9323 -4.4567127 -1.3703886 -200 45 -200 45 -200 45
3117663710.6184 -4.4627981 -1.4774568 -200 45 -200 45 -200 45
3118663827.3046 -4.4723654 -1.5875618 -200 45 -200 45 -200 45
3119663943.9907 -4.4794817 -1.6573991 -200 45 -200 45 -200 45
3120664060.6768 -4.4888315 -1.7318497 -200 45 -200 45 -200 45
3121664177.3629 -4.4943051 -1.7926056 -200 45 -200 45 -200 45
3122664294.049 -4.5055208 -1.8473357 -200 45 -200 45 -200 45
3123664410.7351 -4.5133553 -1.8961107 -200 45 -200 45 -200 45
3124664527.4212 -4.5205402 -1.9248581 -200 45 -200 45 -200 45
3125664644.1074 -4.528295 -1.9708853 -200 45 -200 45 -200 45
3126664760.7935 -4.5333853 -2.0071468 -200 45 -200 45 -200 45
3127664877.4796 -4.5389175 -2.0467908 -200 45 -200 45 -200 45
3128664994.1657 -4.5473733 -2.0650823 -200 45 -200 45 -200 45
3129665110.8518 -4.5544591 -2.0994415 -200 45 -200 45 -200 45
3130665227.5379 -4.5588007 -2.121774 -200 45 -200 45 -200 45
3131665344.224 -4.561985 -2.1378994 -200 45 -200 45 -200 45
3132665460.9102 -4.5688591 -2.1546388 -200 45 -200 45 -200 45
3133665577.5963 -4.5751901 -2.1826243 -200 45 -200 45 -200 45
3134665694.2824 -4.5787344 -2.1951311 -200 45 -200 45 -200 45
3135665810.9685 -4.5835071 -2.2178693 -200 45 -200 45 -200 45
3136665927.6546 -4.5883236 -2.2221959 -200 45 -200 45 -200 45
3137666044.3407 -4.5918489 -2.2367475 -200 45 -200 45 -200 45
3138666161.0268 -4.597156 -2.2487175 -200 45 -200 45 -200 45
3139666277.713 -4.6015019 -2.2639625 -200 45 -200 45 -200 45
3140666394.3991 -4.6052914 -2.2742121 -200 45 -200 45 -200 45
3141666511.0852 -4.6087713 -2.2861116 -200 45 -200 45 -200 45
3142666627.7713 -4.6129146 -2.2980642 -200 45 -200 45 -200 45
3143666744.4574 -4.6179905 -2.3140585 -200 45 -200 45 -200 45
3144666861.1435 -4.6227126 -2.316061 -200 45 -200 45 -200 45
3145666977.8296 -4.626545 -2.3328152 -200 45 -200 45 -200 45
3146667094.5158 -4.6289845 -2.3493092 -200 45 -200 45 -200 45
3147667211.2019 -4.6344204 -2.3560181 -200 45 -200 45 -200 45
3148667327.888 -4.6379609 -2.3469167 -200 45 -200 45 -200 45
3149667444.5741 -4.6395798 -2.3544858 -200 45 -200 45 -200 45
3150667561.2602 -4.6451049 -2.3669455 -200 45 -200 45 -200 45
3151667677.9463 -4.6485405 -2.3610356 -200 45 -200 45 -200 45
3152667794.6324 -4.6509886 -2.374903 -200 45 -200 45 -200 45
3153667911.3186 -4.6566072 -2.3774953 -200 45 -200 45 -200 45
3154668028.0047 -4.6577616 -2.3910699 -200 45 -200 45 -200 45
3155668144.6908 -4.6630216 -2.3961093 -200 45 -200 45 -200 45
3156668261.3769 -4.6643567 -2.4053581 -200 45 -200 45 -200 45
3157668378.063 -4.6703806 -2.4141598 -200 45 -200 45 -200 45
3158668494.7491 -4.6725526 -2.410213 -200 45 -200 45 -200 45
3159668611.4352 -4.6758022 -2.4022031 -200 45 -200 45 -200 45
3160668728.1214 -4.6778917 -2.406625 -200 45 -200 45 -200 45
3161668844.8075 -4.6801219 -2.4132812 -200 45 -200 45 -200 45
3162668961.4936 -4.6850896 -2.4216332 -200 45 -200 45 -200 45
3163669078.1797 -4.6875854 -2.4282422 -200 45 -200 45 -200 45
3164669194.8658 -4.6897354 -2.430855 -200 45 -200 45 -200 45
3165669311.5519 -4.6921387 -2.432157 -200 45 -200 45 -200 45
3166669428.238 -4.6967316 -2.4455905 -200 45 -200 45 -200 45
3167669544.9242 -4.7012644 -2.440397 -200 45 -200 45 -200 45
3168669661.6103 -4.7035151 -2.4629831 -200 45 -200 45 -200 45
3169669778.2964 -4.7060394 -2.461271 -200 45 -200 45 -200 45
3170669894.9825 -4.7079763 -2.4509459 -200 45 -200 45 -200 45
3171670011.6686 -4.7131095 -2.4625421 -200 45 -200 45 -200 45
3172670128.3547 -4.7146473 -2.4689019 -200 45 -200 45 -200 45
3173670245.0408 -4.7194176 -2.4626403 -200 45 -200 45 -200 45
3174670361.727 -4.7211614 -2.4834836 -200 45 -200 45 -200 45
3175670478.4131 -4.7238126 -2.4744411 -200 45 -200 45 -200 45
3176670595.0992 -4.7277856 -2.4752157 -200 45 -200 45 -200 45
3177670711.7853 -4.731782 -2.4723065 -200 45 -200 45 -200 45
3178670828.4714 -4.7345924 -2.4710081 -200 45 -200 45 -200 45
3179670945.1575 -4.7382822 -2.4897299 -200 45 -200 45 -200 45
3180671061.8436 -4.7393847 -2.5070033 -200 45 -200 45 -200 45
3181671178.5298 -4.7408314 -2.4950428 -200 45 -200 45 -200 45
3182671295.2159 -4.7479787 -2.4985771 -200 45 -200 45 -200 45
3183671411.902 -4.7504072 -2.4993353 -200 45 -200 45 -200 45
3184671528.5881 -4.7529869 -2.5030956 -200 45 -200 45 -200 45
3185671645.2742 -4.7572598 -2.5104744 -200 45 -200 45 -200 45
3186671761.9603 -4.7604866 -2.5065293 -200 45 -200 45 -200 45
3187671878.6464 -4.7643504 -2.5228083 -200 45 -200 45 -200 45
3188671995.3326 -4.7658043 -2.4987192 -200 45 -200 45 -200 45
3189672112.0187 -4.770925 -2.5082333 -200 45 -200 45 -200 45
3190672228.7048 -4.7730041 -2.5181825 -200 45 -200 45 -200 45
3191672345.3909 -4.7784472 -2.5298431 -200 45 -200 45 -200 45
3192672462.077 -4.7819204 -2.5292265 -200 45 -200 45 -200 45
3193672578.7631 -4.7837415 -2.5514991 -200 45 -200 45 -200 45
3194672695.4492 -4.7900071 -2.5354075 -200 45 -200 45 -200 45
3195672812.1354 -4.7932539 -2.5315139 -200 45 -200 45 -200 45
3196672928.8215 -4.7969007 -2.5482936 -200 45 -200 45 -200 45
3197673045.5076 -4.8018751 -2.5420012 -200 45 -200 45 -200 45
3198673162.1937 -4.8048544 -2.564959 -200 45 -200 45 -200 45
3199673278.8798 -4.8084412 -2.5542645 -200 45 -200 45 -200 45
3200673395.5659 -4.813046 -2.5506344 -200 45 -200 45 -200 45
3201673512.252 -4.8175282 -2.5624835 -200 45 -200 45 -200 45
3202673628.9382 -4.8232527 -2.575377 -200 45 -200 45 -200 45
3203673745.6243 -4.8258739 -2.5817809 -200 45 -200 45 -200 45
3204673862.3104 -4.831583 -2.5876343 -200 45 -200 45 -200 45
3205673978.9965 -4.834909 -2.5913756 -200 45 -200 45 -200 45
3206674095.6826 -4.8420687 -2.5932004 -200 45 -200 45 -200 45
3207674212.3687 -4.8474283 -2.6035891 -200 45 -200 45 -200 45
3208674329.0548 -4.8544869 -2.6175952 -200 45 -200 45 -200 45
3209674445.741 -4.857964 -2.6136529 -200 45 -200 45 -200 45
3210674562.4271 -4.8657098 -2.6309726 -200 45 -200 45 -200 45
3211674679.1132 -4.8708711 -2.6383057 -200 45 -200 45 -200 45
3212674795.7993 -4.8766732 -2.6434262 -200 45 -200 45 -200 45
3213674912.4854 -4.8852029 -2.6402147 -200 45 -200 45 -200 45
3214675029.1715 -4.891336 -2.6628861 -200 45 -200 45 -200 45
3215675145.8576 -4.9013257 -2.6698701 -200 45 -200 45 -200 45
3216675262.5438 -4.9098954 -2.6831365 -200 45 -200 45 -200 45
3217675379.2299 -4.9190412 -2.6851535 -200 45 -200 45 -200 45
3218675495.916 -4.9294052 -2.6932888 -200 45 -200 45 -200 45
3219675612.6021 -4.9382629 -2.7082946 -200 45 -200 45 -200 45
3220675729.2882 -4.9498739 -2.699544 -200 45 -200 45 -200 45
3221675845.9743 -4.9630823 -2.7125955 -200 45 -200 45 -200 45
3222675962.6604 -4.9735985 -2.7273088 -200 45 -200 45 -200 45
3223676079.3466 -4.9897976 -2.7316382 -200 45 -200 45 -200 45
3224676196.0327 -5.006196 -2.7392116 -200 45 -200 45 -200 45
3225676312.7188 -5.0257421 -2.7375116 -200 45 -200 45 -200 45
3226676429.4049 -5.0469871 -2.7284451 -200 45 -200 45 -200 45
3227676546.091 -5.0707927 -2.7213135 -200 45 -200 45 -200 45
3228676662.7771 -5.0980501 -2.6998377 -200 45 -200 45 -200 45
3229676779.4632 -5.1283226 -2.6397321 -200 45 -200 45 -200 45
3230676896.1494 -5.1653786 -2.5231164 -200 45 -200 45 -200 45
3231677012.8355 -5.2014751 -2.3948231 -200 45 -200 45 -200 45
3232677129.5216 -5.2375746 -2.1635544 -200 45 -200 45 -200 45
3233677246.2077 -5.271215 -1.8616983 -200 45 -200 45 -200 45
3234677362.8938 -5.2926855 -1.4701505 -200 45 -200 45 -200 45
3235677479.5799 -5.2964535 -1.0592085 -200 45 -200 45 -200 45
3236677596.266 -5.2865419 -0.65284514 -200 45 -200 45 -200 45
3237677712.9522 -5.2621531 -0.30301279 -200 45 -200 45 -200 45
3238677829.6383 -5.2288613 -0.019908784 -200 45 -200 45 -200 45
3239677946.3244 -5.1919661 0.21759702 -200 45 -200 45 -200 45
3240678063.0105 -5.1537905 0.37354928 -200 45 -200 45 -200 45
3241678179.6966 -5.1168776 0.46400112 -200 45 -200 45 -200 45
3242678296.3827 -5.0858879 0.53176981 -200 45 -200 45 -200 45
3243678413.0688 -5.0562143 0.5427562 -200 45 -200 45 -200 45
3244678529.755 -5.0268383 0.54752129 -200 45 -200 45 -200 45
3245678646.4411 -5.00036 0.56253868 -200 45 -200 45 -200 45
3246678763.1272 -4.9772024 0.53273946 -200 45 -200 45 -200 45
3247678879.8133 -4.9564772 0.50025523 -200 45 -200 45 -200 45
3248678996.4994 -4.935185 0.44400263 -200 45 -200 45 -200 45
3249679113.1855 -4.9189653 0.37118384 -200 45 -200 45 -200 45
3250679229.8716 -4.9081106 0.28207657 -200 45 -200 45 -200 45
3251679346.5578 -4.9015818 0.20049147 -200 45 -200 45 -200 45
3252679463.2439 -4.9046335 0.11933319 -200 45 -200 45 -200 45
3253679579.93 -4.9104209 0.076047555 -200 45 -200 45 -200 45
3254679696.6161 -4.9189711 0.08849448 -200 45 -200 45 -200 45
3255679813.3022 -4.9240561 0.15345168 -200 45 -200 45 -200 45
3256679929.9883 -4.9234362 0.23079124 -200 45 -200 45 -200 45
3257680046.6744 -4.91466 0.3300246 -200 45 -200 45 -200 45
3258680163.3606 -4.9035387 0.41331762 -200 45 -200 45 -200 45
3259680280.0467 -4.8894873 0.47028083 -200 45 -200 45 -200 45
3260680396.7328 -4.8751202 0.51889545 -200 45 -200 45 -200 45
3261680513.4189 -4.8549509 0.54599041 -200 45 -200 45 -200 45
3262680630.105 -4.8374391 0.55644101 -200 45 -200 45 -200 45
3263680746.7911 -4.8177648 0.54339767 -200 45 -200 45 -200 45
3264680863.4772 -4.7980003 0.52993625 -200 45 -200 45 -200 45
3265680980.1634 -4.7824936 0.4760983 -200 45 -200 45 -200 45
3266681096.8495 -4.7684178 0.42082655 -200 45 -200 45 -200 45
3267681213.5356 -4.7556267 0.34497324 -200 45 -200 45 -200 45
3268681330.2217 -4.7448034 0.28236306 -200 45 -200 45 -200 45
3269681446.9078 -4.7337475 0.18600753 -200 45 -200 45 -200 45
3270681563.5939 -4.7285795 0.11153094 -200 45 -200 45 -200 45
3271681680.28 -4.7202821 0.025715578 -200 45 -200 45 -200 45
3272681796.9662 -4.7180829 -0.064269744 -200 45 -200 45 -200 45
3273681913.6523 -4.7179809 -0.13041347 -200 45 -200 45 -200 45
3274682030.3384 -4.7163539 -0.21296917 -200 45 -200 45 -200 45
3275682147.0245 -4.7170177 -0.26344544 -200 45 -200 45 -200 45
3276682263.7106 -4.7159715 -0.32098427 -200 45 -200 45 -200 45
3277682380.3967 -4.7181993 -0.3564257 -200 45 -200 45 -200 45
3278682497.0828 -4.7164969 -0.41942397 -200 45 -200 45 -200 45
3279682613.769 -4.7196274 -0.45934832 -200 45 -200 45 -200 45
3280682730.4551 -4.7229023 -0.4973596 -200 45 -200 45 -200 45
3281682847.1412 -4.7252698 -0.52081656 -200 45 -200 45 -200 45
3282682963.8273 -4.7260695 -0.55221313 -200 45 -200 45 -200 45
3283683080.5134 -4.727457 -0.57798797 -200 45 -200 45 -200 45
3284683197.1995 -4.7251134 -0.59150887 -200 45 -200 45 -200 45
3285683313.8856 -4.7268019 -0.61608827 -200 45 -200 45 -200 45
3286683430.5718 -4.7260427 -0.64963508 -200 45 -200 45 -200 45
3287683547.2579 -4.720943 -0.66653913 -200 45 -200 45 -200 45
3288683663.944 -4.7187114 -0.69842505 -200 45 -200 45 -200 45
3289683780.6301 -4.7174778 -0.75137156 -200 45 -200 45 -200 45
3290683897.3162 -4.7184563 -0.80437624 -200 45 -200 45 -200 45
3291684014.0023 -4.7175245 -0.86777753 -200 45 -200 45 -200 45
3292684130.6884 -4.7207265 -0.89719635 -200 45 -200 45 -200 45
3293684247.3746 -4.7235212 -0.95621425 -200 45 -200 45 -200 45
3294684364.0607 -4.727242 -0.98434454 -200 45 -200 45 -200 45
3295684480.7468 -4.7310348 -1.0259249 -200 45 -200 45 -200 45
3296684597.4329 -4.7344575 -1.0541413 -200 45 -200 45 -200 45
3297684714.119 -4.7411585 -1.0794193 -200 45 -200 45 -200 45
3298684830.8051 -4.7463245 -1.105328 -200 45 -200 45 -200 45
3299684947.4912 -4.7489862 -1.1313543 -200 45 -200 45 -200 45
3300685064.1774 -4.7533264 -1.1379051 -200 45 -200 45 -200 45
3301685180.8635 -4.7582364 -1.1572931 -200 45 -200 45 -200 45
3302685297.5496 -4.7622075 -1.1792352 -200 45 -200 45 -200 45
3303685414.2357 -4.7670593 -1.1914122 -200 45 -200 45 -200 45
3304685530.9218 -4.771811 -1.1902034 -200 45 -200 45 -200 45
3305685647.6079 -4.7742338 -1.190699 -200 45 -200 45 -200 45
3306685764.294 -4.7772908 -1.2152799 -200 45 -200 45 -200 45
3307685880.9802 -4.7833505 -1.2252681 -200 45 -200 45 -200 45
3308685997.6663 -4.7832632 -1.2253898 -200 45 -200 45 -200 45
3309686114.3524 -4.7855463 -1.2293631 -200 45 -200 45 -200 45
3310686231.0385 -4.7917824 -1.238959 -200 45 -200 45 -200 45
3311686347.7246 -4.7948613 -1.2425692 -200 45 -200 45 -200 45
3312686464.4107 -4.7976866 -1.2409061 -200 45 -200 45 -200 45
3313686581.0968 -4.7999105 -1.2521819 -200 45 -200 45 -200 45
3314686697.783 -4.8019919 -1.249819 -200 45 -200 45 -200 45
3315686814.4691 -4.806221 -1.2560757 -200 45 -200 45 -200 45
3316686931.1552 -4.8083439 -1.262203 -200 45 -200 45 -200 45
3317687047.8413 -4.811748 -1.2648407 -200 45 -200 45 -200 45
3318687164.5274 -4.8161983 -1.2473453 -200 45 -200 45 -200 45
3319687281.2135 -4.8161249 -1.2645653 -200 45 -200 45 -200 45
3320687397.8997 -4.8186221 -1.2660089 -200 45 -200 45 -200 45
3321687514.5858 -4.8219576 -1.271762 -200 45 -200 45 -200 45
3322687631.2719 -4.8251891 -1.2707142 -200 45 -200 45 -200 45
3323687747.958 -4.8293834 -1.263954 -200 45 -200 45 -200 45
3324687864.6441 -4.830337 -1.2695167 -200 45 -200 45 -200 45
3325687981.3302 -4.8321338 -1.2573297 -200 45 -200 45 -200 45
3326688098.0163 -4.8352594 -1.2542777 -200 45 -200 45 -200 45
3327688214.7025 -4.8376861 -1.2689534 -200 45 -200 45 -200 45
3328688331.3886 -4.837472 -1.2594368 -200 45 -200 45 -200 45
3329688448.0747 -4.8419538 -1.2660235 -200 45 -200 45 -200 45
3330688564.7608 -4.8444643 -1.2646891 -200 45 -200 45 -200 45
3331688681.4469 -4.8470178 -1.260704 -200 45 -200 45 -200 45
3332688798.133 -4.8488016 -1.2498969 -200 45 -200 45 -200 45
3333688914.8191 -4.8502707 -1.2383336 -200 45 -200 45 -200 45
3334689031.5053 -4.8530803 -1.266623 -200 45 -200 45 -200 45
3335689148.1914 -4.8546166 -1.2471416 -200 45 -200 45 -200 45
3336689264.8775 -4.8566356 -1.2545954 -200 45 -200 45 -200 45
3337689381.5636 -4.8584037 -1.2479401 -200 45 -200 45 -200 45
3338689498.2497 -4.8622785 -1.2491183 -200 45 -200 45 -200 45
3339689614.9358 -4.863647 -1.2376605 -200 45 -200 45 -200 45
3340689731.6219 -4.8645506 -1.2435178 -200 45 -200 45 -200 45
3341689848.3081 -4.8680711 -1.2431365 -200 45 -200 45 -200 45
3342689964.9942 -4.8689494 -1.2402092 -200 45 -200 45 -200 45
3343690081.6803 -4.8727365 -1.2499447 -200 45 -200 45 -200 45
3344690198.3664 -4.8741279 -1.2389252 -200 45 -200 45 -200 45
3345690315.0525 -4.8759842 -1.2437323 -200 45 -200 45 -200 45
3346690431.7386 -4.8769851 -1.22142 -200 45 -200 45 -200 45
3347690548.4247 -4.8799171 -1.2279222 -200 45 -200 45 -200 45
3348690665.1109 -4.8795443 -1.2246226 -200 45 -200 45 -200 45
3349690781.797 -4.8833847 -1.216303 -200 45 -200 45 -200 45
3350690898.4831 -4.883379 -1.2177587 -200 45 -200 45 -200 45
3351691015.1692 -4.8870349 -1.204319 -200 45 -200 45 -200 45
3352691131.8553 -4.8909397 -1.2061323 -200 45 -200 45 -200 45
3353691248.5414 -4.8923411 -1.2082258 -200 45 -200 45 -200 45
3354691365.2275 -4.8949552 -1.1906577 -200 45 -200 45 -200 45
3355691481.9137 -4.8947883 -1.1994565 -200 45 -200 45 -200 45
3356691598.5998 -4.8942618 -1.1992368 -200 45 -200 45 -200 45
3357691715.2859 -4.8997555 -1.1913295 -200 45 -200 45 -200 45
3358691831.972 -4.90203 -1.1781547 -200 45 -200 45 -200 45
3359691948.6581 -4.9037867 -1.1798948 -200 45 -200 45 -200 45
3360692065.3442 -4.9063978 -1.1852148 -200 45 -200 45 -200 45
3361692182.0303 -4.9069476 -1.1962422 -200 45 -200 45 -200 45
3362692298.7165 -4.9101801 -1.1794922 -200 45 -200 45 -200 45
3363692415.4026 -4.911191 -1.1714015 -200 45 -200 45 -200 45
3364692532.0887 -4.912447 -1.1765904 -200 45 -200 45 -200 45
3365692648.7748 -4.9141469 -1.1591829 -200 45 -200 45 -200 45
3366692765.4609 -4.9153814 -1.1574185 -200 45 -200 45 -200 45
3367692882.147 -4.918726 -1.1517746 -200 45 -200 45 -200 45
3368692998.8331 -4.9187684 -1.1502163 -200 45 -200 45 -200 45
3369693115.5193 -4.9214554 -1.1594647 -200 45 -200 45 -200 45
3370693232.2054 -4.92594 -1.138672 -200 45 -200 45 -200 45
3371693348.8915 -4.9255285 -1.1405978 -200 45 -200 45 -200 45
3372693465.5776 -4.9266434 -1.1445448 -200 45 -200 45 -200 45
3373693582.2637 -4.9298606 -1.1411579 -200 45 -200 45 -200 45
3374693698.9498 -4.9319944 -1.1217788 -200 45 -200 45 -200 45
3375693815.6359 -4.9339986 -1.1319345 -200 45 -200 45 -200 45
3376693932.3221 -4.9340568 -1.1295294 -200 45 -200 45 -200 45
3377694049.0082 -4.9378967 -1.126145 -200 45 -200 45 -200 45
3378694165.6943 -4.9389353 -1.1266294 -200 45 -200 45 -200 45
3379694282.3804 -4.9427419 -1.1266468 -200 45 -200 45 -200 45
3380694399.0665 -4.9437604 -1.1196756 -200 45 -200 45 -200 45
3381694515.7526 -4.9456215 -1.1038079 -200 45 -200 45 -200 45
3382694632.4387 -4.9456677 -1.1107103 -200 45 -200 45 -200 45
3383694749.1249 -4.9489646 -1.0985507 -200 45 -200 45 -200 45
3384694865.811 -4.9524755 -1.090169 -200 45 -200 45 -200 45
3385694982.4971 -4.9532676 -1.0875543 -200 45 -200 45 -200 45
3386695099.1832 -4.9550753 -1.0797559 -200 45 -200 45 -200 45
3387695215.8693 -4.9577355 -1.0660241 -200 45 -200 45 -200 45
3388695332.5554 -4.960062 -1.077823 -200 45 -200 45 -200 45
3389695449.2415 -4.9617457 -1.0597569 -200 45 -200 45 -200 45
3390695565.9277 -4.9639678 -1.0525177 -200 45 -200 45 -200 45
3391695682.6138 -4.9654174 -1.0616637 -200 45 -200 45 -200 45
3392695799.2999 -4.9693508 -1.0476601 -200 45 -200 45 -200 45
3393695915.986 -4.9691687 -1.0272387 -200 45 -200 45 -200 45
3394696032.6721 -4.9730177 -1.0143939 -200 45 -200 45 -200 45
3395696149.3582 -4.9737406 -1.0003208 -200 45 -200 45 -200 45
3396696266.0443 -4.9731503 -0.99930131 -200 45 -200 45 -200 45
3397696382.7305 -4.9762444 -0.99576104 -200 45 -200 45 -200 45
3398696499.4166 -4.9758506 -0.96152478 -200 45 -200 45 -200 45
3399696616.1027 -4.9790578 -0.98698121 -200 45 -200 45 -200 45
3400696732.7888 -4.9796968 -0.97521162 -200 45 -200 45 -200 45
3401696849.4749 -4.9812827 -0.96873492 -200 45 -200 45 -200 45
3402696966.161 -4.981194 -0.94970047 -200 45 -200 45 -200 45
3403697082.8471 -4.9814372 -0.94873911 -200 45 -200 45 -200 45
3404697199.5333 -4.9840651 -0.96306598 -200 45 -200 45 -200 45
3405697316.2194 -4.9857345 -0.9334017 -200 45 -200 45 -200 45
3406697432.9055 -4.9873295 -0.93730015 -200 45 -200 45 -200 45
3407697549.5916 -4.9877067 -0.92881012 -200 45 -200 45 -200 45
3408697666.2777 -4.9881206 -0.92755026 -200 45 -200 45 -200 45
3409697782.9638 -4.9888258 -0.93455911 -200 45 -200 45 -200 45
3410697899.6499 -4.9909921 -0.91921389 -200 45 -200 45 -200 45
3411698016.3361 -4.9939065 -0.9084031 -200 45 -200 45 -200 45
3412698133.0222 -4.9930406 -0.92181581 -200 45 -200 45 -200 45
3413698249.7083 -4.9951372 -0.91295254 -200 45 -200 45 -200 45
3414698366.3944 -4.9948077 -0.9122957 -200 45 -200 45 -200 45
3415698483.0805 -4.9960513 -0.90625972 -200 45 -200 45 -200 45
3416698599.7666 -4.9984751 -0.88459027 -200 45 -200 45 -200 45
3417698716.4527 -5.000299 -0.88311332 -200 45 -200 45 -200 45
3418698833.1389 -5.0030231 -0.87444836 -200 45 -200 45 -200 45
3419698949.825 -5.0017786 -0.88302237 -200 45 -200 45 -200 45
3420699066.5111 -5.0051413 -0.88913399 -200 45 -200 45 -200 45
3421699183.1972 -5.0056138 -0.88516885 -200 45 -200 45 -200 45
3422699299.8833 -5.0067163 -0.87699896 -200 45 -200 45 -200 45
3423699416.5694 -5.0080261 -0.86656779 -200 45 -200 45 -200 45
3424699533.2555 -5.009706 -0.85476547 -200 45 -200 45 -200 45
3425699649.9417 -5.0099392 -0.86234289 -200 45 -200 45 -200 45
3426699766.6278 -5.0133038 -0.85243863 -200 45 -200 45 -200 45
3427699883.3139 -5.0148892 -0.85886842 -200 45 -200 45 -200 45
3428700000 -5.0132413 -0.86772501 -200 45 -200 45 -200 45
3429700116.6861 -5.0170603 -0.85500425 -200 45 -200 45 -200 45
3430700233.3722 -5.0198989 -0.85619229 -200 45 -200 45 -200 45
3431700350.0583 -5.0197825 -0.84223133 -200 45 -200 45 -200 45
3432700466.7445 -5.0210857 -0.8494401 -200 45 -200 45 -200 45
3433700583.4306 -5.0249462 -0.83437669 -200 45 -200 45 -200 45
3434700700.1167 -5.0240879 -0.83214432 -200 45 -200 45 -200 45
3435700816.8028 -5.0274696 -0.83957273 -200 45 -200 45 -200 45
3436700933.4889 -5.0303636 -0.83831972 -200 45 -200 45 -200 45
3437701050.175 -5.030395 -0.82254905 -200 45 -200 45 -200 45
3438701166.8611 -5.0328279 -0.82577288 -200 45 -200 45 -200 45
3439701283.5473 -5.0334897 -0.8214215 -200 45 -200 45 -200 45
3440701400.2334 -5.0361547 -0.81810874 -200 45 -200 45 -200 45
3441701516.9195 -5.0365262 -0.81667542 -200 45 -200 45 -200 45
3442701633.6056 -5.0396748 -0.80978405 -200 45 -200 45 -200 45
3443701750.2917 -5.0430622 -0.79678458 -200 45 -200 45 -200 45
3444701866.9778 -5.0422196 -0.80929512 -200 45 -200 45 -200 45
3445701983.6639 -5.0445504 -0.79325366 -200 45 -200 45 -200 45
3446702100.3501 -5.0461998 -0.78999871 -200 45 -200 45 -200 45
3447702217.0362 -5.0486202 -0.78064662 -200 45 -200 45 -200 45
3448702333.7223 -5.051755 -0.7832762 -200 45 -200 45 -200 45
3449702450.4084 -5.054255 -0.77986372 -200 45 -200 45 -200 45
3450702567.0945 -5.054172 -0.7724067 -200 45 -200 45 -200 45
3451702683.7806 -5.0560536 -0.76835275 -200 45 -200 45 -200 45
3452702800.4667 -5.0591192 -0.77577591 -200 45 -200 45 -200 45
3453702917.1529 -5.0605941 -0.76224548 -200 45 -200 45 -200 45
3454703033.839 -5.0632777 -0.75678599 -200 45 -200 45 -200 45
3455703150.5251 -5.0662584 -0.76638573 -200 45 -200 45 -200 45
3456703267.2112 -5.0693202 -0.75871694 -200 45 -200 45 -200 45
3457703383.8973 -5.0718684 -0.7487095 -200 45 -200 45 -200 45
3458703500.5834 -5.0745277 -0.74967694 -200 45 -200 45 -200 45
3459703617.2695 -5.0775852 -0.74709749 -200 45 -200 45 -200 45
3460703733.9557 -5.0776515 -0.72821665 -200 45 -200 45 -200 45
3461703850.6418 -5.0809031 -0.73286176 -200 45 -200 45 -200 45
3462703967.3279 -5.0857649 -0.70317692 -200 45 -200 45 -200 45
3463704084.014 -5.0889745 -0.71824294 -200 45 -200 45 -200 45
3464704200.7001 -5.0932794 -0.67075771 -200 45 -200 45 -200 45
3465704317.3862 -5.098052 -0.6667192 -200 45 -200 45 -200 45
3466704434.0723 -5.09863 -0.66865551 -200 45 -200 45 -200 45
3467704550.7585 -5.1046991 -0.64041013 -200 45 -200 45 -200 45
3468704667.4446 -5.1034241 -0.57353586 -200 45 -200 45 -200 45
3469704784.1307 -5.1078839 -0.56304783 -200 45 -200 45 -200 45
3470704900.8168 -5.1057987 -0.52511817 -200 45 -200 45 -200 45
3471705017.5029 -5.107224 -0.49945524 -200 45 -200 45 -200 45
3472705134.189 -5.1044626 -0.48576611 -200 45 -200 45 -200 45
3473705250.8751 -5.1020527 -0.46422684 -200 45 -200 45 -200 45
3474705367.5613 -5.1016827 -0.45520195 -200 45 -200 45 -200 45
3475705484.2474 -5.1006389 -0.45872155 -200 45 -200 45 -200 45
3476705600.9335 -5.1029501 -0.42944771 -200 45 -200 45 -200 45
3477705717.6196 -5.0991344 -0.42983502 -200 45 -200 45 -200 45
3478705834.3057 -5.0999498 -0.4323965 -200 45 -200 45 -200 45
3479705950.9918 -5.0982385 -0.42499742 -200 45 -200 45 -200 45
3480706067.6779 -5.1012082 -0.42614609 -200 45 -200 45 -200 45
3481706184.3641 -5.1009183 -0.43191439 -200 45 -200 45 -200 45
3482706301.0502 -5.1007504 -0.43115762 -200 45 -200 45 -200 45
3483706417.7363 -5.1031122 -0.42130348 -200 45 -200 45 -200 45
3484706534.4224 -5.1030602 -0.43551585 -200 45 -200 45 -200 45
3485706651.1085 -5.1041756 -0.43730357 -200 45 -200 45 -200 45
3486706767.7946 -5.1053791 -0.42506188 -200 45 -200 45 -200 45
3487706884.4807 -5.1060624 -0.42316493 -200 45 -200 45 -200 45
3488707001.1669 -5.1058202 -0.42375094 -200 45 -200 45 -200 45
3489707117.853 -5.1085024 -0.43573043 -200 45 -200 45 -200 45
3490707234.5391 -5.1114416 -0.42011753 -200 45 -200 45 -200 45
3491707351.2252 -5.1115265 -0.43053946 -200 45 -200 45 -200 45
3492707467.9113 -5.1138973 -0.4252882 -200 45 -200 45 -200 45
3493707584.5974 -5.1163883 -0.43014345 -200 45 -200 45 -200 45
3494707701.2835 -5.1190414 -0.42993316 -200 45 -200 45 -200 45
3495707817.9697 -5.1187973 -0.42832029 -200 45 -200 45 -200 45
3496707934.6558 -5.12501 -0.4411895 -200 45 -200 45 -200 45
3497708051.3419 -5.1261511 -0.42550346 -200 45 -200 45 -200 45
3498708168.028 -5.1294041 -0.43157136 -200 45 -200 45 -200 45
3499708284.7141 -5.1341352 -0.42753541 -200 45 -200 45 -200 45
3500708401.4002 -5.1378546 -0.41413611 -200 45 -200 45 -200 45
3501708518.0863 -5.1428008 -0.37596169 -200 45 -200 45 -200 45
3502708634.7725 -5.1436009 -0.35540637 -200 45 -200 45 -200 45
3503708751.4586 -5.1474705 -0.32341146 -200 45 -200 45 -200 45
3504708868.1447 -5.1463189 -0.28245401 -200 45 -200 45 -200 45
3505708984.8308 -5.148068 -0.25796703 -200 45 -200 45 -200 45
3506709101.5169 -5.1465054 -0.25509802 -200 45 -200 45 -200 45
3507709218.203 -5.1472111 -0.23156992 -200 45 -200 45 -200 45
3508709334.8891 -5.1459069 -0.22135913 -200 45 -200 45 -200 45
3509709451.5753 -5.1448951 -0.22568084 -200 45 -200 45 -200 45
3510709568.2614 -5.1445856 -0.2066437 -200 45 -200 45 -200 45
3511709684.9475 -5.1437531 -0.19523758 -200 45 -200 45 -200 45
3512709801.6336 -5.1456704 -0.20916064 -200 45 -200 45 -200 45
3513709918.3197 -5.145802 -0.21922193 -200 45 -200 45 -200 45
3514710035.0058 -5.1449494 -0.2054922 -200 45 -200 45 -200 45
3515710151.6919 -5.1466002 -0.20728843 -200 45 -200 45 -200 45
3516710268.3781 -5.1465154 -0.19320899 -200 45 -200 45 -200 45
3517710385.0642 -5.1486769 -0.20451933 -200 45 -200 45 -200 45
3518710501.7503 -5.1532707 -0.2023807 -200 45 -200 45 -200 45
3519710618.4364 -5.1540399 -0.19428667 -200 45 -200 45 -200 45
3520710735.1225 -5.1548734 -0.18952642 -200 45 -200 45 -200 45
3521710851.8086 -5.1573973 -0.19913591 -200 45 -200 45 -200 45
3522710968.4947 -5.1596403 -0.17233843 -200 45 -200 45 -200 45
3523711085.1809 -5.1646509 -0.17620711 -200 45 -200 45 -200 45
3524711201.867 -5.1654143 -0.15730043 -200 45 -200 45 -200 45
3525711318.5531 -5.1669893 -0.14497502 -200 45 -200 45 -200 45
3526711435.2392 -5.1658754 -0.12029199 -200 45 -200 45 -200 45
3527711551.9253 -5.1712236 -0.089859538 -200 45 -200 45 -200 45
3528711668.6114 -5.1693306 -0.054652326 -200 45 -200 45 -200 45
3529711785.2975 -5.1701913 -0.046701077 -200 45 -200 45 -200 45
3530711901.9837 -5.170866 -0.026196005 -200 45 -200 45 -200 45
3531712018.6698 -5.168119 -0.021386072 -200 45 -200 45 -200 45
3532712135.3559 -5.166204 -0.00041165613 -200 45 -200 45 -200 45
3533712252.042 -5.167417 0.012783244 -200 45 -200 45 -200 45
3534712368.7281 -5.1655564 0.0053170868 -200 45 -200 45 -200 45
3535712485.4142 -5.1638427 0.024597505 -200 45 -200 45 -200 45
3536712602.1004 -5.1633348 0.026688863 -200 45 -200 45 -200 45
3537712718.7865 -5.1617336 0.033704121 -200 45 -200 45 -200 45
3538712835.4726 -5.1620827 0.022948224 -200 45 -200 45 -200 45
3539712952.1587 -5.1605511 0.022299644 -200 45 -200 45 -200 45
3540713068.8448 -5.1619849 0.0080063809 -200 45 -200 45 -200 45
3541713185.5309 -5.1599803 0.012910713 -200 45 -200 45 -200 45
3542713302.217 -5.1622138 0.0086005898 -200 45 -200 45 -200 45
3543713418.9032 -5.1613936 0.019085011 -200 45 -200 45 -200 45
3544713535.5893 -5.1627464 -0.0036740387 -200 45 -200 45 -200 45
3545713652.2754 -5.1616793 0.00099302863 -200 45 -200 45 -200 45
3546713768.9615 -5.1632056 -0.011254755 -200 45 -200 45 -200 45
3547713885.6476 -5.1650319 -0.0097793825 -200 45 -200 45 -200 45
3548714002.3337 -5.1656184 0.0048900214 -200 45 -200 45 -200 45
3549714119.0198 -5.1654916 -0.014447018 -200 45 -200 45 -200 45
3550714235.706 -5.1677003 -0.0082190624 -200 45 -200 45 -200 45
3551714352.3921 -5.1695952 -0.011806449 -200 45 -200 45 -200 45
3552714469.0782 -5.1726437 -0.019836098 -200 45 -200 45 -200 45
3553714585.7643 -5.1708331 -0.023699878 -200 45 -200 45 -200 45
3554714702.4504 -5.1705413 -0.018025918 -200 45 -200 45 -200 45
3555714819.1365 -5.1745644 -0.01453647 -200 45 -200 45 -200 45
3556714935.8226 -5.1769614 -0.031818926 -200 45 -200 45 -200 45
3557715052.5088 -5.1789417 -0.029555652 -200 45 -200 45 -200 45
3558715169.1949 -5.1790805 -0.037472889 -200 45 -200 45 -200 45
3559715285.881 -5.1815777 -0.039807595 -200 45 -200 45 -200 45
3560715402.5671 -5.1828675 -0.040066246 -200 45 -200 45 -200 45
3561715519.2532 -5.1860161 -0.029109746 -200 45 -200 45 -200 45
3562715635.9393 -5.1872721 -0.031532492 -200 45 -200 45 -200 45
3563715752.6254 -5.188096 -0.032750294 -200 45 -200 45 -200 45
3564715869.3116 -5.1930294 -0.022139462 -200 45 -200 45 -200 45
3565715985.9977 -5.1962476 -0.009077332 -200 45 -200 45 -200 45
3566716102.6838 -5.1960001 -0.0064749508 -200 45 -200 45 -200 45
3567716219.3699 -5.198873 -0.012116995 -200 45 -200 45 -200 45
3568716336.056 -5.200489 -0.0052678203 -200 45 -200 45 -200 45
3569716452.7421 -5.2003489 -0.013567468 -200 45 -200 45 -200 45
3570716569.4282 -5.2040291 -0.01530086 -200 45 -200 45 -200 45
3571716686.1144 -5.2053232 0.00099803088 -200 45 -200 45 -200 45
3572716802.8005 -5.2071657 0.0097740693 -200 45 -200 45 -200 45
3573716919.4866 -5.2072339 0.019969672 -200 45 -200 45 -200 45
3574717036.1727 -5.2107525 0.019856432 -200 45 -200 45 -200 45
3575717152.8588 -5.2107372 0.026798746 -200 45 -200 45 -200 45
3576717269.5449 -5.2137656 0.012907658 -200 45 -200 45 -200 45
3577717386.231 -5.2159405 0.026870837 -200 45 -200 45 -200 45
3578717502.9172 -5.2194304 0.031067099 -200 45 -200 45 -200 45
3579717619.6033 -5.2195883 0.032637242 -200 45 -200 45 -200 45
3580717736.2894 -5.2200055 0.032732241 -200 45 -200 45 -200 45
3581717852.9755 -5.22438 0.036699768 -200 45 -200 45 -200 45
3582717969.6616 -5.2241745 0.066789016 -200 45 -200 45 -200 45
3583718086.3477 -5.225152 0.064350285 -200 45 -200 45 -200 45
3584718203.0338 -5.2263794 0.06505128 -200 45 -200 45 -200 45
3585718319.72 -5.2290664 0.078117184 -200 45 -200 45 -200 45
3586718436.4061 -5.2301669 0.081848465 -200 45 -200 45 -200 45
3587718553.0922 -5.2318673 0.087660506 -200 45 -200 45 -200 45
3588718669.7783 -5.2352843 0.075553991 -200 45 -200 45 -200 45
3589718786.4644 -5.2339849 0.086652473 -200 45 -200 45 -200 45
3590718903.1505 -5.23664 0.089348428 -200 45 -200 45 -200 45
3591719019.8366 -5.2380323 0.10310002 -200 45 -200 45 -200 45
3592719136.5228 -5.2406139 0.093552232 -200 45 -200 45 -200 45
3593719253.2089 -5.2434726 0.10546731 -200 45 -200 45 -200 45
3594719369.895 -5.2462025 0.098813772 -200 45 -200 45 -200 45
3595719486.5811 -5.2452145 0.1177678 -200 45 -200 45 -200 45
3596719603.2672 -5.2485967 0.12015767 -200 45 -200 45 -200 45
3597719719.9533 -5.2495742 0.15246788 -200 45 -200 45 -200 45
3598719836.6394 -5.2514863 0.13733315 -200 45 -200 45 -200 45
3599719953.3256 -5.2535305 0.14155647 -200 45 -200 45 -200 45
3600720070.0117 -5.2516198 0.13821439 -200 45 -200 45 -200 45
3601720186.6978 -5.2532868 0.15378359 -200 45 -200 45 -200 45
3602720303.3839 -5.2539454 0.16170397 -200 45 -200 45 -200 45
3603720420.07 -5.2567592 0.16286199 -200 45 -200 45 -200 45
3604720536.7561 -5.2566128 0.17151631 -200 45 -200 45 -200 45
3605720653.4422 -5.2595935 0.17776987 -200 45 -200 45 -200 45
3606720770.1284 -5.2615266 0.17232843 -200 45 -200 45 -200 45
3607720886.8145 -5.2610083 0.17970604 -200 45 -200 45 -200 45
3608721003.5006 -5.263659 0.19327353 -200 45 -200 45 -200 45
3609721120.1867 -5.2658858 0.20582479 -200 45 -200 45 -200 45
3610721236.8728 -5.2701249 0.20705606 -200 45 -200 45 -200 45
3611721353.5589 -5.2719674 0.19284126 -200 45 -200 45 -200 45
3612721470.245 -5.2715688 0.21300551 -200 45 -200 45 -200 45
3613721586.9312 -5.2721 0.21604203 -200 45 -200 45 -200 45
3614721703.6173 -5.2755032 0.21629909 -200 45 -200 45 -200 45
3615721820.3034 -5.2759962 0.2185557 -200 45 -200 45 -200 45
3616721936.9895 -5.2790003 0.21832399 -200 45 -200 45 -200 45
3617722053.6756 -5.2798834 0.23741128 -200 45 -200 45 -200 45
3618722170.3617 -5.2804804 0.2298255 -200 45 -200 45 -200 45
3619722287.0478 -5.2807503 0.24612011 -200 45 -200 45 -200 45
3620722403.734 -5.2840776 0.25681987 -200 45 -200 45 -200 45
3621722520.4201 -5.2842531 0.25169989 -200 45 -200 45 -200 45
3622722637.1062 -5.287549 0.25954139 -200 45 -200 45 -200 45
3623722753.7923 -5.290144 0.26619852 -200 45 -200 45 -200 45
3624722870.4784 -5.2895222 0.26051179 -200 45 -200 45 -200 45
3625722987.1645 -5.2932334 0.2726168 -200 45 -200 45 -200 45
3626723103.8506 -5.2949562 0.26442352 -200 45 -200 45 -200 45
3627723220.5368 -5.2960029 0.28949627 -200 45 -200 45 -200 45
3628723337.2229 -5.297452 0.2821216 -200 45 -200 45 -200 45
3629723453.909 -5.2977314 0.29259497 -200 45 -200 45 -200 45
3630723570.5951 -5.3002734 0.2915726 -200 45 -200 45 -200 45
3631723687.2812 -5.3019328 0.30617219 -200 45 -200 45 -200 45
3632723803.9673 -5.3027062 0.30695722 -200 45 -200 45 -200 45
3633723920.6534 -5.3065705 0.31579149 -200 45 -200 45 -200 45
3634724037.3396 -5.3085465 0.32529765 -200 45 -200 45 -200 45
3635724154.0257 -5.3087873 0.3270624 -200 45 -200 45 -200 45
3636724270.7118 -5.3101301 0.33772436 -200 45 -200 45 -200 45
3637724387.3979 -5.3116212 0.33524552 -200 45 -200 45 -200 45
3638724504.084 -5.31181 0.34217107 -200 45 -200 45 -200 45
3639724620.7701 -5.3139596 0.34391496 -200 45 -200 45 -200 45
3640724737.4562 -5.3193207 0.35595021 -200 45 -200 45 -200 45
3641724854.1424 -5.3201566 0.35761017 -200 45 -200 45 -200 45
3642724970.8285 -5.3212032 0.36614665 -200 45 -200 45 -200 45
3643725087.5146 -5.3242664 0.35510805 -200 45 -200 45 -200 45
3644725204.2007 -5.3245125 0.36401662 -200 45 -200 45 -200 45
3645725320.8868 -5.328414 0.36432207 -200 45 -200 45 -200 45
3646725437.5729 -5.3277426 0.38097662 -200 45 -200 45 -200 45
3647725554.259 -5.3310394 0.38769528 -200 45 -200 45 -200 45
3648725670.9452 -5.3333411 0.37950811 -200 45 -200 45 -200 45
3649725787.6313 -5.3342896 0.39601526 -200 45 -200 45 -200 45
3650725904.3174 -5.3360453 0.38961688 -200 45 -200 45 -200 45
3651726021.0035 -5.338079 0.39935246 -200 45 -200 45 -200 45
3652726137.6896 -5.3399196 0.39912033 -200 45 -200 45 -200 45
3653726254.3757 -5.3417382 0.4008449 -200 45 -200 45 -200 45
3654726371.0618 -5.3423743 0.41089571 -200 45 -200 45 -200 45
3655726487.748 -5.3454909 0.42949557 -200 45 -200 45 -200 45
3656726604.4341 -5.3495388 0.41862029 -200 45 -200 45 -200 45
3657726721.1202 -5.3506632 0.43242306 -200 45 -200 45 -200 45
3658726837.8063 -5.3510075 0.44054231 -200 45 -200 45 -200 45
3659726954.4924 -5.3518028 0.43119279 -200 45 -200 45 -200 45
3660727071.1785 -5.3539624 0.44419825 -200 45 -200 45 -200 45
3661727187.8646 -5.3555684 0.45588878 -200 45 -200 45 -200 45
3662727304.5508 -5.3563051 0.47219074 -200 45 -200 45 -200 45
3663727421.2369 -5.3603888 0.46761897 -200 45 -200 45 -200 45
3664727537.923 -5.3609815 0.44467607 -200 45 -200 45 -200 45
3665727654.6091 -5.3668079 0.46252915 -200 45 -200 45 -200 45
3666727771.2952 -5.3670754 0.48640236 -200 45 -200 45 -200 45
3667727887.9813 -5.367559 0.48411694 -200 45 -200 45 -200 45
3668728004.6674 -5.3703113 0.49494946 -200 45 -200 45 -200 45
3669728121.3536 -5.3700533 0.51451784 -200 45 -200 45 -200 45
3670728238.0397 -5.3743539 0.49527815 -200 45 -200 45 -200 45
3671728354.7258 -5.378108 0.51775455 -200 45 -200 45 -200 45
3672728471.4119 -5.3768005 0.52614391 -200 45 -200 45 -200 45
3673728588.098 -5.3781691 0.53545499 -200 45 -200 45 -200 45
3674728704.7841 -5.3813863 0.5369035 -200 45 -200 45 -200 45
3675728821.4702 -5.3847256 0.53969538 -200 45 -200 45 -200 45
3676728938.1564 -5.381855 0.54642332 -200 45 -200 45 -200 45
3677729054.8425 -5.3870416 0.53243673 -200 45 -200 45 -200 45
3678729171.5286 -5.3907909 0.53842139 -200 45 -200 45 -200 45
3679729288.2147 -5.3904076 0.55052769 -200 45 -200 45 -200 45
3680729404.9008 -5.3936315 0.55694473 -200 45 -200 45 -200 45
3681729521.5869 -5.3934712 0.56071603 -200 45 -200 45 -200 45
3682729638.273 -5.3964415 0.56841761 -200 45 -200 45 -200 45
3683729754.9592 -5.3979692 0.56569028 -200 45 -200 45 -200 45
3684729871.6453 -5.3996458 0.57387811 -200 45 -200 45 -200 45
3685729988.3314 -5.4017448 0.57534224 -200 45 -200 45 -200 45
3686730105.0175 -5.401309 0.58473963 -200 45 -200 45 -200 45
3687730221.7036 -5.4052286 0.58249319 -200 45 -200 45 -200 45
3688730338.3897 -5.4060149 0.57492828 -200 45 -200 45 -200 45
3689730455.0758 -5.4079638 0.5939036 -200 45 -200 45 -200 45
3690730571.762 -5.4098406 0.59707844 -200 45 -200 45 -200 45
3691730688.4481 -5.4095187 0.60084599 -200 45 -200 45 -200 45
3692730805.1342 -5.4130006 0.60600227 -200 45 -200 45 -200 45
3693730921.8203 -5.4165645 0.59885025 -200 45 -200 45 -200 45
3694731038.5064 -5.4188719 0.61344188 -200 45 -200 45 -200 45
3695731155.1925 -5.4206986 0.60516262 -200 45 -200 45 -200 45
3696731271.8786 -5.4222355 0.62039965 -200 45 -200 45 -200 45
3697731388.5648 -5.4240336 0.61599708 -200 45 -200 45 -200 45
3698731505.2509 -5.4261627 0.62987202 -200 45 -200 45 -200 45
3699731621.937 -5.4264159 0.62509984 -200 45 -200 45 -200 45
3700731738.6231 -5.4290295 0.62906063 -200 45 -200 45 -200 45
3701731855.3092 -5.4321299 0.62948149 -200 45 -200 45 -200 45
3702731971.9953 -5.4328866 0.6177153 -200 45 -200 45 -200 45
3703732088.6814 -5.4353619 0.63667125 -200 45 -200 45 -200 45
3704732205.3676 -5.4397664 0.63011992 -200 45 -200 45 -200 45
3705732322.0537 -5.4423766 0.63819456 -200 45 -200 45 -200 45
3706732438.7398 -5.4419203 0.64816999 -200 45 -200 45 -200 45
3707732555.4259 -5.446393 0.64267319 -200 45 -200 45 -200 45
3708732672.112 -5.4465141 0.63465124 -200 45 -200 45 -200 45
3709732788.7981 -5.4484692 0.62723076 -200 45 -200 45 -200 45
3710732905.4842 -5.4510465 0.64235371 -200 45 -200 45 -200 45
3711733022.1704 -5.4530525 0.64628941 -200 45 -200 45 -200 45
3712733138.8565 -5.458364 0.64685565 -200 45 -200 45 -200 45
3713733255.5426 -5.4589815 0.65962112 -200 45 -200 45 -200 45
3714733372.2287 -5.4626241 0.64520806 -200 45 -200 45 -200 45
3715733488.9148 -5.4642501 0.66029203 -200 45 -200 45 -200 45
3716733605.6009 -5.4656801 0.6483075 -200 45 -200 45 -200 45
3717733722.287 -5.4681826 0.63937002 -200 45 -200 45 -200 45
3718733838.9732 -5.4707055 0.6607461 -200 45 -200 45 -200 45
3719733955.6593 -5.4742489 0.67110378 -200 45 -200 45 -200 45
3720734072.3454 -5.4744515 0.68131024 -200 45 -200 45 -200 45
3721734189.0315 -5.4816313 0.66896528 -200 45 -200 45 -200 45
3722734305.7176 -5.4796362 0.67203361 -200 45 -200 45 -200 45
3723734422.4037 -5.4828568 0.67197138 -200 45 -200 45 -200 45
3724734539.0898 -5.4859586 0.68148607 -200 45 -200 45 -200 45
3725734655.776 -5.4876575 0.66807729 -200 45 -200 45 -200 45
3726734772.4621 -5.4905195 0.66059566 -200 45 -200 45 -200 45
3727734889.1482 -5.4954848 0.67419332 -200 45 -200 45 -200 45
3728735005.8343 -5.4980721 0.68848479 -200 45 -200 45 -200 45
3729735122.5204 -5.5001941 0.66905993 -200 45 -200 45 -200 45
3730735239.2065 -5.5027938 0.67313439 -200 45 -200 45 -200 45
3731735355.8926 -5.5057297 0.67905271 -200 45 -200 45 -200 45
3732735472.5788 -5.5072937 0.67810458 -200 45 -200 45 -200 45
3733735589.2649 -5.5099216 0.67930639 -200 45 -200 45 -200 45
3734735705.951 -5.5136852 0.67547947 -200 45 -200 45 -200 45
3735735822.6371 -5.5156074 0.69616312 -200 45 -200 45 -200 45
3736735939.3232 -5.5204082 0.67935932 -200 45 -200 45 -200 45
3737736056.0093 -5.5232329 0.68565995 -200 45 -200 45 -200 45
3738736172.6954 -5.5263033 0.68348974 -200 45 -200 45 -200 45
3739736289.3816 -5.5273895 0.69518614 -200 45 -200 45 -200 45
3740736406.0677 -5.530519 0.68277699 -200 45 -200 45 -200 45
3741736522.7538 -5.5366335 0.69187528 -200 45 -200 45 -200 45
3742736639.4399 -5.5404816 0.69311184 -200 45 -200 45 -200 45
3743736756.126 -5.5428381 0.69237053 -200 45 -200 45 -200 45
3744736872.8121 -5.5474505 0.69066679 -200 45 -200 45 -200 45
3745736989.4983 -5.5493512 0.69388306 -200 45 -200 45 -200 45
3746737106.1844 -5.5545583 0.69584322 -200 45 -200 45 -200 45
3747737222.8705 -5.5549827 0.69889909 -200 45 -200 45 -200 45
3748737339.5566 -5.5590148 0.69156921 -200 45 -200 45 -200 45
3749737456.2427 -5.5642896 0.70107746 -200 45 -200 45 -200 45
3750737572.9288 -5.5662456 0.69597965 -200 45 -200 45 -200 45
3751737689.6149 -5.5712433 0.71854395 -200 45 -200 45 -200 45
3752737806.3011 -5.5744171 0.70864201 -200 45 -200 45 -200 45
3753737922.9872 -5.5757804 0.70350963 -200 45 -200 45 -200 45
3754738039.6733 -5.5802579 0.72397482 -200 45 -200 45 -200 45
3755738156.3594 -5.5857406 0.70275265 -200 45 -200 45 -200 45
3756738273.0455 -5.5878654 0.71655077 -200 45 -200 45 -200 45
3757738389.7316 -5.5922222 0.70655262 -200 45 -200 45 -200 45
3758738506.4177 -5.5966787 0.7016362 -200 45 -200 45 -200 45
3759738623.1039 -5.6013536 0.71771491 -200 45 -200 45 -200 45
3760738739.79 -5.604589 0.7229048 -200 45 -200 45 -200 45
3761738856.4761 -5.6060839 0.71915925 -200 45 -200 45 -200 45
3762738973.1622 -5.6115785 0.70569426 -200 45 -200 45 -200 45
3763739089.8483 -5.6147318 0.71211737 -200 45 -200 45 -200 45
3764739206.5344 -5.6195707 0.70794892 -200 45 -200 45 -200 45
3765739323.2205 -5.6216822 0.69618356 -200 45 -200 45 -200 45
3766739439.9067 -5.626358 0.69239777 -200 45 -200 45 -200 45
3767739556.5928 -5.6333895 0.6926012 -200 45 -200 45 -200 45
3768739673.2789 -5.6370635 0.69470036 -200 45 -200 45 -200 45
3769739789.965 -5.6412873 0.70674479 -200 45 -200 45 -200 45
3770739906.6511 -5.645503 0.67436904 -200 45 -200 45 -200 45
3771740023.3372 -5.6507902 0.67832023 -200 45 -200 45 -200 45
3772740140.0233 -5.6562114 0.67847848 -200 45 -200 45 -200 45
3773740256.7095 -5.6596417 0.68290085 -200 45 -200 45 -200 45
3774740373.3956 -5.6676316 0.66872966 -200 45 -200 45 -200 45
3775740490.0817 -5.6711001 0.6789158 -200 45 -200 45 -200 45
3776740606.7678 -5.6803818 0.66968423 -200 45 -200 45 -200 45
3777740723.4539 -5.6840811 0.65170854 -200 45 -200 45 -200 45
3778740840.14 -5.6880736 0.64060545 -200 45 -200 45 -200 45
3779740956.8261 -5.6947761 0.63608664 -200 45 -200 45 -200 45
3780741073.5123 -5.7028179 0.62569505 -200 45 -200 45 -200 45
3781741190.1984 -5.7083974 0.60181504 -200 45 -200 45 -200 45
3782741306.8845 -5.7144694 0.61201489 -200 45 -200 45 -200 45
3783741423.5706 -5.7242761 0.64247084 -200 45 -200 45 -200 45
3784741540.2567 -5.731286 0.61552495 -200 45 -200 45 -200 45
3785741656.9428 -5.7402902 0.60829812 -200 45 -200 45 -200 45
3786741773.6289 -5.746172 0.59944642 -200 45 -200 45 -200 45
3787741890.3151 -5.7515459 0.59053969 -200 45 -200 45 -200 45
3788742007.0012 -5.7610493 0.60761905 -200 45 -200 45 -200 45
3789742123.6873 -5.7677536 0.59088475 -200 45 -200 45 -200 45
3790742240.3734 -5.7761517 0.57696897 -200 45 -200 45 -200 45
3791742357.0595 -5.7871313 0.57310498 -200 45 -200 45 -200 45
3792742473.7456 -5.7954311 0.5571624 -200 45 -200 45 -200 45
3793742590.4317 -5.8030524 0.55309713 -200 45 -200 45 -200 45
3794742707.1179 -5.8099875 0.53267694 -200 45 -200 45 -200 45
3795742823.804 -5.8224144 0.50303102 -200 45 -200 45 -200 45
3796742940.4901 -5.8325677 0.51026207 -200 45 -200 45 -200 45
3797743057.1762 -5.8445573 0.48780438 -200 45 -200 45 -200 45
3798743173.8623 -5.8569245 0.47875005 -200 45 -200 45 -200 45
3799743290.5484 -5.8697786 0.47982827 -200 45 -200 45 -200 45
3800743407.2345 -5.8817306 0.45122108 -200 45 -200 45 -200 45
3801743523.9207 -5.893898 0.42264575 -200 45 -200 45 -200 45
3802743640.6068 -5.9081488 0.41844299 -200 45 -200 45 -200 45
3803743757.2929 -5.921627 0.39085865 -200 45 -200 45 -200 45
3804743873.979 -5.9350591 0.37261733 -200 45 -200 45 -200 45
3805743990.6651 -5.9526386 0.33214214 -200 45 -200 45 -200 45
3806744107.3512 -5.9698124 0.33573306 -200 45 -200 45 -200 45
3807744224.0373 -5.9916425 0.29866147 -200 45 -200 45 -200 45
3808744340.7235 -6.0104728 0.28121004 -200 45 -200 45 -200 45
3809744457.4096 -6.0307708 0.26704091 -200 45 -200 45 -200 45
3810744574.0957 -6.0535545 0.23477761 -200 45 -200 45 -200 45
3811744690.7818 -6.0774775 0.21161832 -200 45 -200 45 -200 45
3812744807.4679 -6.1058989 0.18722694 -200 45 -200 45 -200 45
3813744924.154 -6.1331558 0.16067961 -200 45 -200 45 -200 45
3814745040.8401 -6.1652403 0.15022662 -200 45 -200 45 -200 45
3815745157.5263 -6.2025313 0.12657806 -200 45 -200 45 -200 45
3816745274.2124 -6.2413177 0.10050603 -200 45 -200 45 -200 45
3817745390.8985 -6.2850018 0.083428867 -200 45 -200 45 -200 45
3818745507.5846 -6.3361702 0.083153307 -200 45 -200 45 -200 45
3819745624.2707 -6.3944688 0.10540551 -200 45 -200 45 -200 45
3820745740.9568 -6.4593072 0.15028916 -200 45 -200 45 -200 45
3821745857.6429 -6.5344181 0.25668818 -200 45 -200 45 -200 45
3822745974.3291 -6.616919 0.45443046 -200 45 -200 45 -200 45
3823746091.0152 -6.7094464 0.74340779 -200 45 -200 45 -200 45
3824746207.7013 -6.8018198 1.1744519 -200 45 -200 45 -200 45
3825746324.3874 -6.8911114 1.7959963 -200 45 -200 45 -200 45
3826746441.0735 -6.9616957 2.5725176 -200 45 -200 45 -200 45
3827746557.7596 -7.0112987 3.4944448 -200 45 -200 45 -200 45
3828746674.4457 -7.0287924 4.4576263 -200 45 -200 45 -200 45
3829746791.1319 -7.0124826 5.3998685 -200 45 -200 45 -200 45
3830746907.818 -6.9743094 6.2485213 -200 45 -200 45 -200 45
3831747024.5041 -6.9212794 7.0135207 -200 45 -200 45 -200 45
3832747141.1902 -6.8584332 7.6726127 -200 45 -200 45 -200 45
3833747257.8763 -6.787354 8.2372522 -200 45 -200 45 -200 45
3834747374.5624 -6.7157922 8.7305365 -200 45 -200 45 -200 45
3835747491.2485 -6.6323152 9.144248 -200 45 -200 45 -200 45
3836747607.9347 -6.5585737 9.5054178 -200 45 -200 45 -200 45
3837747724.6208 -6.4778838 9.8207493 -200 45 -200 45 -200 45
3838747841.3069 -6.3972244 10.048717 -200 45 -200 45 -200 45
3839747957.993 -6.3147912 10.221771 -200 45 -200 45 -200 45
3840748074.6791 -6.232173 10.337613 -200 45 -200 45 -200 45
3841748191.3652 -6.1509418 10.379719 -200 45 -200 45 -200 45
3842748308.0513 -6.0739074 10.379394 -200 45 -200 45 -200 45
3843748424.7375 -6.0020347 10.304901 -200 45 -200 45 -200 45
3844748541.4236 -5.9342942 10.198003 -200 45 -200 45 -200 45
3845748658.1097 -5.877656 10.025547 -200 45 -200 45 -200 45
3846748774.7958 -5.8278608 9.848999 -200 45 -200 45 -200 45
3847748891.4819 -5.7888727 9.6464815 -200 45 -200 45 -200 45
3848749008.168 -5.7573295 9.4451971 -200 45 -200 45 -200 45
3849749124.8541 -5.7340574 9.2450161 -200 45 -200 45 -200 45
3850749241.5403 -5.7188525 9.0846081 -200 45 -200 45 -200 45
3851749358.2264 -5.7073889 8.9581537 -200 45 -200 45 -200 45
3852749474.9125 -5.7060323 8.8517857 -200 45 -200 45 -200 45
3853749591.5986 -5.7007313 8.8101215 -200 45 -200 45 -200 45
3854749708.2847 -5.6973968 8.7849789 -200 45 -200 45 -200 45
3855749824.9708 -5.6956387 8.8218184 -200 45 -200 45 -200 45
3856749941.6569 -5.6901407 8.9132137 -200 45 -200 45 -200 45
3857750058.3431 -5.6801052 9.0151415 -200 45 -200 45 -200 45
3858750175.0292 -5.6629472 9.1492796 -200 45 -200 45 -200 45
3859750291.7153 -5.6387887 9.2915869 -200 45 -200 45 -200 45
3860750408.4014 -5.6080055 9.4249372 -200 45 -200 45 -200 45
3861750525.0875 -5.5706449 9.5490189 -200 45 -200 45 -200 45
3862750641.7736 -5.5308423 9.640007 -200 45 -200 45 -200 45
3863750758.4597 -5.4836297 9.6976814 -200 45 -200 45 -200 45
3864750875.1459 -5.4350219 9.7216225 -200 45 -200 45 -200 45
3865750991.832 -5.3809943 9.7238417 -200 45 -200 45 -200 45
3866751108.5181 -5.3249807 9.6726513 -200 45 -200 45 -200 45
3867751225.2042 -5.2674613 9.5756893 -200 45 -200 45 -200 45
3868751341.8903 -5.2131357 9.423172 -200 45 -200 45 -200 45
3869751458.5764 -5.1621552 9.2050524 -200 45 -200 45 -200 45
3870751575.2625 -5.113657 8.9427643 -200 45 -200 45 -200 45
3871751691.9487 -5.0747075 8.6430655 -200 45 -200 45 -200 45
3872751808.6348 -5.0431027 8.3504667 -200 45 -200 45 -200 45
3873751925.3209 -5.0170665 8.024395 -200 45 -200 45 -200 45
3874752042.007 -5.0008121 7.7123499 -200 45 -200 45 -200 45
3875752158.6931 -4.9865961 7.3780746 -200 45 -200 45 -200 45
3876752275.3792 -4.9825568 7.0748878 -200 45 -200 45 -200 45
3877752392.0653 -4.977088 6.7737513 -200 45 -200 45 -200 45
3878752508.7515 -4.9814353 6.5010614 -200 45 -200 45 -200 45
3879752625.4376 -4.986887 6.25316 -200 45 -200 45 -200 45
3880752742.1237 -4.9925966 6.0251875 -200 45 -200 45 -200 45
3881752858.8098 -5.0026031 5.807466 -200 45 -200 45 -200 45
3882752975.4959 -5.0132418 5.6215248 -200 45 -200 45 -200 45
3883753092.182 -5.0277529 5.4456859 -200 45 -200 45 -200 45
3884753208.8681 -5.0370045 5.2906404 -200 45 -200 45 -200 45
3885753325.5543 -5.0507474 5.15558 -200 45 -200 45 -200 45
3886753442.2404 -5.0609794 5.0113149 -200 45 -200 45 -200 45
3887753558.9265 -5.0728841 4.8933997 -200 45 -200 45 -200 45
3888753675.6126 -5.0849361 4.7827039 -200 45 -200 45 -200 45
3889753792.2987 -5.0953479 4.693388 -200 45 -200 45 -200 45
3890753908.9848 -5.1079121 4.5818977 -200 45 -200 45 -200 45
3891754025.6709 -5.1181817 4.5117354 -200 45 -200 45 -200 45
3892754142.3571 -5.1312423 4.4237075 -200 45 -200 45 -200 45
3893754259.0432 -5.1402464 4.3482709 -200 45 -200 45 -200 45
3894754375.7293 -5.1509485 4.2736564 -200 45 -200 45 -200 45
3895754492.4154 -5.1610365 4.2212224 -200 45 -200 45 -200 45
3896754609.1015 -5.171515 4.1556964 -200 45 -200 45 -200 45
3897754725.7876 -5.1841922 4.0904708 -200 45 -200 45 -200 45
3898754842.4737 -5.1925621 4.0231962 -200 45 -200 45 -200 45
3899754959.1599 -5.2029314 3.982959 -200 45 -200 45 -200 45
3900755075.846 -5.2089958 3.9451425 -200 45 -200 45 -200 45
3901755192.5321 -5.2208714 3.8948936 -200 45 -200 45 -200 45
3902755309.2182 -5.2291489 3.8549452 -200 45 -200 45 -200 45
3903755425.9043 -5.239079 3.813827 -200 45 -200 45 -200 45
3904755542.5904 -5.2465034 3.7867167 -200 45 -200 45 -200 45
3905755659.2765 -5.257782 3.7635009 -200 45 -200 45 -200 45
3906755775.9627 -5.2622657 3.7238235 -200 45 -200 45 -200 45
3907755892.6488 -5.2685699 3.6879539 -200 45 -200 45 -200 45
3908756009.3349 -5.2766514 3.6698265 -200 45 -200 45 -200 45
3909756126.021 -5.2843213 3.6354685 -200 45 -200 45 -200 45
3910756242.7071 -5.292459 3.5982132 -200 45 -200 45 -200 45
3911756359.3932 -5.2992425 3.5681672 -200 45 -200 45 -200 45
3912756476.0793 -5.3087258 3.5504467 -200 45 -200 45 -200 45
3913756592.7655 -5.314537 3.5297585 -200 45 -200 45 -200 45
3914756709.4516 -5.3236113 3.500469 -200 45 -200 45 -200 45
3915756826.1377 -5.3307757 3.4651031 -200 45 -200 45 -200 45
3916756942.8238 -5.3383436 3.4742773 -200 45 -200 45 -200 45
3917757059.5099 -5.3451848 3.4409585 -200 45 -200 45 -200 45
3918757176.196 -5.3509793 3.4202545 -200 45 -200 45 -200 45
3919757292.8821 -5.3574576 3.414186 -200 45 -200 45 -200 45
3920757409.5683 -5.3630819 3.4041479 -200 45 -200 45 -200 45
3921757526.2544 -5.370553 3.3770301 -200 45 -200 45 -200 45
3922757642.9405 -5.375917 3.3553886 -200 45 -200 45 -200 45
3923757759.6266 -5.3825035 3.3546438 -200 45 -200 45 -200 45
3924757876.3127 -5.3889098 3.333586 -200 45 -200 45 -200 45
3925757992.9988 -5.3921857 3.3178952 -200 45 -200 45 -200 45
3926758109.6849 -5.4015269 3.3240273 -200 45 -200 45 -200 45
3927758226.3711 -5.4060998 3.2985263 -200 45 -200 45 -200 45
3928758343.0572 -5.4134555 3.2834342 -200 45 -200 45 -200 45
3929758459.7433 -5.4176912 3.2743163 -200 45 -200 45 -200 45
3930758576.4294 -5.4229183 3.2618148 -200 45 -200 45 -200 45
3931758693.1155 -5.4339342 3.263885 -200 45 -200 45 -200 45
3932758809.8016 -5.4376264 3.2318094 -200 45 -200 45 -200 45
3933758926.4877 -5.4430437 3.2276096 -200 45 -200 45 -200 45
3934759043.1739 -5.4484124 3.2148383 -200 45 -200 45 -200 45
3935759159.86 -5.4577107 3.2054524 -200 45 -200 45 -200 45
3936759276.5461 -5.461401 3.1917138 -200 45 -200 45 -200 45
3937759393.2322 -5.4679508 3.1739047 -200 45 -200 45 -200 45
3938759509.9183 -5.4769702 3.174165 -200 45 -200 45 -200 45
3939759626.6044 -5.4840841 3.1659784 -200 45 -200 45 -200 45
3940759743.2905 -5.48911 3.1671133 -200 45 -200 45 -200 45
3941759859.9767 -5.4973617 3.1401224 -200 45 -200 45 -200 45
3942759976.6628 -5.5057654 3.1378763 -200 45 -200 45 -200 45
3943760093.3489 -5.5133281 3.1460009 -200 45 -200 45 -200 45
3944760210.035 -5.5225596 3.1336455 -200 45 -200 45 -200 45
3945760326.7211 -5.5274229 3.1158361 -200 45 -200 45 -200 45
3946760443.4072 -5.5388441 3.1404381 -200 45 -200 45 -200 45
3947760560.0933 -5.5465045 3.1389253 -200 45 -200 45 -200 45
3948760676.7795 -5.5571365 3.1677351 -200 45 -200 45 -200 45
3949760793.4656 -5.5648546 3.1856487 -200 45 -200 45 -200 45
3950760910.1517 -5.5737042 3.2305167 -200 45 -200 45 -200 45
3951761026.8378 -5.5755081 3.2549098 -200 45 -200 45 -200 45
3952761143.5239 -5.5797639 3.2651925 -200 45 -200 45 -200 45
3953761260.21 -5.5814557 3.2897689 -200 45 -200 45 -200 45
3954761376.8961 -5.5866928 3.2845705 -200 45 -200 45 -200 45
3955761493.5823 -5.588273 3.2943501 -200 45 -200 45 -200 45
3956761610.2684 -5.595366 3.2954695 -200 45 -200 45 -200 45
3957761726.9545 -5.5992322 3.3013685 -200 45 -200 45 -200 45
3958761843.6406 -5.6063514 3.3036873 -200 45 -200 45 -200 45
3959761960.3267 -5.6148853 3.2956932 -200 45 -200 45 -200 45
3960762077.0128 -5.6190038 3.2734051 -200 45 -200 45 -200 45
3961762193.6989 -5.6277909 3.28177 -200 45 -200 45 -200 45
3962762310.3851 -5.6357436 3.2764053 -200 45 -200 45 -200 45
3963762427.0712 -5.644712 3.2706707 -200 45 -200 45 -200 45
3964762543.7573 -5.655211 3.2849457 -200 45 -200 45 -200 45
3965762660.4434 -5.6666694 3.2677612 -200 45 -200 45 -200 45
3966762777.1295 -5.6796527 3.2929215 -200 45 -200 45 -200 45
3967762893.8156 -5.6977863 3.3118298 -200 45 -200 45 -200 45
3968763010.5018 -5.7118773 3.3227468 -200 45 -200 45 -200 45
3969763127.1879 -5.727149 3.3809514 -200 45 -200 45 -200 45
3970763243.874 -5.7449594 3.4369178 -200 45 -200 45 -200 45
3971763360.5601 -5.7646942 3.5435913 -200 45 -200 45 -200 45
3972763477.2462 -5.7782292 3.6569004 -200 45 -200 45 -200 45
3973763593.9323 -5.7941709 3.7803779 -200 45 -200 45 -200 45
3974763710.6184 -5.805582 3.941493 -200 45 -200 45 -200 45
3975763827.3046 -5.8104987 4.1194644 -200 45 -200 45 -200 45
3976763943.9907 -5.8081222 4.2871356 -200 45 -200 45 -200 45
3977764060.6768 -5.8050594 4.4370222 -200 45 -200 45 -200 45
3978764177.3629 -5.7982302 4.5957928 -200 45 -200 45 -200 45
3979764294.049 -5.7868948 4.7357535 -200 45 -200 45 -200 45
3980764410.7351 -5.7718868 4.8431287 -200 45 -200 45 -200 45
3981764527.4212 -5.7566938 4.9323039 -200 45 -200 45 -200 45
3982764644.1074 -5.741159 5.0149961 -200 45 -200 45 -200 45
3983764760.7935 -5.7284422 5.0755105 -200 45 -200 45 -200 45
3984764877.4796 -5.7112045 5.1211128 -200 45 -200 45 -200 45
3985764994.1657 -5.6976767 5.1381884 -200 45 -200 45 -200 45
3986765110.8518 -5.680511 5.1368437 -200 45 -200 45 -200 45
3987765227.5379 -5.670619 5.1451826 -200 45 -200 45 -200 45
3988765344.224 -5.6591253 5.1156707 -200 45 -200 45 -200 45
3989765460.9102 -5.6502419 5.0960002 -200 45 -200 45 -200 45
3990765577.5963 -5.641109 5.074213 -200 45 -200 45 -200 45
3991765694.2824 -5.6365008 5.0398808 -200 45 -200 45 -200 45
3992765810.9685 -5.6300187 5.0056167 -200 45 -200 45 -200 45
3993765927.6546 -5.6245003 4.972589 -200 45 -200 45 -200 45
3994766044.3407 -5.620935 4.9395199 -200 45 -200 45 -200 45
3995766161.0268 -5.62216 4.947751 -200 45 -200 45 -200 45
3996766277.713 -5.6218748 4.9346032 -200 45 -200 45 -200 45
3997766394.3991 -5.6212382 4.9349065 -200 45 -200 45 -200 45
3998766511.0852 -5.6173835 4.9349318 -200 45 -200 45 -200 45
3999766627.7713 -5.6132374 4.9366894 -200 45 -200 45 -200 45
4000766744.4574 -5.6090684 4.9230533 -200 45 -200 45 -200 45
4001766861.1435 -5.6073236 4.9146161 -200 45 -200 45 -200 45
4002766977.8296 -5.6049995 4.9013176 -200 45 -200 45 -200 45
4003767094.5158 -5.600626 4.8649116 -200 45 -200 45 -200 45
4004767211.2019 -5.5950274 4.8695726 -200 45 -200 45 -200 45
4005767327.888 -5.5934434 4.8581724 -200 45 -200 45 -200 45
4006767444.5741 -5.5897083 4.8415718 -200 45 -200 45 -200 45
4007767561.2602 -5.5853381 4.8139148 -200 45 -200 45 -200 45
4008767677.9463 -5.5785294 4.7780948 -200 45 -200 45 -200 45
4009767794.6324 -5.5745378 4.7498283 -200 45 -200 45 -200 45
4010767911.3186 -5.569726 4.6988559 -200 45 -200 45 -200 45
4011768028.0047 -5.5670991 4.6140862 -200 45 -200 45 -200 45
4012768144.6908 -5.5685892 4.5480947 -200 45 -200 45 -200 45
4013768261.3769 -5.5678077 4.4727101 -200 45 -200 45 -200 45
4014768378.063 -5.5690536 4.4112716 -200 45 -200 45 -200 45
4015768494.7491 -5.5749884 4.308836 -200 45 -200 45 -200 45
4016768611.4352 -5.5775757 4.2483206 -200 45 -200 45 -200 45
4017768728.1214 -5.5831189 4.1545935 -200 45 -200 45 -200 45
4018768844.8075 -5.5937023 4.0847282 -200 45 -200 45 -200 45
4019768961.4936 -5.6062799 4.0309577 -200 45 -200 45 -200 45
4020769078.1797 -5.6154051 3.9576728 -200 45 -200 45 -200 45
4021769194.8658 -5.6308346 3.9110582 -200 45 -200 45 -200 45
4022769311.5519 -5.6437621 3.8451021 -200 45 -200 45 -200 45
4023769428.238 -5.6586971 3.8031385 -200 45 -200 45 -200 45
4024769544.9242 -5.676681 3.7637527 -200 45 -200 45 -200 45
4025769661.6103 -5.6939449 3.7074199 -200 45 -200 45 -200 45
4026769778.2964 -5.7131934 3.6947773 -200 45 -200 45 -200 45
4027769894.9825 -5.7351794 3.6806314 -200 45 -200 45 -200 45
4028770011.6686 -5.7612958 3.6712236 -200 45 -200 45 -200 45
4029770128.3547 -5.7867703 3.6656878 -200 45 -200 45 -200 45
4030770245.0408 -5.8162818 3.6940899 -200 45 -200 45 -200 45
4031770361.727 -5.8446107 3.7550113 -200 45 -200 45 -200 45
4032770478.4131 -5.8762345 3.8246195 -200 45 -200 45 -200 45
4033770595.0992 -5.9099207 3.9485075 -200 45 -200 45 -200 45
4034770711.7853 -5.9430084 4.1136041 -200 45 -200 45 -200 45
4035770828.4714 -5.9740796 4.3255515 -200 45 -200 45 -200 45
4036770945.1575 -5.9990673 4.6042109 -200 45 -200 45 -200 45
4037771061.8436 -6.016923 4.9313965 -200 45 -200 45 -200 45
4038771178.5298 -6.0208449 5.26402 -200 45 -200 45 -200 45
4039771295.2159 -6.0176344 5.6012177 -200 45 -200 45 -200 45
4040771411.902 -6.0032339 5.9166908 -200 45 -200 45 -200 45
4041771528.5881 -5.9790759 6.1809168 -200 45 -200 45 -200 45
4042771645.2742 -5.9531755 6.417891 -200 45 -200 45 -200 45
4043771761.9603 -5.9231253 6.6066976 -200 45 -200 45 -200 45
4044771878.6464 -5.8902106 6.7375712 -200 45 -200 45 -200 45
4045771995.3326 -5.8609352 6.8474331 -200 45 -200 45 -200 45
4046772112.0187 -5.8267245 6.9213648 -200 45 -200 45 -200 45
4047772228.7048 -5.7986875 6.957253 -200 45 -200 45 -200 45
4048772345.3909 -5.7725048 6.9576836 -200 45 -200 45 -200 45
4049772462.077 -5.7473507 6.9511089 -200 45 -200 45 -200 45
4050772578.7631 -5.7228675 6.9357634 -200 45 -200 45 -200 45
4051772695.4492 -5.7059646 6.8896461 -200 45 -200 45 -200 45
4052772812.1354 -5.6923122 6.8401752 -200 45 -200 45 -200 45
4053772928.8215 -5.6780605 6.8039761 -200 45 -200 45 -200 45
4054773045.5076 -5.671967 6.7675261 -200 45 -200 45 -200 45
4055773162.1937 -5.6649828 6.7515397 -200 45 -200 45 -200 45
4056773278.8798 -5.6554112 6.7493052 -200 45 -200 45 -200 45
4057773395.5659 -5.6503711 6.7660398 -200 45 -200 45 -200 45
4058773512.252 -5.6387534 6.7714586 -200 45 -200 45 -200 45
4059773628.9382 -5.6298776 6.8147726 -200 45 -200 45 -200 45
4060773745.6243 -5.6150012 6.8369527 -200 45 -200 45 -200 45
4061773862.3104 -5.6017189 6.8499289 -200 45 -200 45 -200 45
4062773978.9965 -5.5848541 6.8657932 -200 45 -200 45 -200 45
4063774095.6826 -5.5681448 6.832828 -200 45 -200 45 -200 45
4064774212.3687 -5.5505261 6.8060226 -200 45 -200 45 -200 45
4065774329.0548 -5.5352769 6.7589478 -200 45 -200 45 -200 45
4066774445.741 -5.5190067 6.7375479 -200 45 -200 45 -200 45
4067774562.4271 -5.504199 6.6649461 -200 45 -200 45 -200 45
4068774679.1132 -5.488625 6.6336846 -200 45 -200 45 -200 45
4069774795.7993 -5.4717588 6.539916 -200 45 -200 45 -200 45
4070774912.4854 -5.4589996 6.4596767 -200 45 -200 45 -200 45
4071775029.1715 -5.4472704 6.3419762 -200 45 -200 45 -200 45
4072775145.8576 -5.4370289 6.232964 -200 45 -200 45 -200 45
4073775262.5438 -5.4308834 6.1061563 -200 45 -200 45 -200 45
4074775379.2299 -5.4250064 5.9974022 -200 45 -200 45 -200 45
4075775495.916 -5.4192729 5.8744364 -200 45 -200 45 -200 45
4076775612.6021 -5.4216313 5.7643294 -200 45 -200 45 -200 45
4077775729.2882 -5.4222131 5.6541271 -200 45 -200 45 -200 45
4078775845.9743 -5.4232702 5.56633 -200 45 -200 45 -200 45
4079775962.6604 -5.4299126 5.4564557 -200 45 -200 45 -200 45
4080776079.3466 -5.4323759 5.3572812 -200 45 -200 45 -200 45
4081776196.0327 -5.4392323 5.2810202 -200 45 -200 45 -200 45
4082776312.7188 -5.4437652 5.2010655 -200 45 -200 45 -200 45
4083776429.4049 -5.4502034 5.1488824 -200 45 -200 45 -200 45
4084776546.091 -5.4616127 5.0752277 -200 45 -200 45 -200 45
4085776662.7771 -5.4682178 5.0437131 -200 45 -200 45 -200 45
4086776779.4632 -5.4759521 4.9921408 -200 45 -200 45 -200 45
4087776896.1494 -5.4820056 4.9558411 -200 45 -200 45 -200 45
4088777012.8355 -5.486588 4.9207807 -200 45 -200 45 -200 45
4089777129.5216 -5.4946318 4.879087 -200 45 -200 45 -200 45
4090777246.2077 -5.5044789 4.8776779 -200 45 -200 45 -200 45
4091777362.8938 -5.5105882 4.8410969 -200 45 -200 45 -200 45
4092777479.5799 -5.5188584 4.811902 -200 45 -200 45 -200 45
4093777596.266 -5.5261488 4.7954164 -200 45 -200 45 -200 45
4094777712.9522 -5.5298595 4.8093181 -200 45 -200 45 -200 45
4095777829.6383 -5.537467 4.7777333 -200 45 -200 45 -200 45
4096777946.3244 -5.5392771 4.7530365 -200 45 -200 45 -200 45
4097778063.0105 -5.5431523 4.7398791 -200 45 -200 45 -200 45
4098778179.6966 -5.5496335 4.7312403 -200 45 -200 45 -200 45
4099778296.3827 -5.5563679 4.7409554 -200 45 -200 45 -200 45
4100778413.0688 -5.5599766 4.7415519 -200 45 -200 45 -200 45
4101778529.755 -5.5641546 4.7123394 -200 45 -200 45 -200 45
4102778646.4411 -5.5683951 4.7306423 -200 45 -200 45 -200 45
4103778763.1272 -5.5747514 4.7092948 -200 45 -200 45 -200 45
4104778879.8133 -5.5744882 4.6810274 -200 45 -200 45 -200 45
4105778996.4994 -5.5813789 4.6906862 -200 45 -200 45 -200 45
4106779113.1855 -5.5839362 4.6965895 -200 45 -200 45 -200 45
4107779229.8716 -5.5894256 4.6986098 -200 45 -200 45 -200 45
4108779346.5578 -5.5956478 4.6936646 -200 45 -200 45 -200 45
4109779463.2439 -5.5986404 4.6884317 -200 45 -200 45 -200 45
4110779579.93 -5.6009102 4.6788621 -200 45 -200 45 -200 45
4111779696.6161 -5.6053462 4.6767268 -200 45 -200 45 -200 45
4112779813.3022 -5.6066961 4.6987615 -200 45 -200 45 -200 45
4113779929.9883 -5.612483 4.680305 -200 45 -200 45 -200 45
4114780046.6744 -5.6158185 4.6833901 -200 45 -200 45 -200 45
4115780163.3606 -5.6182637 4.6583147 -200 45 -200 45 -200 45
4116780280.0467 -5.6238217 4.6704092 -200 45 -200 45 -200 45
4117780396.7328 -5.6259131 4.6637588 -200 45 -200 45 -200 45
4118780513.4189 -5.6296544 4.6528072 -200 45 -200 45 -200 45
4119780630.105 -5.6346231 4.6674633 -200 45 -200 45 -200 45
4120780746.7911 -5.6377354 4.6577973 -200 45 -200 45 -200 45
4121780863.4772 -5.6418948 4.65803 -200 45 -200 45 -200 45
4122780980.1634 -5.6447525 4.6574993 -200 45 -200 45 -200 45
4123781096.8495 -5.6504169 4.6382976 -200 45 -200 45 -200 45
4124781213.5356 -5.6536493 4.656096 -200 45 -200 45 -200 45
4125781330.2217 -5.6575999 4.6620083 -200 45 -200 45 -200 45
4126781446.9078 -5.6599922 4.6521783 -200 45 -200 45 -200 45
4127781563.5939 -5.6622949 4.6513476 -200 45 -200 45 -200 45
4128781680.28 -5.6661634 4.6383743 -200 45 -200 45 -200 45
4129781796.9662 -5.6723876 4.6461916 -200 45 -200 45 -200 45
4130781913.6523 -5.6751227 4.6575904 -200 45 -200 45 -200 45
4131782030.3384 -5.6800556 4.6620131 -200 45 -200 45 -200 45
4132782147.0245 -5.6800094 4.6553826 -200 45 -200 45 -200 45
4133782263.7106 -5.6850638 4.6759543 -200 45 -200 45 -200 45
4134782380.3967 -5.6896939 4.6590576 -200 45 -200 45 -200 45
4135782497.0828 -5.6935215 4.6428366 -200 45 -200 45 -200 45
4136782613.769 -5.6954517 4.6582708 -200 45 -200 45 -200 45
4137782730.4551 -5.6989369 4.6534791 -200 45 -200 45 -200 45
4138782847.1412 -5.7027636 4.6626725 -200 45 -200 45 -200 45
4139782963.8273 -5.7063131 4.6589255 -200 45 -200 45 -200 45
4140783080.5134 -5.7122808 4.6426511 -200 45 -200 45 -200 45
4141783197.1995 -5.716876 4.6327276 -200 45 -200 45 -200 45
4142783313.8856 -5.7225204 4.6494536 -200 45 -200 45 -200 45
4143783430.5718 -5.7226944 4.6340814 -200 45 -200 45 -200 45
4144783547.2579 -5.728694 4.6446586 -200 45 -200 45 -200 45
4145783663.944 -5.7336211 4.6338129 -200 45 -200 45 -200 45
4146783780.6301 -5.7375455 4.6323099 -200 45 -200 45 -200 45
4147783897.3162 -5.7409601 4.6370368 -200 45 -200 45 -200 45
4148784014.0023 -5.7453942 4.6292272 -200 45 -200 45 -200 45
4149784130.6884 -5.7497272 4.6206694 -200 45 -200 45 -200 45
4150784247.3746 -5.7565265 4.636992 -200 45 -200 45 -200 45
4151784364.0607 -5.7614627 4.6353235 -200 45 -200 45 -200 45
4152784480.7468 -5.7651234 4.6331034 -200 45 -200 45 -200 45
4153784597.4329 -5.7705092 4.6261382 -200 45 -200 45 -200 45
4154784714.119 -5.7770596 4.63025 -200 45 -200 45 -200 45
4155784830.8051 -5.7829161 4.6221552 -200 45 -200 45 -200 45
4156784947.4912 -5.7890658 4.6269474 -200 45 -200 45 -200 45
4157785064.1774 -5.7914004 4.6262765 -200 45 -200 45 -200 45
4158785180.8635 -5.7993355 4.6219654 -200 45 -200 45 -200 45
4159785297.5496 -5.8066578 4.6270766 -200 45 -200 45 -200 45
4160785414.2357 -5.8091893 4.6272097 -200 45 -200 45 -200 45
4161785530.9218 -5.8143163 4.6246109 -200 45 -200 45 -200 45
4162785647.6079 -5.8265576 4.6292949 -200 45 -200 45 -200 45
4163785764.294 -5.8297491 4.6300378 -200 45 -200 45 -200 45
4164785880.9802 -5.8398457 4.6128259 -200 45 -200 45 -200 45
4165785997.6663 -5.8429966 4.6251459 -200 45 -200 45 -200 45
4166786114.3524 -5.853097 4.6190567 -200 45 -200 45 -200 45
4167786231.0385 -5.8627696 4.6198025 -200 45 -200 45 -200 45
4168786347.7246 -5.8743238 4.6163845 -200 45 -200 45 -200 45
4169786464.4107 -5.8823285 4.6229229 -200 45 -200 45 -200 45
4170786581.0968 -5.8949871 4.6358495 -200 45 -200 45 -200 45
4171786697.783 -5.9087687 4.6316152 -200 45 -200 45 -200 45
4172786814.4691 -5.9229236 4.6378145 -200 45 -200 45 -200 45
4173786931.1552 -5.9340281 4.6641197 -200 45 -200 45 -200 45
4174787047.8413 -5.9480467 4.6680007 -200 45 -200 45 -200 45
4175787164.5274 -5.9667916 4.6870079 -200 45 -200 45 -200 45
4176787281.2135 -5.9824314 4.7309484 -200 45 -200 45 -200 45
4177787397.8997 -6.0043216 4.7540355 -200 45 -200 45 -200 45
4178787514.5858 -6.0254188 4.8297901 -200 45 -200 45 -200 45
4179787631.2719 -6.0478368 4.9037547 -200 45 -200 45 -200 45
4180787747.958 -6.0744939 4.994205 -200 45 -200 45 -200 45
4181787864.6441 -6.098701 5.1268568 -200 45 -200 45 -200 45
4182787981.3302 -6.1215072 5.3040619 -200 45 -200 45 -200 45
4183788098.0163 -6.1409864 5.5140867 -200 45 -200 45 -200 45
4184788214.7025 -6.1595345 5.7470555 -200 45 -200 45 -200 45
4185788331.3886 -6.1732764 6.0392075 -200 45 -200 45 -200 45
4186788448.0747 -6.1809082 6.3578825 -200 45 -200 45 -200 45
4187788564.7608 -6.1760082 6.6467876 -200 45 -200 45 -200 45
4188788681.4469 -6.1672568 6.9695916 -200 45 -200 45 -200 45
4189788798.133 -6.1472383 7.2835011 -200 45 -200 45 -200 45
4190788914.8191 -6.1183572 7.5426574 -200 45 -200 45 -200 45
4191789031.5053 -6.086165 7.7642946 -200 45 -200 45 -200 45
4192789148.1914 -6.0515108 7.955318 -200 45 -200 45 -200 45
4193789264.8775 -6.0148258 8.08321 -200 45 -200 45 -200 45
4194789381.5636 -5.9745612 8.2082777 -200 45 -200 45 -200 45
4195789498.2497 -5.9355512 8.2619772 -200 45 -200 45 -200 45
4196789614.9358 -5.8957462 8.3040543 -200 45 -200 45 -200 45
4197789731.6219 -5.8610883 8.2878218 -200 45 -200 45 -200 45
4198789848.3081 -5.8250036 8.2655678 -200 45 -200 45 -200 45
4199789964.9942 -5.7951579 8.2295065 -200 45 -200 45 -200 45
4200790081.6803 -5.7687912 8.1631775 -200 45 -200 45 -200 45
4201790198.3664 -5.740963 8.0776329 -200 45 -200 45 -200 45
4202790315.0525 -5.7185321 7.9662051 -200 45 -200 45 -200 45
4203790431.7386 -5.6974778 7.8700352 -200 45 -200 45 -200 45
4204790548.4247 -5.6818781 7.7647719 -200 45 -200 45 -200 45
4205790665.1109 -5.6677251 7.6522331 -200 45 -200 45 -200 45
4206790781.797 -5.6532521 7.5428271 -200 45 -200 45 -200 45
4207790898.4831 -5.6426582 7.4328012 -200 45 -200 45 -200 45
4208791015.1692 -5.6329117 7.3226929 -200 45 -200 45 -200 45
4209791131.8553 -5.6255288 7.2215405 -200 45 -200 45 -200 45
4210791248.5414 -5.6192608 7.1013575 -200 45 -200 45 -200 45
4211791365.2275 -5.6148281 6.9951692 -200 45 -200 45 -200 45
4212791481.9137 -5.6115103 6.8925929 -200 45 -200 45 -200 45
4213791598.5998 -5.6111321 6.8015709 -200 45 -200 45 -200 45
4214791715.2859 -5.611249 6.6974835 -200 45 -200 45 -200 45
4215791831.972 -5.6140242 6.6024861 -200 45 -200 45 -200 45
4216791948.6581 -5.6141448 6.5298033 -200 45 -200 45 -200 45
4217792065.3442 -5.6169362 6.4563727 -200 45 -200 45 -200 45
4218792182.0303 -5.6188498 6.3903828 -200 45 -200 45 -200 45
4219792298.7165 -5.6260953 6.3309784 -200 45 -200 45 -200 45
4220792415.4026 -5.6301112 6.2603054 -200 45 -200 45 -200 45
4221792532.0887 -5.6374736 6.1896315 -200 45 -200 45 -200 45
4222792648.7748 -5.6407509 6.143703 -200 45 -200 45 -200 45
4223792765.4609 -5.6454673 6.0989981 -200 45 -200 45 -200 45
4224792882.147 -5.6509666 6.0627642 -200 45 -200 45 -200 45
4225792998.8331 -5.6571045 6.01647 -200 45 -200 45 -200 45
4226793115.5193 -5.6650224 5.9861097 -200 45 -200 45 -200 45
4227793232.2054 -5.668448 5.9682302 -200 45 -200 45 -200 45
4228793348.8915 -5.6740823 5.9441605 -200 45 -200 45 -200 45
4229793465.5776 -5.6823392 5.925981 -200 45 -200 45 -200 45
4230793582.2637 -5.6840491 5.9073195 -200 45 -200 45 -200 45
4231793698.9498 -5.691669 5.8781257 -200 45 -200 45 -200 45
4232793815.6359 -5.6976566 5.8558497 -200 45 -200 45 -200 45
4233793932.3221 -5.6999879 5.8457718 -200 45 -200 45 -200 45
4234794049.0082 -5.7079391 5.8508859 -200 45 -200 45 -200 45
4235794165.6943 -5.7096281 5.8492885 -200 45 -200 45 -200 45
4236794282.3804 -5.7158113 5.8227324 -200 45 -200 45 -200 45
4237794399.0665 -5.7192349 5.8296218 -200 45 -200 45 -200 45
4238794515.7526 -5.7242422 5.811862 -200 45 -200 45 -200 45
4239794632.4387 -5.7301049 5.8048754 -200 45 -200 45 -200 45
4240794749.1249 -5.7321477 5.8177667 -200 45 -200 45 -200 45
4241794865.811 -5.7350373 5.8093734 -200 45 -200 45 -200 45
4242794982.4971 -5.7408886 5.7991152 -200 45 -200 45 -200 45
4243795099.1832 -5.7449512 5.7878923 -200 45 -200 45 -200 45
4244795215.8693 -5.749383 5.7862501 -200 45 -200 45 -200 45
4245795332.5554 -5.7515726 5.8051038 -200 45 -200 45 -200 45
4246795449.2415 -5.7564979 5.7854118 -200 45 -200 45 -200 45
4247795565.9277 -5.7583628 5.7970371 -200 45 -200 45 -200 45
4248795682.6138 -5.7611217 5.799437 -200 45 -200 45 -200 45
4249795799.2999 -5.7661853 5.7918186 -200 45 -200 45 -200 45
4250795915.986 -5.7705493 5.7998095 -200 45 -200 45 -200 45
4251796032.6721 -5.7736797 5.7944622 -200 45 -200 45 -200 45
4252796149.3582 -5.777751 5.8043375 -200 45 -200 45 -200 45
4253796266.0443 -5.7787805 5.8027849 -200 45 -200 45 -200 45
4254796382.7305 -5.7833614 5.8080683 -200 45 -200 45 -200 45
4255796499.4166 -5.7852492 5.7870846 -200 45 -200 45 -200 45
4256796616.1027 -5.7926707 5.796783 -200 45 -200 45 -200 45
4257796732.7888 -5.7932181 5.8066878 -200 45 -200 45 -200 45
4258796849.4749 -5.7958016 5.818327 -200 45 -200 45 -200 45
4259796966.161 -5.8008575 5.8104358 -200 45 -200 45 -200 45
4260797082.8471 -5.8028951 5.8182883 -200 45 -200 45 -200 45
4261797199.5333 -5.8071413 5.8155107 -200 45 -200 45 -200 45
4262797316.2194 -5.8091249 5.8093863 -200 45 -200 45 -200 45
4263797432.9055 -5.8116655 5.8241477 -200 45 -200 45 -200 45
4264797549.5916 -5.8168697 5.8216915 -200 45 -200 45 -200 45
4265797666.2777 -5.8179135 5.8112593 -200 45 -200 45 -200 45
4266797782.9638 -5.8207092 5.8043799 -200 45 -200 45 -200 45
4267797899.6499 -5.8237782 5.8150692 -200 45 -200 45 -200 45
4268798016.3361 -5.827528 5.8235011 -200 45 -200 45 -200 45
4269798133.0222 -5.8301206 5.8261352 -200 45 -200 45 -200 45
4270798249.7083 -5.8340693 5.8223696 -200 45 -200 45 -200 45
4271798366.3944 -5.8337536 5.8364158 -200 45 -200 45 -200 45
4272798483.0805 -5.8365564 5.8312755 -200 45 -200 45 -200 45
4273798599.7666 -5.8426108 5.8270164 -200 45 -200 45 -200 45
4274798716.4527 -5.8484097 5.8397694 -200 45 -200 45 -200 45
4275798833.1389 -5.8480043 5.8357949 -200 45 -200 45 -200 45
4276798949.825 -5.8518519 5.8376961 -200 45 -200 45 -200 45
4277799066.5111 -5.8553767 5.8427739 -200 45 -200 45 -200 45
4278799183.1972 -5.8602653 5.8294153 -200 45 -200 45 -200 45
4279799299.8833 -5.8599033 5.8365097 -200 45 -200 45 -200 45
4280799416.5694 -5.8643222 5.8538971 -200 45 -200 45 -200 45
4281799533.2555 -5.8666515 5.850853 -200 45 -200 45 -200 45
4282799649.9417 -5.8698697 5.8589993 -200 45 -200 45 -200 45
4283799766.6278 -5.8730316 5.8688464 -200 45 -200 45 -200 45
4284799883.3139 -5.8788438 5.8725238 -200 45 -200 45 -200 45
4285800000 -5.8813176 5.8590002 -200 45 -200 45 -200 45
4286800116.6861 -5.8843551 5.8745651 -200 45 -200 45 -200 45
4287800233.3722 -5.8853974 5.873601 -200 45 -200 45 -200 45
4288800350.0583 -5.8904815 5.8652453 -200 45 -200 45 -200 45
4289800466.7445 -5.8943992 5.8741169 -200 45 -200 45 -200 45
4290800583.4306 -5.8988228 5.87463 -200 45 -200 45 -200 45
4291800700.1167 -5.9006739 5.8779683 -200 45 -200 45 -200 45
4292800816.8028 -5.9050841 5.8970885 -200 45 -200 45 -200 45
4293800933.4889 -5.9091668 5.8964953 -200 45 -200 45 -200 45
4294801050.175 -5.9119596 5.8892694 -200 45 -200 45 -200 45
4295801166.8611 -5.9134789 5.881783 -200 45 -200 45 -200 45
4296801283.5473 -5.9188819 5.8870287 -200 45 -200 45 -200 45
4297801400.2334 -5.9244146 5.899405 -200 45 -200 45 -200 45
4298801516.9195 -5.9285316 5.9007087 -200 45 -200 45 -200 45
4299801633.6056 -5.9336782 5.9069195 -200 45 -200 45 -200 45
4300801750.2917 -5.9381022 5.9062138 -200 45 -200 45 -200 45
4301801866.9778 -5.9432211 5.9256539 -200 45 -200 45 -200 45
4302801983.6639 -5.9455624 5.9070516 -200 45 -200 45 -200 45
4303802100.3501 -5.9506292 5.9190197 -200 45 -200 45 -200 45
4304802217.0362 -5.9566321 5.9094844 -200 45 -200 45 -200 45
4305802333.7223 -5.9617095 5.9330621 -200 45 -200 45 -200 45
4306802450.4084 -5.9696307 5.9298177 -200 45 -200 45 -200 45
4307802567.0945 -5.9736452 5.9318104 -200 45 -200 45 -200 45
4308802683.7806 -5.9794254 5.935842 -200 45 -200 45 -200 45
4309802800.4667 -5.9874344 5.948596 -200 45 -200 45 -200 45
4310802917.1529 -5.9907465 5.9505606 -200 45 -200 45 -200 45
4311803033.839 -6.0008259 5.9538021 -200 45 -200 45 -200 45
4312803150.5251 -6.0060048 5.9864025 -200 45 -200 45 -200 45
4313803267.2112 -6.0143857 5.9829941 -200 45 -200 45 -200 45
4314803383.8973 -6.0222807 5.9919519 -200 45 -200 45 -200 45
4315803500.5834 -6.0312653 6.025054 -200 45 -200 45 -200 45
4316803617.2695 -6.0422688 6.0393457 -200 45 -200 45 -200 45
4317803733.9557 -6.0501924 6.0685911 -200 45 -200 45 -200 45
4318803850.6418 -6.0580468 6.0862451 -200 45 -200 45 -200 45
4319803967.3279 -6.0678482 6.1271691 -200 45 -200 45 -200 45
4320804084.014 -6.0790606 6.1562262 -200 45 -200 45 -200 45
4321804200.7001 -6.0895805 6.1916375 -200 45 -200 45 -200 45
4322804317.3862 -6.1001153 6.2357082 -200 45 -200 45 -200 45
4323804434.0723 -6.1135764 6.2969828 -200 45 -200 45 -200 45
4324804550.7585 -6.123776 6.3566809 -200 45 -200 45 -200 45
4325804667.4446 -6.1367369 6.4167471 -200 45 -200 45 -200 45
4326804784.1307 -6.1503496 6.4791932 -200 45 -200 45 -200 45
4327804900.8168 -6.1630554 6.5699177 -200 45 -200 45 -200 45
4328805017.5029 -6.1753988 6.6942124 -200 45 -200 45 -200 45
4329805134.189 -6.1849713 6.8074932 -200 45 -200 45 -200 45
4330805250.8751 -6.1986566 6.9796028 -200 45 -200 45 -200 45
4331805367.5613 -6.2104754 7.1619215 -200 45 -200 45 -200 45
4332805484.2474 -6.2134585 7.3677449 -200 45 -200 45 -200 45
4333805600.9335 -6.2120681 7.5520897 -200 45 -200 45 -200 45
4334805717.6196 -6.2060432 7.7746215 -200 45 -200 45 -200 45
4335805834.3057 -6.1953688 7.9706388 -200 45 -200 45 -200 45
4336805950.9918 -6.1777306 8.1640854 -200 45 -200 45 -200 45
4337806067.6779 -6.1570153 8.3202419 -200 45 -200 45 -200 45
4338806184.3641 -6.1347151 8.4639463 -200 45 -200 45 -200 45
4339806301.0502 -6.1115198 8.5605669 -200 45 -200 45 -200 45
4340806417.7363 -6.0840716 8.6366348 -200 45 -200 45 -200 45
4341806534.4224 -6.0627451 8.6830854 -200 45 -200 45 -200 45
4342806651.1085 -6.0392623 8.6989765 -200 45 -200 45 -200 45
4343806767.7946 -6.0147738 8.7057352 -200 45 -200 45 -200 45
4344806884.4807 -5.9941173 8.7098322 -200 45 -200 45 -200 45
4345807001.1669 -5.9771276 8.704895 -200 45 -200 45 -200 45
4346807117.853 -5.9611049 8.6770687 -200 45 -200 45 -200 45
4347807234.5391 -5.9432969 8.6362133 -200 45 -200 45 -200 45
4348807351.2252 -5.9321413 8.5929184 -200 45 -200 45 -200 45
4349807467.9113 -5.9174647 8.5536547 -200 45 -200 45 -200 45
4350807584.5974 -5.9066772 8.4952383 -200 45 -200 45 -200 45
4351807701.2835 -5.898952 8.4451036 -200 45 -200 45 -200 45
4352807817.9697 -5.8912535 8.401969 -200 45 -200 45 -200 45
4353807934.6558 -5.8896751 8.3908529 -200 45 -200 45 -200 45
4354808051.3419 -5.8831086 8.3724384 -200 45 -200 45 -200 45
4355808168.028 -5.8742633 8.3506374 -200 45 -200 45 -200 45
4356808284.7141 -5.8686128 8.3169174 -200 45 -200 45 -200 45
4357808401.4002 -5.8580837 8.2797203 -200 45 -200 45 -200 45
4358808518.0863 -5.8539295 8.2762852 -200 45 -200 45 -200 45
4359808634.7725 -5.8463855 8.2372561 -200 45 -200 45 -200 45
4360808751.4586 -5.8381977 8.1988449 -200 45 -200 45 -200 45
4361808868.1447 -5.8297544 8.1467609 -200 45 -200 45 -200 45
4362808984.8308 -5.8215613 8.1131992 -200 45 -200 45 -200 45
4363809101.5169 -5.8151474 8.0613194 -200 45 -200 45 -200 45
4364809218.203 -5.8117352 7.9911757 -200 45 -200 45 -200 45
4365809334.8891 -5.8058667 7.9122357 -200 45 -200 45 -200 45
4366809451.5753 -5.798049 7.8603058 -200 45 -200 45 -200 45
4367809568.2614 -5.7978787 7.7950611 -200 45 -200 45 -200 45
4368809684.9475 -5.7975373 7.7304072 -200 45 -200 45 -200 45
4369809801.6336 -5.8006287 7.6657743 -200 45 -200 45 -200 45
4370809918.3197 -5.8023009 7.6188583 -200 45 -200 45 -200 45
4371810035.0058 -5.8027658 7.5475545 -200 45 -200 45 -200 45
4372810151.6919 -5.8073554 7.4911985 -200 45 -200 45 -200 45
4373810268.3781 -5.8088818 7.4295001 -200 45 -200 45 -200 45
4374810385.0642 -5.8148236 7.374383 -200 45 -200 45 -200 45
4375810501.7503 -5.817287 7.3223205 -200 45 -200 45 -200 45
4376810618.4364 -5.823957 7.2889843 -200 45 -200 45 -200 45
4377810735.1225 -5.8311038 7.2578835 -200 45 -200 45 -200 45
4378810851.8086 -5.8357234 7.2302418 -200 45 -200 45 -200 45
4379810968.4947 -5.8407564 7.1989536 -200 45 -200 45 -200 45
4380811085.1809 -5.8463249 7.1742644 -200 45 -200 45 -200 45
4381811201.867 -5.8510513 7.1504993 -200 45 -200 45 -200 45
4382811318.5531 -5.8592505 7.1157336 -200 45 -200 45 -200 45
4383811435.2392 -5.863678 7.1133623 -200 45 -200 45 -200 45
4384811551.9253 -5.8704038 7.1055198 -200 45 -200 45 -200 45
4385811668.6114 -5.8743644 7.0956945 -200 45 -200 45 -200 45
4386811785.2976 -5.880753 7.1017876 -200 45 -200 45 -200 45
4387811901.9837 -5.885036 7.0867581 -200 45 -200 45 -200 45
4388812018.6698 -5.8886218 7.0899248 -200 45 -200 45 -200 45
4389812135.3559 -5.8943505 7.0970454 -200 45 -200 45 -200 45
4390812252.042 -5.8967948 7.0836468 -200 45 -200 45 -200 45
4391812368.7281 -5.8996425 7.0873718 -200 45 -200 45 -200 45
4392812485.4142 -5.9044423 7.0778461 -200 45 -200 45 -200 45
4393812602.1004 -5.9111505 7.0553961 -200 45 -200 45 -200 45
4394812718.7865 -5.913826 7.0860209 -200 45 -200 45 -200 45
4395812835.4726 -5.9174294 7.0985117 -200 45 -200 45 -200 45
4396812952.1587 -5.9240465 7.0941248 -200 45 -200 45 -200 45
4397813068.8448 -5.9242902 7.0826745 -200 45 -200 45 -200 45
4398813185.5309 -5.9280472 7.1041889 -200 45 -200 45 -200 45
4399813302.217 -5.9325891 7.1017938 -200 45 -200 45 -200 45
4400813418.9032 -5.9352484 7.1261621 -200 45 -200 45 -200 45
4401813535.5893 -5.9391522 7.1155825 -200 45 -200 45 -200 45
4402813652.2754 -5.9421997 7.1379108 -200 45 -200 45 -200 45
4403813768.9615 -5.9423776 7.1458697 -200 45 -200 45 -200 45
4404813885.6476 -5.9452834 7.1453032 -200 45 -200 45 -200 45
4405814002.3337 -5.944459 7.1538749 -200 45 -200 45 -200 45
4406814119.0198 -5.9501538 7.1659808 -200 45 -200 45 -200 45
4407814235.706 -5.9475346 7.1665668 -200 45 -200 45 -200 45
4408814352.3921 -5.9508967 7.1506348 -200 45 -200 45 -200 45
4409814469.0782 -5.9525533 7.1634941 -200 45 -200 45 -200 45
4410814585.7643 -5.9574223 7.1789584 -200 45 -200 45 -200 45
4411814702.4504 -5.9609179 7.1791582 -200 45 -200 45 -200 45
4412814819.1365 -5.9607935 7.161356 -200 45 -200 45 -200 45
4413814935.8226 -5.9627151 7.1563344 -200 45 -200 45 -200 45
4414815052.5088 -5.9646358 7.1745529 -200 45 -200 45 -200 45
4415815169.1949 -5.9657254 7.1577559 -200 45 -200 45 -200 45
4416815285.881 -5.9673095 7.159945 -200 45 -200 45 -200 45
4417815402.5671 -5.9709263 7.1687388 -200 45 -200 45 -200 45
4418815519.2532 -5.9728684 7.1625924 -200 45 -200 45 -200 45
4419815635.9393 -5.9765587 7.1701961 -200 45 -200 45 -200 45
4420815752.6254 -5.9757519 7.163167 -200 45 -200 45 -200 45
4421815869.3116 -5.9816427 7.1548986 -200 45 -200 45 -200 45
4422815985.9977 -5.9840288 7.1537313 -200 45 -200 45 -200 45
4423816102.6838 -5.9868407 7.1501012 -200 45 -200 45 -200 45
4424816219.3699 -5.9915075 7.1581044 -200 45 -200 45 -200 45
4425816336.056 -5.9941258 7.1440263 -200 45 -200 45 -200 45
4426816452.7421 -5.9965162 7.1665993 -200 45 -200 45 -200 45
4427816569.4282 -5.999887 7.1575518 -200 45 -200 45 -200 45
4428816686.1144 -6.0051985 7.156219 -200 45 -200 45 -200 45
4429816802.8005 -6.0045013 7.1686463 -200 45 -200 45 -200 45
4430816919.4866 -6.007894 7.1720443 -200 45 -200 45 -200 45
4431817036.1727 -6.0108466 7.1694899 -200 45 -200 45 -200 45
4432817152.8588 -6.0109754 7.1765761 -200 45 -200 45 -200 45
4433817269.5449 -6.0180559 7.1796508 -200 45 -200 45 -200 45
4434817386.231 -6.0184026 7.1743088 -200 45 -200 45 -200 45
4435817502.9172 -6.0235958 7.188344 -200 45 -200 45 -200 45
4436817619.6033 -6.025907 7.1850901 -200 45 -200 45 -200 45
4437817736.2894 -6.0298014 7.1985583 -200 45 -200 45 -200 45
4438817852.9755 -6.0327301 7.1839809 -200 45 -200 45 -200 45
4439817969.6616 -6.0375166 7.1941247 -200 45 -200 45 -200 45
4440818086.3477 -6.0420489 7.2151642 -200 45 -200 45 -200 45
4441818203.0338 -6.0464878 7.2092552 -200 45 -200 45 -200 45
4442818319.72 -6.0512934 7.227293 -200 45 -200 45 -200 45
4443818436.4061 -6.0537496 7.228261 -200 45 -200 45 -200 45
4444818553.0922 -6.0584736 7.2235827 -200 45 -200 45 -200 45
4445818669.7783 -6.0612674 7.2476897 -200 45 -200 45 -200 45
4446818786.4644 -6.0647359 7.2563915 -200 45 -200 45 -200 45
4447818903.1505 -6.0663395 7.2717423 -200 45 -200 45 -200 45
4448819019.8366 -6.0699725 7.2852225 -200 45 -200 45 -200 45
4449819136.5228 -6.0704694 7.2786741 -200 45 -200 45 -200 45
4450819253.2089 -6.0733376 7.2879272 -200 45 -200 45 -200 45
4451819369.895 -6.0762429 7.2840786 -200 45 -200 45 -200 45
4452819486.5811 -6.0804191 7.2832613 -200 45 -200 45 -200 45
4453819603.2672 -6.0839911 7.2856483 -200 45 -200 45 -200 45
4454819719.9533 -6.0905333 7.2751265 -200 45 -200 45 -200 45
4455819836.6394 -6.0933003 7.2667408 -200 45 -200 45 -200 45
4456819953.3256 -6.099113 7.251009 -200 45 -200 45 -200 45
4457820070.0117 -6.1067314 7.2532454 -200 45 -200 45 -200 45
4458820186.6978 -6.110724 7.2456679 -200 45 -200 45 -200 45
4459820303.3839 -6.1216226 7.2281389 -200 45 -200 45 -200 45
4460820420.07 -6.12779 7.2155595 -200 45 -200 45 -200 45
4461820536.7561 -6.140254 7.2193155 -200 45 -200 45 -200 45
4462820653.4422 -6.1487017 7.212533 -200 45 -200 45 -200 45
4463820770.1284 -6.1608768 7.2190804 -200 45 -200 45 -200 45
4464820886.8145 -6.1747351 7.2251477 -200 45 -200 45 -200 45
4465821003.5006 -6.1881375 7.2427149 -200 45 -200 45 -200 45
4466821120.1867 -6.2059402 7.2493424 -200 45 -200 45 -200 45
4467821236.8728 -6.2226572 7.2772865 -200 45 -200 45 -200 45
4468821353.5589 -6.2413344 7.326272 -200 45 -200 45 -200 45
4469821470.245 -6.2593532 7.3883047 -200 45 -200 45 -200 45
4470821586.9312 -6.2815132 7.4715672 -200 45 -200 45 -200 45
4471821703.6173 -6.3011389 7.5894117 -200 45 -200 45 -200 45
4472821820.3034 -6.3191695 7.7194209 -200 45 -200 45 -200 45
4473821936.9895 -6.3330741 7.9103222 -200 45 -200 45 -200 45
4474822053.6756 -6.3490934 8.0825386 -200 45 -200 45 -200 45
4475822170.3617 -6.3560023 8.2923126 -200 45 -200 45 -200 45
4476822287.0478 -6.360003 8.5030947 -200 45 -200 45 -200 45
4477822403.734 -6.3571496 8.7147255 -200 45 -200 45 -200 45
4478822520.4201 -6.3521395 8.9426146 -200 45 -200 45 -200 45
4479822637.1062 -6.3390813 9.1439009 -200 45 -200 45 -200 45
4480822753.7923 -6.3240733 9.3287716 -200 45 -200 45 -200 45
4481822870.4784 -6.3073812 9.4809399 -200 45 -200 45 -200 45
4482822987.1645 -6.2880511 9.6236181 -200 45 -200 45 -200 45
4483823103.8506 -6.261435 9.715148 -200 45 -200 45 -200 45
4484823220.5368 -6.2400942 9.8017778 -200 45 -200 45 -200 45
4485823337.2229 -6.2191696 9.8495874 -200 45 -200 45 -200 45
4486823453.909 -6.1988301 9.9000387 -200 45 -200 45 -200 45
4487823570.5951 -6.1770153 9.9163561 -200 45 -200 45 -200 45
4488823687.2812 -6.1608329 9.9234819 -200 45 -200 45 -200 45
4489823803.9673 -6.1411643 9.9309998 -200 45 -200 45 -200 45
4490823920.6534 -6.1270442 9.9205475 -200 45 -200 45 -200 45
4491824037.3396 -6.1117406 9.9063692 -200 45 -200 45 -200 45
4492824154.0257 -6.0968065 9.8808203 -200 45 -200 45 -200 45
4493824270.7118 -6.0812082 9.8681107 -200 45 -200 45 -200 45
4494824387.3979 -6.0708241 9.8344116 -200 45 -200 45 -200 45
4495824504.084 -6.0583191 9.7899914 -200 45 -200 45 -200 45
4496824620.7701 -6.0504117 9.7422123 -200 45 -200 45 -200 45
4497824737.4562 -6.0389309 9.721118 -200 45 -200 45 -200 45
4498824854.1424 -6.0294204 9.661397 -200 45 -200 45 -200 45
4499824970.8285 -6.0238476 9.5887508 -200 45 -200 45 -200 45
4500825087.5146 -6.0169272 9.5435181 -200 45 -200 45 -200 45
4501825204.2007 -6.0143471 9.4943695 -200 45 -200 45 -200 45
4502825320.8868 -6.0119791 9.4211721 -200 45 -200 45 -200 45
4503825437.5729 -6.0124936 9.3763809 -200 45 -200 45 -200 45
4504825554.259 -6.0130153 9.3369856 -200 45 -200 45 -200 45
4505825670.9452 -6.0163431 9.2886782 -200 45 -200 45 -200 45
4506825787.6313 -6.0150304 9.2776852 -200 45 -200 45 -200 45
4507825904.3174 -6.0167627 9.2276297 -200 45 -200 45 -200 45
4508826021.0035 -6.0200148 9.2022247 -200 45 -200 45 -200 45
4509826137.6896 -6.0229659 9.1966009 -200 45 -200 45 -200 45
4510826254.3757 -6.0254984 9.1723356 -200 45 -200 45 -200 45
4511826371.0618 -6.0292988 9.165204 -200 45 -200 45 -200 45
4512826487.748 -6.0330634 9.178648 -200 45 -200 45 -200 45
4513826604.4341 -6.0365462 9.1538019 -200 45 -200 45 -200 45
4514826721.1202 -6.0382543 9.158658 -200 45 -200 45 -200 45
4515826837.8063 -6.0395622 9.1848536 -200 45 -200 45 -200 45
4516826954.4924 -6.0414038 9.2084923 -200 45 -200 45 -200 45
4517827071.1785 -6.0422044 9.2064219 -200 45 -200 45 -200 45
4518827187.8646 -6.044208 9.2276354 -200 45 -200 45 -200 45
4519827304.5508 -6.0438752 9.2716665 -200 45 -200 45 -200 45
4520827421.2369 -6.0424619 9.2888269 -200 45 -200 45 -200 45
4521827537.923 -6.0409179 9.3072748 -200 45 -200 45 -200 45
4522827654.6091 -6.03936 9.3278732 -200 45 -200 45 -200 45
4523827771.2952 -6.0332661 9.3296518 -200 45 -200 45 -200 45
4524827887.9813 -6.0310578 9.3507109 -200 45 -200 45 -200 45
4525828004.6674 -6.0249271 9.3720989 -200 45 -200 45 -200 45
4526828121.3536 -6.0216975 9.380805 -200 45 -200 45 -200 45
4527828238.0397 -6.0178266 9.3754539 -200 45 -200 45 -200 45
4528828354.7258 -6.0142403 9.3793936 -200 45 -200 45 -200 45
4529828471.4119 -6.0110803 9.3855505 -200 45 -200 45 -200 45
4530828588.098 -6.0034418 9.3769016 -200 45 -200 45 -200 45
4531828704.7841 -6.0001712 9.3432178 -200 45 -200 45 -200 45
4532828821.4702 -5.9952807 9.3221865 -200 45 -200 45 -200 45
4533828938.1564 -5.9896688 9.3138876 -200 45 -200 45 -200 45
4534829054.8425 -5.9867058 9.2900534 -200 45 -200 45 -200 45
4535829171.5286 -5.9835324 9.266366 -200 45 -200 45 -200 45
4536829288.2147 -5.9848895 9.2284937 -200 45 -200 45 -200 45
4537829404.9008 -5.9803586 9.1779995 -200 45 -200 45 -200 45
4538829521.5869 -5.9793038 9.1416397 -200 45 -200 45 -200 45
4539829638.273 -5.9836645 9.1119661 -200 45 -200 45 -200 45
4540829754.9592 -5.9857178 9.0467196 -200 45 -200 45 -200 45
4541829871.6453 -5.9914393 9.0468216 -200 45 -200 45 -200 45
4542829988.3314 -5.9960895 9.0306082 -200 45 -200 45 -200 45
4543830105.0175 -6.004302 9.0229502 -200 45 -200 45 -200 45
4544830221.7036 -6.0091262 9.0165119 -200 45 -200 45 -200 45
4545830338.3897 -6.014329 9.0222321 -200 45 -200 45 -200 45
4546830455.0758 -6.0189672 9.029707 -200 45 -200 45 -200 45
4547830571.762 -6.0236278 9.0588446 -200 45 -200 45 -200 45
4548830688.4481 -6.0225859 9.0784864 -200 45 -200 45 -200 45
4549830805.1342 -6.0254412 9.1000853 -200 45 -200 45 -200 45
4550830921.8203 -6.0274487 9.1557989 -200 45 -200 45 -200 45
4551831038.5064 -6.0262814 9.187746 -200 45 -200 45 -200 45
4552831155.1925 -6.0274668 9.2129154 -200 45 -200 45 -200 45
4553831271.8786 -6.02316 9.2357855 -200 45 -200 45 -200 45
4554831388.5648 -6.01928 9.2771482 -200 45 -200 45 -200 45
4555831505.2509 -6.0174084 9.2880068 -200 45 -200 45 -200 45
4556831621.937 -6.0149436 9.2941885 -200 45 -200 45 -200 45
4557831738.6231 -6.0105348 9.3031569 -200 45 -200 45 -200 45
4558831855.3092 -6.0053396 9.3320456 -200 45 -200 45 -200 45
4559831971.9953 -6.0019116 9.3474092 -200 45 -200 45 -200 45
4560832088.6814 -5.9941773 9.3390932 -200 45 -200 45 -200 45
4561832205.3676 -5.9912672 9.3511963 -200 45 -200 45 -200 45
4562832322.0537 -5.9882092 9.3359232 -200 45 -200 45 -200 45
4563832438.7398 -5.9842682 9.3325787 -200 45 -200 45 -200 45
4564832555.4259 -5.9757681 9.3161917 -200 45 -200 45 -200 45
4565832672.112 -5.9733601 9.3062878 -200 45 -200 45 -200 45
4566832788.7981 -5.9693761 9.2974463 -200 45 -200 45 -200 45
4567832905.4842 -5.9661193 9.2704182 -200 45 -200 45 -200 45
4568833022.1704 -5.9607115 9.2461691 -200 45 -200 45 -200 45
4569833138.8565 -5.9618821 9.225172 -200 45 -200 45 -200 45
4570833255.5426 -5.958147 9.1760178 -200 45 -200 45 -200 45
4571833372.2287 -5.9544473 9.1678982 -200 45 -200 45 -200 45
4572833488.9148 -5.9528823 9.1384954 -200 45 -200 45 -200 45
4573833605.6009 -5.9508557 9.1101284 -200 45 -200 45 -200 45
4574833722.287 -5.9521804 9.092432 -200 45 -200 45 -200 45
4575833838.9732 -5.9509516 9.0463228 -200 45 -200 45 -200 45
4576833955.6593 -5.9538088 9.011198 -200 45 -200 45 -200 45
4577834072.3454 -5.9515796 8.960063 -200 45 -200 45 -200 45
4578834189.0315 -5.9552612 8.9238453 -200 45 -200 45 -200 45
4579834305.7176 -5.9547553 8.8824549 -200 45 -200 45 -200 45
4580834422.4037 -5.9644022 8.8489313 -200 45 -200 45 -200 45
4581834539.0898 -5.96455 8.8499365 -200 45 -200 45 -200 45
4582834655.776 -5.9698753 8.8315496 -200 45 -200 45 -200 45
4583834772.4621 -5.9749479 8.7951326 -200 45 -200 45 -200 45
4584834889.1482 -5.9787769 8.7855806 -200 45 -200 45 -200 45
4585835005.8343 -5.9834118 8.7696304 -200 45 -200 45 -200 45
4586835122.5204 -5.9881206 8.7709398 -200 45 -200 45 -200 45
4587835239.2065 -5.9935093 8.754487 -200 45 -200 45 -200 45
4588835355.8926 -5.9954548 8.7494707 -200 45 -200 45 -200 45
4589835472.5788 -5.9967012 8.7371311 -200 45 -200 45 -200 45
4590835589.2649 -6.0022182 8.738822 -200 45 -200 45 -200 45
4591835705.951 -6.0066018 8.7449265 -200 45 -200 45 -200 45
4592835822.6371 -6.0124879 8.7591286 -200 45 -200 45 -200 45
4593835939.3232 -6.0117745 8.7417622 -200 45 -200 45 -200 45
4594836056.0093 -6.0159521 8.7622862 -200 45 -200 45 -200 45
4595836172.6954 -6.0196476 8.7656097 -200 45 -200 45 -200 45
4596836289.3816 -6.0249786 8.7581797 -200 45 -200 45 -200 45
4597836406.0677 -6.0291443 8.7565327 -200 45 -200 45 -200 45
4598836522.7538 -6.0317168 8.7842207 -200 45 -200 45 -200 45
4599836639.4399 -6.0347838 8.7620602 -200 45 -200 45 -200 45
4600836756.126 -6.0397172 8.7901182 -200 45 -200 45 -200 45
4601836872.8121 -6.0421138 8.7897387 -200 45 -200 45 -200 45
4602836989.4983 -6.0447507 8.7856321 -200 45 -200 45 -200 45
4603837106.1844 -6.0463929 8.7941494 -200 45 -200 45 -200 45
4604837222.8705 -6.0518017 8.8131142 -200 45 -200 45 -200 45
4605837339.5566 -6.0524793 8.823247 -200 45 -200 45 -200 45
4606837456.2427 -6.059371 8.8273029 -200 45 -200 45 -200 45
4607837572.9288 -6.060854 8.8426857 -200 45 -200 45 -200 45
4608837689.6149 -6.0650644 8.8530493 -200 45 -200 45 -200 45
4609837806.3011 -6.0664363 8.8560724 -200 45 -200 45 -200 45
4610837922.9872 -6.0681348 8.8638134 -200 45 -200 45 -200 45
4611838039.6733 -6.0687733 8.8740711 -200 45 -200 45 -200 45
4612838156.3594 -6.0707607 8.9000521 -200 45 -200 45 -200 45
4613838273.0455 -6.0737395 8.9317369 -200 45 -200 45 -200 45
4614838389.7316 -6.075573 8.939991 -200 45 -200 45 -200 45
4615838506.4177 -6.0765367 8.9535666 -200 45 -200 45 -200 45
4616838623.1039 -6.0751128 8.9644804 -200 45 -200 45 -200 45
4617838739.79 -6.075788 8.9813166 -200 45 -200 45 -200 45
4618838856.4761 -6.0768991 8.97686 -200 45 -200 45 -200 45
4619838973.1622 -6.0771408 8.9894838 -200 45 -200 45 -200 45
4620839089.8483 -6.0766554 9.0212307 -200 45 -200 45 -200 45
4621839206.5344 -6.0734792 9.0367851 -200 45 -200 45 -200 45
4622839323.2205 -6.07584 9.0509396 -200 45 -200 45 -200 45
4623839439.9067 -6.0791221 9.0662298 -200 45 -200 45 -200 45
4624839556.5928 -6.0751729 9.0643139 -200 45 -200 45 -200 45
4625839673.2789 -6.0737586 9.0594797 -200 45 -200 45 -200 45
4626839789.965 -6.0755916 9.0545959 -200 45 -200 45 -200 45
4627839906.6511 -6.0763235 9.0382166 -200 45 -200 45 -200 45
4628840023.3372 -6.0753965 9.051548 -200 45 -200 45 -200 45
4629840140.0233 -6.0745282 9.0501041 -200 45 -200 45 -200 45
4630840256.7095 -6.0734386 9.0431805 -200 45 -200 45 -200 45
4631840373.3956 -6.0775056 9.029748 -200 45 -200 45 -200 45
4632840490.0817 -6.0763936 9.037056 -200 45 -200 45 -200 45
4633840606.7678 -6.0790625 9.0337486 -200 45 -200 45 -200 45
4634840723.4539 -6.0819359 9.0257196 -200 45 -200 45 -200 45
4635840840.14 -6.0815125 9.0152941 -200 45 -200 45 -200 45
4636840956.8261 -6.0838914 9.0089216 -200 45 -200 45 -200 45
4637841073.5123 -6.0823741 9.0110626 -200 45 -200 45 -200 45
4638841190.1984 -6.0836544 9.0150738 -200 45 -200 45 -200 45
4639841306.8845 -6.0851016 9.0260115 -200 45 -200 45 -200 45
4640841423.5706 -6.0855169 9.0050278 -200 45 -200 45 -200 45
4641841540.2567 -6.0870976 9.0037804 -200 45 -200 45 -200 45
4642841656.9428 -6.0874395 8.9902582 -200 45 -200 45 -200 45
4643841773.6289 -6.0884809 8.9907017 -200 45 -200 45 -200 45
4644841890.3151 -6.0914025 8.9872017 -200 45 -200 45 -200 45
4645842007.0012 -6.0943184 8.9995327 -200 45 -200 45 -200 45
4646842123.6873 -6.0933113 8.9817019 -200 45 -200 45 -200 45
4647842240.3734 -6.0938096 8.9823151 -200 45 -200 45 -200 45
4648842357.0595 -6.0987234 8.9885626 -200 45 -200 45 -200 45
4649842473.7456 -6.0990033 8.9937906 -200 45 -200 45 -200 45
4650842590.4317 -6.099956 9.0038757 -200 45 -200 45 -200 45
4651842707.1179 -6.1008925 8.9952316 -200 45 -200 45 -200 45
4652842823.804 -6.1024365 8.9793558 -200 45 -200 45 -200 45
4653842940.4901 -6.1065474 8.9943066 -200 45 -200 45 -200 45
4654843057.1762 -6.1072693 8.9919186 -200 45 -200 45 -200 45
4655843173.8623 -6.110846 8.9975576 -200 45 -200 45 -200 45
4656843290.5484 -6.1094723 8.9981308 -200 45 -200 45 -200 45
4657843407.2345 -6.1113791 9.0042124 -200 45 -200 45 -200 45
4658843523.9207 -6.1136689 8.9896393 -200 45 -200 45 -200 45
4659843640.6068 -6.1154642 9.0011339 -200 45 -200 45 -200 45
4660843757.2929 -6.1128454 9.0001545 -200 45 -200 45 -200 45
4661843873.979 -6.1174417 9.0150137 -200 45 -200 45 -200 45
4662843990.6651 -6.1202226 9.0158377 -200 45 -200 45 -200 45
4663844107.3512 -6.1210275 9.0242081 -200 45 -200 45 -200 45
4664844224.0373 -6.1237516 9.0250759 -200 45 -200 45 -200 45
4665844340.7235 -6.1234403 9.0359573 -200 45 -200 45 -200 45
4666844457.4096 -6.1302295 9.0257215 -200 45 -200 45 -200 45
4667844574.0957 -6.1295767 9.0279617 -200 45 -200 45 -200 45
4668844690.7818 -6.1282139 9.0423508 -200 45 -200 45 -200 45
4669844807.4679 -6.130681 9.0474339 -200 45 -200 45 -200 45
4670844924.154 -6.1306491 9.0423479 -200 45 -200 45 -200 45
4671845040.8401 -6.1342692 9.0535269 -200 45 -200 45 -200 45
4672845157.5263 -6.135211 9.0435247 -200 45 -200 45 -200 45
4673845274.2124 -6.1372871 9.0585747 -200 45 -200 45 -200 45
4674845390.8985 -6.1401839 9.0574274 -200 45 -200 45 -200 45
4675845507.5846 -6.138361 9.043602 -200 45 -200 45 -200 45
4676845624.2707 -6.1429167 9.0742035 -200 45 -200 45 -200 45
4677845740.9568 -6.1427488 9.0605297 -200 45 -200 45 -200 45
4678845857.6429 -6.1438217 9.0805588 -200 45 -200 45 -200 45
4679845974.3291 -6.146668 9.0774565 -200 45 -200 45 -200 45
4680846091.0152 -6.1485858 9.1058254 -200 45 -200 45 -200 45
4681846207.7013 -6.1507168 9.1067085 -200 45 -200 45 -200 45
4682846324.3874 -6.1497488 9.1107569 -200 45 -200 45 -200 45
4683846441.0735 -6.1507339 9.1095362 -200 45 -200 45 -200 45
4684846557.7596 -6.1525321 9.1240892 -200 45 -200 45 -200 45
4685846674.4457 -6.153779 9.1230831 -200 45 -200 45 -200 45
4686846791.1319 -6.1560621 9.1245365 -200 45 -200 45 -200 45
4687846907.818 -6.156826 9.1380987 -200 45 -200 45 -200 45
4688847024.5041 -6.1623998 9.1366663 -200 45 -200 45 -200 45
4689847141.1902 -6.1595678 9.1378727 -200 45 -200 45 -200 45
4690847257.8763 -6.1618638 9.1599407 -200 45 -200 45 -200 45
4691847374.5624 -6.1638584 9.1485825 -200 45 -200 45 -200 45
4692847491.2485 -6.1634693 9.1869335 -200 45 -200 45 -200 45
4693847607.9347 -6.1657977 9.1668797 -200 45 -200 45 -200 45
4694847724.6208 -6.1700678 9.1867428 -200 45 -200 45 -200 45
4695847841.3069 -6.1684189 9.1888685 -200 45 -200 45 -200 45
4696847957.993 -6.1725631 9.2144279 -200 45 -200 45 -200 45
4697848074.6791 -6.1729693 9.2190552 -200 45 -200 45 -200 45
4698848191.3652 -6.1740003 9.1981153 -200 45 -200 45 -200 45
4699848308.0513 -6.175107 9.2065601 -200 45 -200 45 -200 45
4700848424.7375 -6.1774244 9.2341375 -200 45 -200 45 -200 45
4701848541.4236 -6.178771 9.2243786 -200 45 -200 45 -200 45
4702848658.1097 -6.1821227 9.2427826 -200 45 -200 45 -200 45
4703848774.7958 -6.180758 9.2503843 -200 45 -200 45 -200 45
4704848891.4819 -6.1851587 9.267354 -200 45 -200 45 -200 45
4705849008.168 -6.1861238 9.2760134 -200 45 -200 45 -200 45
4706849124.8541 -6.1870465 9.2771749 -200 45 -200 45 -200 45
4707849241.5403 -6.1861734 9.2739801 -200 45 -200 45 -200 45
4708849358.2264 -6.1874099 9.2874231 -200 45 -200 45 -200 45
4709849474.9125 -6.1885366 9.3013678 -200 45 -200 45 -200 45
4710849591.5986 -6.1916151 9.3263359 -200 45 -200 45 -200 45
4711849708.2847 -6.1937304 9.3252363 -200 45 -200 45 -200 45
4712849824.9708 -6.1975198 9.320776 -200 45 -200 45 -200 45
4713849941.6569 -6.1976261 9.3347807 -200 45 -200 45 -200 45
4714850058.3431 -6.198874 9.3468122 -200 45 -200 45 -200 45
4715850175.0292 -6.1998138 9.3596554 -200 45 -200 45 -200 45
4716850291.7153 -6.2021279 9.3467503 -200 45 -200 45 -200 45
4717850408.4014 -6.203897 9.3531771 -200 45 -200 45 -200 45
4718850525.0875 -6.2043104 9.3797712 -200 45 -200 45 -200 45
4719850641.7736 -6.2085271 9.3821373 -200 45 -200 45 -200 45
4720850758.4597 -6.2104588 9.3776665 -200 45 -200 45 -200 45
4721850875.1459 -6.210855 9.3916521 -200 45 -200 45 -200 45
4722850991.832 -6.2125511 9.39363 -200 45 -200 45 -200 45
4723851108.5181 -6.2144814 9.4011192 -200 45 -200 45 -200 45
4724851225.2042 -6.2161479 9.4132833 -200 45 -200 45 -200 45
4725851341.8903 -6.2193122 9.4184475 -200 45 -200 45 -200 45
4726851458.5764 -6.2184477 9.4186077 -200 45 -200 45 -200 45
4727851575.2625 -6.2197742 9.4191446 -200 45 -200 45 -200 45
4728851691.9487 -6.2226448 9.4356604 -200 45 -200 45 -200 45
4729851808.6348 -6.2250133 9.437851 -200 45 -200 45 -200 45
4730851925.3209 -6.2247276 9.4573135 -200 45 -200 45 -200 45
4731852042.007 -6.2257209 9.4436378 -200 45 -200 45 -200 45
4732852158.6931 -6.2269149 9.4662647 -200 45 -200 45 -200 45
4733852275.3792 -6.229321 9.4574099 -200 45 -200 45 -200 45
4734852392.0653 -6.2308407 9.4622869 -200 45 -200 45 -200 45
4735852508.7515 -6.2334719 9.4812584 -200 45 -200 45 -200 45
4736852625.4376 -6.2350264 9.4992952 -200 45 -200 45 -200 45
4737852742.1237 -6.2367916 9.4914312 -200 45 -200 45 -200 45
4738852858.8098 -6.2382131 9.4988031 -200 45 -200 45 -200 45
4739852975.4959 -6.2376256 9.5122261 -200 45 -200 45 -200 45
4740853092.182 -6.2389884 9.5120993 -200 45 -200 45 -200 45
4741853208.8681 -6.2409992 9.5122976 -200 45 -200 45 -200 45
4742853325.5543 -6.2453117 9.5239182 -200 45 -200 45 -200 45
4743853442.2404 -6.2473621 9.5207815 -200 45 -200 45 -200 45
4744853558.9265 -6.2503343 9.5397882 -200 45 -200 45 -200 45
4745853675.6126 -6.2516546 9.5477734 -200 45 -200 45 -200 45
4746853792.2987 -6.2533832 9.5476742 -200 45 -200 45 -200 45
4747853908.9848 -6.2538815 9.5524511 -200 45 -200 45 -200 45
4748854025.6709 -6.2543712 9.5567102 -200 45 -200 45 -200 45
4749854142.3571 -6.2580466 9.5523586 -200 45 -200 45 -200 45
4750854259.0432 -6.2591047 9.5784645 -200 45 -200 45 -200 45
4751854375.7293 -6.2608132 9.5932016 -200 45 -200 45 -200 45
4752854492.4154 -6.2643085 9.595788 -200 45 -200 45 -200 45
4753854609.1015 -6.2663317 9.6053286 -200 45 -200 45 -200 45
4754854725.7876 -6.2674565 9.6101112 -200 45 -200 45 -200 45
4755854842.4737 -6.2680707 9.6260986 -200 45 -200 45 -200 45
4756854959.1599 -6.2714744 9.6211166 -200 45 -200 45 -200 45
4757855075.846 -6.2710052 9.6431208 -200 45 -200 45 -200 45
4758855192.5321 -6.2724714 9.6441946 -200 45 -200 45 -200 45
4759855309.2182 -6.2752366 9.6545553 -200 45 -200 45 -200 45
4760855425.9043 -6.2749453 9.670413 -200 45 -200 45 -200 45
4761855542.5904 -6.274333 9.6903133 -200 45 -200 45 -200 45
4762855659.2765 -6.2771583 9.6900883 -200 45 -200 45 -200 45
4763855775.9627 -6.2765946 9.6944256 -200 45 -200 45 -200 45
4764855892.6488 -6.2757907 9.7042351 -200 45 -200 45 -200 45
4765856009.3349 -6.2776594 9.7140074 -200 45 -200 45 -200 45
4766856126.021 -6.2773862 9.7073746 -200 45 -200 45 -200 45
4767856242.7071 -6.2783608 9.731986 -200 45 -200 45 -200 45
4768856359.3932 -6.2816296 9.7389555 -200 45 -200 45 -200 45
4769856476.0793 -6.2804241 9.7318754 -200 45 -200 45 -200 45
4770856592.7655 -6.2800198 9.7463522 -200 45 -200 45 -200 45
4771856709.4516 -6.2816892 9.7412214 -200 45 -200 45 -200 45
4772856826.1377 -6.2828102 9.75105 -200 45 -200 45 -200 45
4773856942.8238 -6.2830586 9.7376156 -200 45 -200 45 -200 45
4774857059.5099 -6.2850013 9.7376194 -200 45 -200 45 -200 45
4775857176.196 -6.2857375 9.7595263 -200 45 -200 45 -200 45
4776857292.8821 -6.2867761 9.7749968 -200 45 -200 45 -200 45
4777857409.5683 -6.2879033 9.7578077 -200 45 -200 45 -200 45
4778857526.2544 -6.2875853 9.7586489 -200 45 -200 45 -200 45
4779857642.9405 -6.2903252 9.7548895 -200 45 -200 45 -200 45
4780857759.6266 -6.2924504 9.7696419 -200 45 -200 45 -200 45
4781857876.3127 -6.2931108 9.7729225 -200 45 -200 45 -200 45
4782857992.9988 -6.2940164 9.7836695 -200 45 -200 45 -200 45
4783858109.6849 -6.2967463 9.7656765 -200 45 -200 45 -200 45
4784858226.3711 -6.3009186 9.792469 -200 45 -200 45 -200 45
4785858343.0572 -6.2983494 9.7879362 -200 45 -200 45 -200 45
4786858459.7433 -6.2991219 9.7781572 -200 45 -200 45 -200 45
4787858576.4294 -6.3007879 9.7774944 -200 45 -200 45 -200 45
4788858693.1155 -6.3004756 9.7917376 -200 45 -200 45 -200 45
4789858809.8016 -6.3043456 9.7960787 -200 45 -200 45 -200 45
4790858926.4877 -6.3050466 9.8039989 -200 45 -200 45 -200 45
4791859043.1739 -6.3074975 9.8003693 -200 45 -200 45 -200 45
4792859159.86 -6.3058248 9.8155317 -200 45 -200 45 -200 45
4793859276.5461 -6.3082867 9.8196821 -200 45 -200 45 -200 45
4794859393.2322 -6.3092856 9.8151617 -200 45 -200 45 -200 45
4795859509.9183 -6.3105073 9.8306227 -200 45 -200 45 -200 45
4796859626.6044 -6.3122697 9.831501 -200 45 -200 45 -200 45
4797859743.2905 -6.3134246 9.8472576 -200 45 -200 45 -200 45
4798859859.9767 -6.3153996 9.8642511 -200 45 -200 45 -200 45
4799859976.6628 -6.3171782 9.8642998 -200 45 -200 45 -200 45
4800860093.3489 -6.3196712 9.8722858 -200 45 -200 45 -200 45
4801860210.035 -6.3195138 9.8766813 -200 45 -200 45 -200 45
4802860326.7211 -6.3228412 9.8946476 -200 45 -200 45 -200 45
4803860443.4072 -6.3241067 9.8928185 -200 45 -200 45 -200 45
4804860560.0933 -6.3259664 9.9041147 -200 45 -200 45 -200 45
4805860676.7795 -6.3277936 9.9146509 -200 45 -200 45 -200 45
4806860793.4656 -6.330956 9.9183588 -200 45 -200 45 -200 45
4807860910.1517 -6.3311248 9.9257364 -200 45 -200 45 -200 45
4808861026.8378 -6.3350635 9.9282846 -200 45 -200 45 -200 45
4809861143.5239 -6.3338957 9.9452505 -200 45 -200 45 -200 45
4810861260.21 -6.3358946 9.9366875 -200 45 -200 45 -200 45
4811861376.8961 -6.3358874 9.9671841 -200 45 -200 45 -200 45
4812861493.5823 -6.341105 9.9585667 -200 45 -200 45 -200 45
4813861610.2684 -6.3424554 9.969018 -200 45 -200 45 -200 45
4814861726.9545 -6.3423243 9.9885569 -200 45 -200 45 -200 45
4815861843.6406 -6.3473444 9.9945059 -200 45 -200 45 -200 45
4816861960.3267 -6.3502226 10.009328 -200 45 -200 45 -200 45
4817862077.0128 -6.351336 9.9921141 -200 45 -200 45 -200 45
4818862193.6989 -6.3521223 10.013972 -200 45 -200 45 -200 45
4819862310.3851 -6.3518705 10.037054 -200 45 -200 45 -200 45
4820862427.0712 -6.3581247 10.047813 -200 45 -200 45 -200 45
4821862543.7573 -6.361587 10.042527 -200 45 -200 45 -200 45
4822862660.4434 -6.3616934 10.071382 -200 45 -200 45 -200 45
4823862777.1295 -6.3653083 10.086917 -200 45 -200 45 -200 45
4824862893.8156 -6.3675032 10.100058 -200 45 -200 45 -200 45
4825863010.5018 -6.3692918 10.101602 -200 45 -200 45 -200 45
4826863127.1879 -6.3739352 10.115419 -200 45 -200 45 -200 45
4827863243.874 -6.3756289 10.140705 -200 45 -200 45 -200 45
4828863360.5601 -6.3758459 10.15788 -200 45 -200 45 -200 45
4829863477.2462 -6.3800883 10.175666 -200 45 -200 45 -200 45
4830863593.9323 -6.3838987 10.213444 -200 45 -200 45 -200 45
4831863710.6184 -6.3836074 10.210768 -200 45 -200 45 -200 45
4832863827.3046 -6.3888931 10.219463 -200 45 -200 45 -200 45
4833863943.9907 -6.3938842 10.247927 -200 45 -200 45 -200 45
4834864060.6768 -6.3926034 10.268373 -200 45 -200 45 -200 45
4835864177.3629 -6.3953633 10.309575 -200 45 -200 45 -200 45
4836864294.049 -6.3967433 10.342821 -200 45 -200 45 -200 45
4837864410.7351 -6.3951101 10.361997 -200 45 -200 45 -200 45
4838864527.4212 -6.3989153 10.391494 -200 45 -200 45 -200 45
4839864644.1074 -6.3974557 10.424779 -200 45 -200 45 -200 45
4840864760.7935 -6.398694 10.437642 -200 45 -200 45 -200 45
4841864877.4796 -6.3978 10.454417 -200 45 -200 45 -200 45
4842864994.1657 -6.3957815 10.480525 -200 45 -200 45 -200 45
4843865110.8518 -6.3906703 10.480724 -200 45 -200 45 -200 45
4844865227.5379 -6.3932314 10.497274 -200 45 -200 45 -200 45
4845865344.224 -6.3923216 10.499988 -200 45 -200 45 -200 45
4846865460.9102 -6.3900032 10.532615 -200 45 -200 45 -200 45
4847865577.5963 -6.3882885 10.531606 -200 45 -200 45 -200 45
4848865694.2824 -6.3884788 10.537499 -200 45 -200 45 -200 45
4849865810.9685 -6.389215 10.530596 -200 45 -200 45 -200 45
4850865927.6546 -6.3854885 10.541604 -200 45 -200 45 -200 45
4851866044.3407 -6.384645 10.522922 -200 45 -200 45 -200 45
4852866161.0268 -6.3865933 10.53514 -200 45 -200 45 -200 45
4853866277.713 -6.3871017 10.5174 -200 45 -200 45 -200 45
4854866394.3991 -6.3897576 10.544948 -200 45 -200 45 -200 45
4855866511.0852 -6.3914518 10.530997 -200 45 -200 45 -200 45
4856866627.7713 -6.3889213 10.531802 -200 45 -200 45 -200 45
4857866744.4574 -6.3929706 10.545578 -200 45 -200 45 -200 45
4858866861.1435 -6.3924503 10.536799 -200 45 -200 45 -200 45
4859866977.8296 -6.3926768 10.525752 -200 45 -200 45 -200 45
4860867094.5158 -6.3938189 10.516533 -200 45 -200 45 -200 45
4861867211.2019 -6.3955255 10.51931 -200 45 -200 45 -200 45
4862867327.888 -6.3968511 10.533878 -200 45 -200 45 -200 45
4863867444.5741 -6.398407 10.529735 -200 45 -200 45 -200 45
4864867561.2602 -6.3983984 10.510262 -200 45 -200 45 -200 45
4865867677.9463 -6.4003444 10.534253 -200 45 -200 45 -200 45
4866867794.6324 -6.4040542 10.533973 -200 45 -200 45 -200 45
4867867911.3186 -6.4049387 10.538654 -200 45 -200 45 -200 45
4868868028.0047 -6.4075699 10.526537 -200 45 -200 45 -200 45
4869868144.6908 -6.4049692 10.530657 -200 45 -200 45 -200 45
4870868261.3769 -6.408998 10.532139 -200 45 -200 45 -200 45
4871868378.063 -6.4124551 10.543086 -200 45 -200 45 -200 45
4872868494.7491 -6.411746 10.552229 -200 45 -200 45 -200 45
4873868611.4352 -6.4154711 10.550207 -200 45 -200 45 -200 45
4874868728.1214 -6.415966 10.543528 -200 45 -200 45 -200 45
4875868844.8075 -6.4162226 10.561997 -200 45 -200 45 -200 45
4876868961.4936 -6.4187412 10.577685 -200 45 -200 45 -200 45
4877869078.1797 -6.4201579 10.545364 -200 45 -200 45 -200 45
4878869194.8658 -6.4236159 10.563042 -200 45 -200 45 -200 45
4879869311.5519 -6.4239192 10.559303 -200 45 -200 45 -200 45
4880869428.238 -6.4252853 10.572014 -200 45 -200 45 -200 45
4881869544.9242 -6.4283414 10.564805 -200 45 -200 45 -200 45
4882869661.6103 -6.4280634 10.566444 -200 45 -200 45 -200 45
4883869778.2964 -6.4294901 10.569351 -200 45 -200 45 -200 45
4884869894.9825 -6.4307885 10.58372 -200 45 -200 45 -200 45
4885870011.6686 -6.4320827 10.582117 -200 45 -200 45 -200 45
4886870128.3547 -6.4365029 10.596361 -200 45 -200 45 -200 45
4887870245.0408 -6.4351377 10.593966 -200 45 -200 45 -200 45
4888870361.727 -6.4387975 10.595765 -200 45 -200 45 -200 45
4889870478.4131 -6.4410396 10.605354 -200 45 -200 45 -200 45
4890870595.0992 -6.4392481 10.596425 -200 45 -200 45 -200 45
4891870711.7853 -6.4425135 10.619248 -200 45 -200 45 -200 45
4892870828.4714 -6.4434118 10.608696 -200 45 -200 45 -200 45
4893870945.1575 -6.4495053 10.630592 -200 45 -200 45 -200 45
4894871061.8436 -6.4491868 10.631192 -200 45 -200 45 -200 45
4895871178.5298 -6.4521527 10.616668 -200 45 -200 45 -200 45
4896871295.2159 -6.4510798 10.649876 -200 45 -200 45 -200 45
4897871411.902 -6.4556546 10.640528 -200 45 -200 45 -200 45
4898871528.5881 -6.4548731 10.646854 -200 45 -200 45 -200 45
4899871645.2742 -6.4574208 10.644223 -200 45 -200 45 -200 45
4900871761.9603 -6.4617972 10.662044 -200 45 -200 45 -200 45
4901871878.6464 -6.4615479 10.676422 -200 45 -200 45 -200 45
4902871995.3326 -6.4632144 10.664455 -200 45 -200 45 -200 45
4903872112.0187 -6.4669647 10.652292 -200 45 -200 45 -200 45
4904872228.7048 -6.4677882 10.676958 -200 45 -200 45 -200 45
4905872345.3909 -6.4680853 10.658187 -200 45 -200 45 -200 45
4906872462.077 -6.4703569 10.664089 -200 45 -200 45 -200 45
4907872578.7631 -6.474256 10.687912 -200 45 -200 45 -200 45
4908872695.4492 -6.47505 10.683502 -200 45 -200 45 -200 45
4909872812.1354 -6.4783068 10.699226 -200 45 -200 45 -200 45
4910872928.8215 -6.4799809 10.706016 -200 45 -200 45 -200 45
4911873045.5076 -6.4804029 10.720695 -200 45 -200 45 -200 45
4912873162.1937 -6.4841924 10.719939 -200 45 -200 45 -200 45
4913873278.8798 -6.4866982 10.727923 -200 45 -200 45 -200 45
4914873395.5659 -6.4865966 10.726872 -200 45 -200 45 -200 45
4915873512.252 -6.4873366 10.747434 -200 45 -200 45 -200 45
4916873628.9382 -6.4923139 10.757371 -200 45 -200 45 -200 45
4917873745.6243 -6.4959364 10.765815 -200 45 -200 45 -200 45
4918873862.3104 -6.498836 10.783319 -200 45 -200 45 -200 45
4919873978.9965 -6.5002661 10.793687 -200 45 -200 45 -200 45
4920874095.6826 -6.5032558 10.799351 -200 45 -200 45 -200 45
4921874212.3687 -6.5075111 10.782299 -200 45 -200 45 -200 45
4922874329.0548 -6.5074635 10.80351 -200 45 -200 45 -200 45
4923874445.741 -6.511126 10.826681 -200 45 -200 45 -200 45
4924874562.4271 -6.513936 10.823229 -200 45 -200 45 -200 45
4925874679.1132 -6.5201468 10.860373 -200 45 -200 45 -200 45
4926874795.7993 -6.5214562 10.860844 -200 45 -200 45 -200 45
4927874912.4854 -6.5254335 10.855635 -200 45 -200 45 -200 45
4928875029.1715 -6.5292592 10.861723 -200 45 -200 45 -200 45
4929875145.8576 -6.5334239 10.879951 -200 45 -200 45 -200 45
4930875262.5438 -6.5381327 10.891101 -200 45 -200 45 -200 45
4931875379.2299 -6.5371189 10.901924 -200 45 -200 45 -200 45
4932875495.916 -6.5450454 10.908618 -200 45 -200 45 -200 45
4933875612.6021 -6.5513058 10.936226 -200 45 -200 45 -200 45
4934875729.2882 -6.5537562 10.967937 -200 45 -200 45 -200 45
4935875845.9743 -6.5577345 10.981544 -200 45 -200 45 -200 45
4936875962.6604 -6.5647063 10.996213 -200 45 -200 45 -200 45
4937876079.3466 -6.5687933 11.017782 -200 45 -200 45 -200 45
4938876196.0327 -6.5741701 11.039933 -200 45 -200 45 -200 45
4939876312.7188 -6.5808744 11.059785 -200 45 -200 45 -200 45
4940876429.4049 -6.5864196 11.099834 -200 45 -200 45 -200 45
4941876546.091 -6.5925517 11.162624 -200 45 -200 45 -200 45
4942876662.7771 -6.5958934 11.186721 -200 45 -200 45 -200 45
4943876779.4632 -6.6015263 11.200509 -200 45 -200 45 -200 45
4944876896.1494 -6.6059837 11.271197 -200 45 -200 45 -200 45
4945877012.8355 -6.6090879 11.305707 -200 45 -200 45 -200 45
4946877129.5216 -6.6162066 11.343727 -200 45 -200 45 -200 45
4947877246.2077 -6.6187634 11.40148 -200 45 -200 45 -200 45
4948877362.8938 -6.6249962 11.482985 -200 45 -200 45 -200 45
4949877479.5799 -6.6215801 11.542534 -200 45 -200 45 -200 45
4950877596.266 -6.6230412 11.598404 -200 45 -200 45 -200 45
4951877712.9522 -6.6227679 11.680296 -200 45 -200 45 -200 45
4952877829.6383 -6.6238093 11.738967 -200 45 -200 45 -200 45
4953877946.3244 -6.6241207 11.808188 -200 45 -200 45 -200 45
4954878063.0105 -6.6243696 11.861794 -200 45 -200 45 -200 45
4955878179.6966 -6.6212564 11.925513 -200 45 -200 45 -200 45
4956878296.3827 -6.6132202 12.010379 -200 45 -200 45 -200 45
4957878413.0688 -6.6089525 12.045038 -200 45 -200 45 -200 45
4958878529.755 -6.600749 12.102379 -200 45 -200 45 -200 45
4959878646.4411 -6.5970316 12.14052 -200 45 -200 45 -200 45
4960878763.1272 -6.5880904 12.154133 -200 45 -200 45 -200 45
4961878879.8133 -6.5816255 12.173739 -200 45 -200 45 -200 45
4962878996.4994 -6.57373 12.213483 -200 45 -200 45 -200 45
4963879113.1855 -6.56988 12.21303 -200 45 -200 45 -200 45
4964879229.8716 -6.5619349 12.216159 -200 45 -200 45 -200 45
4965879346.5578 -6.559617 12.231704 -200 45 -200 45 -200 45
4966879463.2439 -6.5527439 12.222455 -200 45 -200 45 -200 45
4967879579.93 -6.550528 12.23481 -200 45 -200 45 -200 45
4968879696.6161 -6.5460014 12.228737 -200 45 -200 45 -200 45
4969879813.3022 -6.5426478 12.216986 -200 45 -200 45 -200 45
4970879929.9883 -6.5365992 12.218243 -200 45 -200 45 -200 45
4971880046.6744 -6.5350389 12.199118 -200 45 -200 45 -200 45
4972880163.3606 -6.5323377 12.201447 -200 45 -200 45 -200 45
4973880280.0467 -6.5310493 12.194205 -200 45 -200 45 -200 45
4974880396.7328 -6.5283012 12.185361 -200 45 -200 45 -200 45
4975880513.4189 -6.5284357 12.153584 -200 45 -200 45 -200 45
4976880630.105 -6.52565 12.142671 -200 45 -200 45 -200 45
4977880746.7911 -6.5280561 12.136999 -200 45 -200 45 -200 45
4978880863.4772 -6.5283351 12.135124 -200 45 -200 45 -200 45
4979880980.1634 -6.5282955 12.098119 -200 45 -200 45 -200 45
4980881096.8495 -6.5329332 12.126251 -200 45 -200 45 -200 45
4981881213.5356 -6.5328255 12.113343 -200 45 -200 45 -200 45
4982881330.2217 -6.5338397 12.099263 -200 45 -200 45 -200 45
4983881446.9078 -6.5380559 12.109786 -200 45 -200 45 -200 45
4984881563.5939 -6.5416594 12.10418 -200 45 -200 45 -200 45
4985881680.28 -6.5445848 12.122071 -200 45 -200 45 -200 45
4986881796.9662 -6.5465579 12.122955 -200 45 -200 45 -200 45
4987881913.6523 -6.5482597 12.14724 -200 45 -200 45 -200 45
4988882030.3384 -6.5498209 12.163516 -200 45 -200 45 -200 45
4989882147.0245 -6.5493908 12.187709 -200 45 -200 45 -200 45
4990882263.7106 -6.5507245 12.236192 -200 45 -200 45 -200 45
4991882380.3967 -6.5489955 12.250524 -200 45 -200 45 -200 45
4992882497.0828 -6.5472903 12.286835 -200 45 -200 45 -200 45
4993882613.769 -6.5440712 12.299107 -200 45 -200 45 -200 45
4994882730.4551 -6.5416369 12.330018 -200 45 -200 45 -200 45
4995882847.1412 -6.5389414 12.348557 -200 45 -200 45 -200 45
4996882963.8273 -6.5363445 12.347329 -200 45 -200 45 -200 45
4997883080.5134 -6.5287862 12.380781 -200 45 -200 45 -200 45
4998883197.1995 -6.5275421 12.383671 -200 45 -200 45 -200 45
4999883313.8856 -6.5256853 12.37 -200 45 -200 45 -200 45
5000883430.5718 -6.5188127 12.377205 -200 45 -200 45 -200 45
5001883547.2579 -6.5148559 12.36945 -200 45 -200 45 -200 45
5002883663.944 -6.5105476 12.367399 -200 45 -200 45 -200 45
5003883780.6301 -6.5083222 12.358095 -200 45 -200 45 -200 45
5004883897.3162 -6.505693 12.345577 -200 45 -200 45 -200 45
5005884014.0023 -6.5011897 12.330349 -200 45 -200 45 -200 45
5006884130.6884 -6.4996371 12.311778 -200 45 -200 45 -200 45
5007884247.3746 -6.4966402 12.298018 -200 45 -200 45 -200 45
5008884364.0607 -6.4953041 12.254585 -200 45 -200 45 -200 45
5009884480.7468 -6.4920168 12.245684 -200 45 -200 45 -200 45
5010884597.4329 -6.4929399 12.23325 -200 45 -200 45 -200 45
5011884714.119 -6.492095 12.213467 -200 45 -200 45 -200 45
5012884830.8051 -6.494772 12.183849 -200 45 -200 45 -200 45
5013884947.4912 -6.4933953 12.166979 -200 45 -200 45 -200 45
5014885064.1774 -6.491487 12.142097 -200 45 -200 45 -200 45
5015885180.8635 -6.4892979 12.131387 -200 45 -200 45 -200 45
5016885297.5496 -6.4921455 12.090574 -200 45 -200 45 -200 45
5017885414.2357 -6.4923353 12.07355 -200 45 -200 45 -200 45
5018885530.9218 -6.4959679 12.08235 -200 45 -200 45 -200 45
5019885647.6079 -6.4982285 12.044421 -200 45 -200 45 -200 45
5020885764.294 -6.4991102 12.048285 -200 45 -200 45 -200 45
5021885880.9802 -6.4995441 12.044081 -200 45 -200 45 -200 45
5022885997.6663 -6.5021782 12.006772 -200 45 -200 45 -200 45
5023886114.3524 -6.5052981 12.007359 -200 45 -200 45 -200 45
5024886231.0385 -6.5055213 11.993709 -200 45 -200 45 -200 45
5025886347.7246 -6.5082493 11.991052 -200 45 -200 45 -200 45
5026886464.4107 -6.5106349 11.986725 -200 45 -200 45 -200 45
5027886581.0968 -6.5142603 11.981695 -200 45 -200 45 -200 45
5028886697.783 -6.5155058 11.990326 -200 45 -200 45 -200 45
5029886814.4691 -6.5183969 11.982583 -200 45 -200 45 -200 45
5030886931.1552 -6.5172958 11.956098 -200 45 -200 45 -200 45
5031887047.8413 -6.522963 11.967702 -200 45 -200 45 -200 45
5032887164.5274 -6.5240245 11.966717 -200 45 -200 45 -200 45
5033887281.2135 -6.5283675 11.946732 -200 45 -200 45 -200 45
5034887397.8997 -6.5306907 11.984096 -200 45 -200 45 -200 45
5035887514.5858 -6.5317836 11.982224 -200 45 -200 45 -200 45
5036887631.2719 -6.5348673 11.986861 -200 45 -200 45 -200 45
5037887747.958 -6.5355496 11.987551 -200 45 -200 45 -200 45
5038887864.6441 -6.5386386 11.980316 -200 45 -200 45 -200 45
5039887981.3302 -6.5406618 12.001224 -200 45 -200 45 -200 45
5040888098.0163 -6.5449586 12.000662 -200 45 -200 45 -200 45
5041888214.7025 -6.5467277 11.988054 -200 45 -200 45 -200 45
5042888331.3886 -6.5481796 11.999619 -200 45 -200 45 -200 45
5043888448.0747 -6.5493474 12.007239 -200 45 -200 45 -200 45
5044888564.7608 -6.5512257 12.010289 -200 45 -200 45 -200 45
5045888681.4469 -6.5557442 11.99719 -200 45 -200 45 -200 45
5046888798.133 -6.5584073 12.021925 -200 45 -200 45 -200 45
5047888914.8191 -6.5606503 12.038327 -200 45 -200 45 -200 45
5048889031.5053 -6.5643969 12.047956 -200 45 -200 45 -200 45
5049889148.1914 -6.5674367 12.070177 -200 45 -200 45 -200 45
5050889264.8775 -6.5693107 12.075762 -200 45 -200 45 -200 45
5051889381.5636 -6.5720134 12.096978 -200 45 -200 45 -200 45
5052889498.2497 -6.5730286 12.137569 -200 45 -200 45 -200 45
5053889614.9358 -6.5750303 12.150231 -200 45 -200 45 -200 45
5054889731.6219 -6.5775299 12.159192 -200 45 -200 45 -200 45
5055889848.3081 -6.576849 12.179279 -200 45 -200 45 -200 45
5056889964.9942 -6.5747423 12.192894 -200 45 -200 45 -200 45
5057890081.6803 -6.5776682 12.203451 -200 45 -200 45 -200 45
5058890198.3664 -6.5742717 12.234591 -200 45 -200 45 -200 45
5059890315.0525 -6.5748553 12.240125 -200 45 -200 45 -200 45
5060890431.7386 -6.5734839 12.261483 -200 45 -200 45 -200 45
5061890548.4247 -6.5758543 12.251256 -200 45 -200 45 -200 45
5062890665.1109 -6.5758934 12.264331 -200 45 -200 45 -200 45
5063890781.797 -6.57269 12.290041 -200 45 -200 45 -200 45
5064890898.4831 -6.5785041 12.270792 -200 45 -200 45 -200 45
5065891015.1692 -6.5753007 12.280743 -200 45 -200 45 -200 45
5066891131.8553 -6.5771804 12.274752 -200 45 -200 45 -200 45
5067891248.5414 -6.5757465 12.299187 -200 45 -200 45 -200 45
5068891365.2275 -6.5777421 12.272962 -200 45 -200 45 -200 45
5069891481.9137 -6.5753245 12.27709 -200 45 -200 45 -200 45
5070891598.5998 -6.5785298 12.270289 -200 45 -200 45 -200 45
5071891715.2859 -6.578135 12.270707 -200 45 -200 45 -200 45
5072891831.972 -6.580936 12.291539 -200 45 -200 45 -200 45
5073891948.6581 -6.5797219 12.276197 -200 45 -200 45 -200 45
5074892065.3442 -6.580698 12.267163 -200 45 -200 45 -200 45
5075892182.0303 -6.5854192 12.267796 -200 45 -200 45 -200 45
5076892298.7165 -6.5835266 12.261304 -200 45 -200 45 -200 45
5077892415.4026 -6.5853543 12.248706 -200 45 -200 45 -200 45
5078892532.0887 -6.5853438 12.251162 -200 45 -200 45 -200 45
5079892648.7748 -6.5900388 12.269986 -200 45 -200 45 -200 45
5080892765.4609 -6.5917902 12.250006 -200 45 -200 45 -200 45
5081892882.147 -6.5939355 12.263218 -200 45 -200 45 -200 45
5082892998.8331 -6.5960169 12.255026 -200 45 -200 45 -200 45
5083893115.5193 -6.5984492 12.261471 -200 45 -200 45 -200 45
5084893232.2054 -6.599318 12.255439 -200 45 -200 45 -200 45
5085893348.8915 -6.6029997 12.266113 -200 45 -200 45 -200 45
5086893465.5776 -6.6050649 12.268655 -200 45 -200 45 -200 45
5087893582.2637 -6.607234 12.252192 -200 45 -200 45 -200 45
5088893698.9498 -6.6102037 12.257266 -200 45 -200 45 -200 45
5089893815.6359 -6.6112957 12.249674 -200 45 -200 45 -200 45
5090893932.3221 -6.6106639 12.283549 -200 45 -200 45 -200 45
5091894049.0082 -6.6152768 12.272443 -200 45 -200 45 -200 45
5092894165.6943 -6.6204424 12.269372 -200 45 -200 45 -200 45
5093894282.3804 -6.6172824 12.269614 -200 45 -200 45 -200 45
5094894399.0665 -6.6206989 12.282187 -200 45 -200 45 -200 45
5095894515.7526 -6.6218967 12.27212 -200 45 -200 45 -200 45
5096894632.4387 -6.624311 12.275297 -200 45 -200 45 -200 45
5097894749.1249 -6.6285582 12.282982 -200 45 -200 45 -200 45
5098894865.811 -6.6310554 12.296227 -200 45 -200 45 -200 45
5099894982.4971 -6.6297646 12.279774 -200 45 -200 45 -200 45
5100895099.1832 -6.6322408 12.293188 -200 45 -200 45 -200 45
5101895215.8693 -6.6310191 12.276278 -200 45 -200 45 -200 45
5102895332.5554 -6.6377234 12.28773 -200 45 -200 45 -200 45
5103895449.2415 -6.6380744 12.267811 -200 45 -200 45 -200 45
5104895565.9277 -6.6395307 12.287313 -200 45 -200 45 -200 45
5105895682.6138 -6.6425538 12.266657 -200 45 -200 45 -200 45
5106895799.2999 -6.6445923 12.288028 -200 45 -200 45 -200 45
5107895915.986 -6.6447101 12.304094 -200 45 -200 45 -200 45
5108896032.6721 -6.6474867 12.299979 -200 45 -200 45 -200 45
5109896149.3582 -6.6486588 12.279479 -200 45 -200 45 -200 45
5110896266.0443 -6.651185 12.279436 -200 45 -200 45 -200 45
5111896382.7305 -6.6532917 12.27725 -200 45 -200 45 -200 45
5112896499.4166 -6.6578236 12.266142 -200 45 -200 45 -200 45
5113896616.1027 -6.6574917 12.276641 -200 45 -200 45 -200 45
5114896732.7888 -6.6606193 12.282598 -200 45 -200 45 -200 45
5115896849.4749 -6.6618915 12.264078 -200 45 -200 45 -200 45
5116896966.161 -6.6654229 12.271251 -200 45 -200 45 -200 45
5117897082.8471 -6.6679115 12.257874 -200 45 -200 45 -200 45
5118897199.5333 -6.6714711 12.265517 -200 45 -200 45 -200 45
5119897316.2194 -6.6735649 12.270075 -200 45 -200 45 -200 45
5120897432.9055 -6.6744447 12.261952 -200 45 -200 45 -200 45
5121897549.5916 -6.676497 12.259922 -200 45 -200 45 -200 45
5122897666.2777 -6.6788058 12.260313 -200 45 -200 45 -200 45
5123897782.9638 -6.6812682 12.2685 -200 45 -200 45 -200 45
5124897899.6499 -6.6830273 12.26416 -200 45 -200 45 -200 45
5125898016.3361 -6.6889348 12.260005 -200 45 -200 45 -200 45
5126898133.0222 -6.6913691 12.260861 -200 45 -200 45 -200 45
5127898249.7083 -6.6917567 12.256024 -200 45 -200 45 -200 45
5128898366.3944 -6.694242 12.259107 -200 45 -200 45 -200 45
5129898483.0805 -6.6995382 12.276258 -200 45 -200 45 -200 45
5130898599.7666 -6.7014861 12.253699 -200 45 -200 45 -200 45
5131898716.4527 -6.7042689 12.26885 -200 45 -200 45 -200 45
5132898833.1389 -6.7061634 12.25626 -200 45 -200 45 -200 45
5133898949.825 -6.7096286 12.261089 -200 45 -200 45 -200 45
5134899066.5111 -6.7115264 12.267809 -200 45 -200 45 -200 45
5135899183.1972 -6.7122893 12.257953 -200 45 -200 45 -200 45
5136899299.8833 -6.7142973 12.252331 -200 45 -200 45 -200 45
5137899416.5694 -6.7152872 12.253645 -200 45 -200 45 -200 45
5138899533.2555 -6.7190781 12.252913 -200 45 -200 45 -200 45
5139899649.9417 -6.7254381 12.256646 -200 45 -200 45 -200 45
5140899766.6278 -6.7269402 12.265399 -200 45 -200 45 -200 45
5141899883.3139 -6.7298508 12.254824 -200 45 -200 45 -200 45
5142900000 -6.733912 12.244476 -200 45 -200 45 -200 45
5143900116.6861 -6.7376714 12.266896 -200 45 -200 45 -200 45
5144900233.3722 -6.738749 12.277807 -200 45 -200 45 -200 45
5145900350.0583 -6.7457943 12.283401 -200 45 -200 45 -200 45
5146900466.7445 -6.7471991 12.273773 -200 45 -200 45 -200 45
5147900583.4306 -6.7495995 12.275914 -200 45 -200 45 -200 45
5148900700.1167 -6.7545094 12.290013 -200 45 -200 45 -200 45
5149900816.8028 -6.7575107 12.280006 -200 45 -200 45 -200 45
5150900933.4889 -6.7626729 12.298671 -200 45 -200 45 -200 45
5151901050.175 -6.7660408 12.286813 -200 45 -200 45 -200 45
5152901166.8611 -6.7669725 12.295091 -200 45 -200 45 -200 45
5153901283.5473 -6.7752795 12.307788 -200 45 -200 45 -200 45
5154901400.2334 -6.7800097 12.304698 -200 45 -200 45 -200 45
5155901516.9195 -6.7838511 12.30897 -200 45 -200 45 -200 45
5156901633.6056 -6.7880807 12.320768 -200 45 -200 45 -200 45
5157901750.2917 -6.7930169 12.328935 -200 45 -200 45 -200 45
5158901866.9778 -6.7979536 12.330267 -200 45 -200 45 -200 45
5159901983.6639 -6.8051581 12.359016 -200 45 -200 45 -200 45
5160902100.3501 -6.8057742 12.350299 -200 45 -200 45 -200 45
5161902217.0362 -6.815423 12.362073 -200 45 -200 45 -200 45
5162902333.7223 -6.8189073 12.388932 -200 45 -200 45 -200 45
5163902450.4084 -6.8272395 12.414232 -200 45 -200 45 -200 45
5164902567.0945 -6.8337731 12.428148 -200 45 -200 45 -200 45
5165902683.7806 -6.8352652 12.460434 -200 45 -200 45 -200 45
5166902800.4667 -6.843792 12.485403 -200 45 -200 45 -200 45
5167902917.1529 -6.8473778 12.519474 -200 45 -200 45 -200 45
5168903033.839 -6.8558335 12.550378 -200 45 -200 45 -200 45
5169903150.5251 -6.8581834 12.604608 -200 45 -200 45 -200 45
5170903267.2112 -6.8642616 12.618269 -200 45 -200 45 -200 45
5171903383.8973 -6.8676553 12.691654 -200 45 -200 45 -200 45
5172903500.5834 -6.8679862 12.73874 -200 45 -200 45 -200 45
5173903617.2695 -6.8669515 12.761868 -200 45 -200 45 -200 45
5174903733.9557 -6.8666978 12.806686 -200 45 -200 45 -200 45
5175903850.6418 -6.868629 12.846085 -200 45 -200 45 -200 45
5176903967.3279 -6.8666115 12.886045 -200 45 -200 45 -200 45
5177904084.014 -6.8656368 12.893279 -200 45 -200 45 -200 45
5178904200.7001 -6.8650126 12.923101 -200 45 -200 45 -200 45
5179904317.3862 -6.86238 12.945596 -200 45 -200 45 -200 45
5180904434.0723 -6.8605781 12.949036 -200 45 -200 45 -200 45
5181904550.7585 -6.862226 12.951942 -200 45 -200 45 -200 45
5182904667.4446 -6.8587408 12.952064 -200 45 -200 45 -200 45
5183904784.1307 -6.8610635 12.958417 -200 45 -200 45 -200 45
5184904900.8168 -6.8600345 12.969774 -200 45 -200 45 -200 45
5185905017.5029 -6.863071 12.959497 -200 45 -200 45 -200 45
5186905134.189 -6.861444 12.942455 -200 45 -200 45 -200 45
5187905250.8751 -6.8626285 12.938791 -200 45 -200 45 -200 45
5188905367.5613 -6.8648696 12.943933 -200 45 -200 45 -200 45
5189905484.2474 -6.8672853 12.934743 -200 45 -200 45 -200 45
5190905600.9335 -6.8670659 12.922932 -200 45 -200 45 -200 45
5191905717.6196 -6.868618 12.907354 -200 45 -200 45 -200 45
5192905834.3057 -6.8753076 12.899012 -200 45 -200 45 -200 45
5193905950.9918 -6.8748221 12.88202 -200 45 -200 45 -200 45
5194906067.6779 -6.8808751 12.863336 -200 45 -200 45 -200 45
5195906184.3641 -6.8834438 12.870393 -200 45 -200 45 -200 45
5196906301.0502 -6.8874626 12.853027 -200 45 -200 45 -200 45
5197906417.7363 -6.8931408 12.818349 -200 45 -200 45 -200 45
5198906534.4224 -6.8984189 12.842716 -200 45 -200 45 -200 45
5199906651.1085 -6.9021811 12.81163 -200 45 -200 45 -200 45
5200906767.7946 -6.9071722 12.822216 -200 45 -200 45 -200 45
5201906884.4807 -6.9109135 12.788681 -200 45 -200 45 -200 45
5202907001.1669 -6.9189882 12.780774 -200 45 -200 45 -200 45
5203907117.853 -6.9270144 12.770572 -200 45 -200 45 -200 45
5204907234.5391 -6.9324636 12.78649 -200 45 -200 45 -200 45
5205907351.2252 -6.9369006 12.768258 -200 45 -200 45 -200 45
5206907467.9113 -6.9439597 12.762707 -200 45 -200 45 -200 45
5207907584.5974 -6.9525962 12.757432 -200 45 -200 45 -200 45
5208907701.2835 -6.9604273 12.746552 -200 45 -200 45 -200 45
5209907817.9697 -6.966536 12.733346 -200 45 -200 45 -200 45
5210907934.6558 -6.9750848 12.729551 -200 45 -200 45 -200 45
5211908051.3419 -6.9826002 12.725469 -200 45 -200 45 -200 45
5212908168.028 -6.9901862 12.722421 -200 45 -200 45 -200 45
5213908284.7141 -7.0013638 12.726051 -200 45 -200 45 -200 45
5214908401.4002 -7.0076308 12.700606 -200 45 -200 45 -200 45
5215908518.0863 -7.017786 12.691376 -200 45 -200 45 -200 45
5216908634.7725 -7.0299835 12.681432 -200 45 -200 45 -200 45
5217908751.4586 -7.0399604 12.662039 -200 45 -200 45 -200 45
5218908868.1447 -7.0529737 12.647351 -200 45 -200 45 -200 45
5219908984.8308 -7.0667057 12.617092 -200 45 -200 45 -200 45
5220909101.5169 -7.0792193 12.638469 -200 45 -200 45 -200 45
5221909218.203 -7.1000104 12.627681 -200 45 -200 45 -200 45
5222909334.8891 -7.1155753 12.616547 -200 45 -200 45 -200 45
5223909451.5753 -7.1355472 12.63813 -200 45 -200 45 -200 45
5224909568.2614 -7.1542964 12.640055 -200 45 -200 45 -200 45
5225909684.9475 -7.1749334 12.649253 -200 45 -200 45 -200 45
5226909801.6336 -7.197145 12.69673 -200 45 -200 45 -200 45
5227909918.3197 -7.2227035 12.73508 -200 45 -200 45 -200 45
5228910035.0058 -7.2500229 12.801076 -200 45 -200 45 -200 45
5229910151.6919 -7.27912 12.904158 -200 45 -200 45 -200 45
5230910268.3781 -7.3079209 12.994434 -200 45 -200 45 -200 45
5231910385.0642 -7.3369198 13.118893 -200 45 -200 45 -200 45
5232910501.7503 -7.3602796 13.336686 -200 45 -200 45 -200 45
5233910618.4364 -7.3874116 13.501379 -200 45 -200 45 -200 45
5234910735.1225 -7.4077053 13.748543 -200 45 -200 45 -200 45
5235910851.8086 -7.4261994 13.997495 -200 45 -200 45 -200 45
5236910968.4947 -7.440671 14.288461 -200 45 -200 45 -200 45
5237911085.1809 -7.4508996 14.579285 -200 45 -200 45 -200 45
5238911201.867 -7.4477282 14.881047 -200 45 -200 45 -200 45
5239911318.5531 -7.440877 15.167395 -200 45 -200 45 -200 45
5240911435.2392 -7.4281497 15.433793 -200 45 -200 45 -200 45
5241911551.9253 -7.4105144 15.694948 -200 45 -200 45 -200 45
5242911668.6114 -7.3897476 15.921156 -200 45 -200 45 -200 45
5243911785.2976 -7.3673382 16.094019 -200 45 -200 45 -200 45
5244911901.9837 -7.3402481 16.267893 -200 45 -200 45 -200 45
5245912018.6698 -7.3181152 16.403225 -200 45 -200 45 -200 45
5246912135.3559 -7.2906461 16.523697 -200 45 -200 45 -200 45
5247912252.042 -7.2696671 16.618002 -200 45 -200 45 -200 45
5248912368.7281 -7.2428308 16.669762 -200 45 -200 45 -200 45
5249912485.4142 -7.2239933 16.740881 -200 45 -200 45 -200 45
5250912602.1004 -7.2010236 16.763544 -200 45 -200 45 -200 45
5251912718.7865 -7.183146 16.7924 -200 45 -200 45 -200 45
5252912835.4726 -7.164062 16.83333 -200 45 -200 45 -200 45
5253912952.1587 -7.1456766 16.864649 -200 45 -200 45 -200 45
5254913068.8448 -7.1307144 16.881931 -200 45 -200 45 -200 45
5255913185.5309 -7.1141815 16.885622 -200 45 -200 45 -200 45
5256913302.217 -7.1013069 16.86722 -200 45 -200 45 -200 45
5257913418.9032 -7.0916324 16.873072 -200 45 -200 45 -200 45
5258913535.5893 -7.0779438 16.883047 -200 45 -200 45 -200 45
5259913652.2754 -7.0658503 16.890266 -200 45 -200 45 -200 45
5260913768.9615 -7.0576334 16.889933 -200 45 -200 45 -200 45
5261913885.6476 -7.052804 16.917009 -200 45 -200 45 -200 45
5262914002.3337 -7.0436125 16.92194 -200 45 -200 45 -200 45
5263914119.0198 -7.0407777 16.936434 -200 45 -200 45 -200 45
5264914235.706 -7.0322022 16.940842 -200 45 -200 45 -200 45
5265914352.3921 -7.0250583 16.979856 -200 45 -200 45 -200 45
5266914469.0782 -7.0172439 17.019369 -200 45 -200 45 -200 45
5267914585.7643 -7.0095792 17.058395 -200 45 -200 45 -200 45
5268914702.4504 -6.9979429 17.10051 -200 45 -200 45 -200 45
5269914819.1365 -6.9863291 17.144758 -200 45 -200 45 -200 45
5270914935.8226 -6.973186 17.184629 -200 45 -200 45 -200 45
5271915052.5088 -6.9627934 17.219152 -200 45 -200 45 -200 45
5272915169.1949 -6.9485936 17.242695 -200 45 -200 45 -200 45
5273915285.881 -6.9337149 17.237495 -200 45 -200 45 -200 45
5274915402.5671 -6.9205065 17.242548 -200 45 -200 45 -200 45
5275915519.2532 -6.9050837 17.224518 -200 45 -200 45 -200 45
5276915635.9393 -6.8908215 17.246775 -200 45 -200 45 -200 45
5277915752.6254 -6.8769965 17.188343 -200 45 -200 45 -200 45
5278915869.3116 -6.8641858 17.167772 -200 45 -200 45 -200 45
5279915985.9977 -6.8547053 17.118847 -200 45 -200 45 -200 45
5280916102.6838 -6.8439593 17.082855 -200 45 -200 45 -200 45
5281916219.3699 -6.8350692 17.015911 -200 45 -200 45 -200 45
5282916336.056 -6.8248353 16.976709 -200 45 -200 45 -200 45
5283916452.7421 -6.8215828 16.932259 -200 45 -200 45 -200 45
5284916569.4282 -6.8180795 16.904671 -200 45 -200 45 -200 45
5285916686.1144 -6.8121262 16.860447 -200 45 -200 45 -200 45
5286916802.8005 -6.8090448 16.802319 -200 45 -200 45 -200 45
5287916919.4866 -6.8075552 16.768581 -200 45 -200 45 -200 45
5288917036.1727 -6.8064375 16.743088 -200 45 -200 45 -200 45
5289917152.8588 -6.8006415 16.71574 -200 45 -200 45 -200 45
5290917269.5449 -6.7957191 16.679472 -200 45 -200 45 -200 45
5291917386.231 -6.7915034 16.678032 -200 45 -200 45 -200 45
5292917502.9172 -6.7883396 16.645622 -200 45 -200 45 -200 45
5293917619.6033 -6.7841444 16.628664 -200 45 -200 45 -200 45
5294917736.2894 -6.7791872 16.595219 -200 45 -200 45 -200 45
5295917852.9755 -6.7749996 16.567217 -200 45 -200 45 -200 45
5296917969.6616 -6.7731438 16.526583 -200 45 -200 45 -200 45
5297918086.3477 -6.7692666 16.489044 -200 45 -200 45 -200 45
5298918203.0338 -6.7630854 16.449959 -200 45 -200 45 -200 45
5299918319.72 -6.764905 16.420467 -200 45 -200 45 -200 45
5300918436.4061 -6.7619829 16.38192 -200 45 -200 45 -200 45
5301918553.0922 -6.7607493 16.365404 -200 45 -200 45 -200 45
5302918669.7783 -6.7557335 16.315619 -200 45 -200 45 -200 45
5303918786.4644 -6.752079 16.282864 -200 45 -200 45 -200 45
5304918903.1505 -6.7546024 16.234493 -200 45 -200 45 -200 45
5305919019.8366 -6.7498155 16.191889 -200 45 -200 45 -200 45
5306919136.5228 -6.7527575 16.149616 -200 45 -200 45 -200 45
5307919253.2089 -6.7484026 16.116762 -200 45 -200 45 -200 45
5308919369.895 -6.7484488 16.084845 -200 45 -200 45 -200 45
5309919486.5811 -6.7492714 16.045774 -200 45 -200 45 -200 45
5310919603.2672 -6.7491484 16.011549 -200 45 -200 45 -200 45
5311919719.9533 -6.7495394 15.951769 -200 45 -200 45 -200 45
5312919836.6394 -6.7507739 15.908679 -200 45 -200 45 -200 45
5313919953.3256 -6.7516561 15.861993 -200 45 -200 45 -200 45
5314920070.0117 -6.7511554 15.805118 -200 45 -200 45 -200 45
5315920186.6978 -6.752769 15.761097 -200 45 -200 45 -200 45
5316920303.3839 -6.7538176 15.728428 -200 45 -200 45 -200 45
5317920420.07 -6.7549605 15.692997 -200 45 -200 45 -200 45
5318920536.7561 -6.7557139 15.647022 -200 45 -200 45 -200 45
5319920653.4422 -6.7613363 15.578885 -200 45 -200 45 -200 45
5320920770.1284 -6.7642021 15.534393 -200 45 -200 45 -200 45
5321920886.8145 -6.7644563 15.480296 -200 45 -200 45 -200 45
5322921003.5006 -6.7710457 15.428527 -200 45 -200 45 -200 45
5323921120.1867 -6.77635 15.379503 -200 45 -200 45 -200 45
5324921236.8728 -6.7811561 15.33217 -200 45 -200 45 -200 45
5325921353.5589 -6.7883062 15.273213 -200 45 -200 45 -200 45
5326921470.245 -6.7926774 15.226881 -200 45 -200 45 -200 45
5327921586.9312 -6.8024755 15.148347 -200 45 -200 45 -200 45
5328921703.6173 -6.8109713 15.103956 -200 45 -200 45 -200 45
5329921820.3034 -6.8132982 15.063869 -200 45 -200 45 -200 45
5330921936.9895 -6.8240523 14.988051 -200 45 -200 45 -200 45
5331922053.6756 -6.8340235 14.945586 -200 45 -200 45 -200 45
5332922170.3617 -6.8464351 14.878234 -200 45 -200 45 -200 45
5333922287.0478 -6.8570695 14.840517 -200 45 -200 45 -200 45
5334922403.734 -6.8685813 14.797153 -200 45 -200 45 -200 45
5335922520.4201 -6.8851895 14.745001 -200 45 -200 45 -200 45
5336922637.1062 -6.8976383 14.696304 -200 45 -200 45 -200 45
5337922753.7923 -6.9128046 14.64569 -200 45 -200 45 -200 45
5338922870.4784 -6.9280581 14.63918 -200 45 -200 45 -200 45
5339922987.1645 -6.9453897 14.613788 -200 45 -200 45 -200 45
5340923103.8506 -6.9647045 14.579114 -200 45 -200 45 -200 45
5341923220.5368 -6.9794679 14.583281 -200 45 -200 45 -200 45
5342923337.2229 -6.9991984 14.559412 -200 45 -200 45 -200 45
5343923453.909 -7.0200858 14.547429 -200 45 -200 45 -200 45
5344923570.5951 -7.0380745 14.55736 -200 45 -200 45 -200 45
5345923687.2812 -7.0578032 14.563244 -200 45 -200 45 -200 45
5346923803.9673 -7.0780587 14.591048 -200 45 -200 45 -200 45
5347923920.6534 -7.099781 14.608342 -200 45 -200 45 -200 45
5348924037.3396 -7.122498 14.63851 -200 45 -200 45 -200 45
5349924154.0257 -7.1458974 14.677923 -200 45 -200 45 -200 45
5350924270.7118 -7.1697769 14.754464 -200 45 -200 45 -200 45
5351924387.3979 -7.1916394 14.771503 -200 45 -200 45 -200 45
5352924504.084 -7.2179017 14.839408 -200 45 -200 45 -200 45
5353924620.7701 -7.2374763 14.928338 -200 45 -200 45 -200 45
5354924737.4562 -7.2687106 15.038149 -200 45 -200 45 -200 45
5355924854.1424 -7.2956738 15.129569 -200 45 -200 45 -200 45
5356924970.8285 -7.3226671 15.294672 -200 45 -200 45 -200 45
5357925087.5146 -7.3478851 15.440995 -200 45 -200 45 -200 45
5358925204.2007 -7.371274 15.606286 -200 45 -200 45 -200 45
5359925320.8868 -7.3964186 15.823373 -200 45 -200 45 -200 45
5360925437.5729 -7.4180384 16.059155 -200 45 -200 45 -200 45
5361925554.259 -7.4340978 16.304438 -200 45 -200 45 -200 45
5362925670.9452 -7.450109 16.585794 -200 45 -200 45 -200 45
5363925787.6313 -7.4582391 16.899635 -200 45 -200 45 -200 45
5364925904.3174 -7.4612651 17.205675 -200 45 -200 45 -200 45
5365926021.0035 -7.4598608 17.517153 -200 45 -200 45 -200 45
5366926137.6896 -7.4522491 17.82139 -200 45 -200 45 -200 45
5367926254.3757 -7.4392471 18.111685 -200 45 -200 45 -200 45
5368926371.0618 -7.4242573 18.381607 -200 45 -200 45 -200 45
5369926487.748 -7.3990817 18.641525 -200 45 -200 45 -200 45
5370926604.4341 -7.3767591 18.878895 -200 45 -200 45 -200 45
5371926721.1202 -7.3473248 19.053328 -200 45 -200 45 -200 45
5372926837.8063 -7.3215685 19.283195 -200 45 -200 45 -200 45
5373926954.4924 -7.2880564 19.422871 -200 45 -200 45 -200 45
5374927071.1785 -7.2563801 19.568419 -200 45 -200 45 -200 45
5375927187.8646 -7.2289066 19.683807 -200 45 -200 45 -200 45
5376927304.5508 -7.1966586 19.783638 -200 45 -200 45 -200 45
5377927421.2369 -7.1624866 19.876217 -200 45 -200 45 -200 45
5378927537.923 -7.1356711 19.91979 -200 45 -200 45 -200 45
5379927654.6091 -7.1091776 19.97459 -200 45 -200 45 -200 45
5380927771.2952 -7.0787063 19.994684 -200 45 -200 45 -200 45
5381927887.9813 -7.0560079 19.999218 -200 45 -200 45 -200 45
5382928004.6674 -7.0278621 20.013111 -200 45 -200 45 -200 45
5383928121.3536 -7.0036254 20.021225 -200 45 -200 45 -200 45
5384928238.0397 -6.9809346 20.023319 -200 45 -200 45 -200 45
5385928354.7258 -6.9606571 20.023453 -200 45 -200 45 -200 45
5386928471.4119 -6.9375873 20.003233 -200 45 -200 45 -200 45
5387928588.098 -6.9190297 19.99036 -200 45 -200 45 -200 45
5388928704.7841 -6.9007211 19.952709 -200 45 -200 45 -200 45
5389928821.4702 -6.8756261 19.928291 -200 45 -200 45 -200 45
5390928938.1564 -6.8604674 19.902283 -200 45 -200 45 -200 45
5391929054.8425 -6.8411155 19.841881 -200 45 -200 45 -200 45
5392929171.5286 -6.8296037 19.79875 -200 45 -200 45 -200 45
5393929288.2147 -6.8115864 19.769314 -200 45 -200 45 -200 45
5394929404.9008 -6.7983818 19.716063 -200 45 -200 45 -200 45
5395929521.5869 -6.7838588 19.673454 -200 45 -200 45 -200 45
5396929638.273 -6.776217 19.62105 -200 45 -200 45 -200 45
5397929754.9592 -6.7635908 19.588577 -200 45 -200 45 -200 45
5398929871.6453 -6.7513366 19.524313 -200 45 -200 45 -200 45
5399929988.3314 -6.7389545 19.486795 -200 45 -200 45 -200 45
5400930105.0175 -6.7295032 19.41729 -200 45 -200 45 -200 45
5401930221.7036 -6.7231569 19.385107 -200 45 -200 45 -200 45
5402930338.3897 -6.7146473 19.330505 -200 45 -200 45 -200 45
5403930455.0758 -6.7017579 19.272411 -200 45 -200 45 -200 45
5404930571.762 -6.6940217 19.20797 -200 45 -200 45 -200 45
5405930688.4481 -6.6857791 19.15366 -200 45 -200 45 -200 45
5406930805.1342 -6.6814775 19.084776 -200 45 -200 45 -200 45
5407930921.8203 -6.6766376 19.011467 -200 45 -200 45 -200 45
5408931038.5064 -6.6700768 18.950827 -200 45 -200 45 -200 45
5409931155.1925 -6.6688519 18.89444 -200 45 -200 45 -200 45
5410931271.8786 -6.6677046 18.853327 -200 45 -200 45 -200 45
5411931388.5648 -6.6663866 18.764233 -200 45 -200 45 -200 45
5412931505.2509 -6.6656046 18.726534 -200 45 -200 45 -200 45
5413931621.937 -6.6658802 18.666136 -200 45 -200 45 -200 45
5414931738.6231 -6.6655021 18.638554 -200 45 -200 45 -200 45
5415931855.3092 -6.6691079 18.59469 -200 45 -200 45 -200 45
5416931971.9953 -6.6696582 18.561409 -200 45 -200 45 -200 45
5417932088.6814 -6.6722627 18.5494 -200 45 -200 45 -200 45
5418932205.3676 -6.6770134 18.529549 -200 45 -200 45 -200 45
5419932322.0537 -6.6746197 18.497847 -200 45 -200 45 -200 45
5420932438.7398 -6.6788249 18.483532 -200 45 -200 45 -200 45
5421932555.4259 -6.6819105 18.476858 -200 45 -200 45 -200 45
5422932672.112 -6.6853242 18.466713 -200 45 -200 45 -200 45
5423932788.7981 -6.6852798 18.491184 -200 45 -200 45 -200 45
5424932905.4842 -6.6904917 18.501345 -200 45 -200 45 -200 45
5425933022.1704 -6.6937771 18.512938 -200 45 -200 45 -200 45
5426933138.8565 -6.6933069 18.535097 -200 45 -200 45 -200 45
5427933255.5426 -6.6922779 18.556419 -200 45 -200 45 -200 45
5428933372.2287 -6.6924791 18.605104 -200 45 -200 45 -200 45
5429933488.9148 -6.6912489 18.642118 -200 45 -200 45 -200 45
5430933605.6009 -6.6868567 18.683268 -200 45 -200 45 -200 45
5431933722.287 -6.6831808 18.730608 -200 45 -200 45 -200 45
5432933838.9732 -6.6765804 18.79084 -200 45 -200 45 -200 45
5433933955.6593 -6.6695046 18.837831 -200 45 -200 45 -200 45
5434934072.3454 -6.6597533 18.861393 -200 45 -200 45 -200 45
5435934189.0315 -6.6486492 18.910551 -200 45 -200 45 -200 45
5436934305.7176 -6.6387253 18.918381 -200 45 -200 45 -200 45
5437934422.4037 -6.6267161 18.930887 -200 45 -200 45 -200 45
5438934539.0898 -6.6089983 18.945578 -200 45 -200 45 -200 45
5439934655.776 -6.5958319 18.935457 -200 45 -200 45 -200 45
5440934772.4621 -6.5813179 18.925932 -200 45 -200 45 -200 45
5441934889.1482 -6.5666909 18.870533 -200 45 -200 45 -200 45
5442935005.8343 -6.5589085 18.847403 -200 45 -200 45 -200 45
5443935122.5204 -6.5435977 18.787977 -200 45 -200 45 -200 45
5444935239.2065 -6.5300956 18.712902 -200 45 -200 45 -200 45
5445935355.8926 -6.5202188 18.649893 -200 45 -200 45 -200 45
5446935472.5788 -6.5125074 18.598536 -200 45 -200 45 -200 45
5447935589.2649 -6.5023685 18.518597 -200 45 -200 45 -200 45
5448935705.951 -6.4982519 18.440771 -200 45 -200 45 -200 45
5449935822.6371 -6.4881344 18.377108 -200 45 -200 45 -200 45
5450935939.3232 -6.4822636 18.306009 -200 45 -200 45 -200 45
5451936056.0093 -6.4772277 18.203585 -200 45 -200 45 -200 45
5452936172.6954 -6.471458 18.113031 -200 45 -200 45 -200 45
5453936289.3816 -6.4660134 18.045177 -200 45 -200 45 -200 45
5454936406.0677 -6.4632263 17.949089 -200 45 -200 45 -200 45
5455936522.7538 -6.4613738 17.848717 -200 45 -200 45 -200 45
5456936639.4399 -6.4595637 17.777822 -200 45 -200 45 -200 45
5457936756.126 -6.4603362 17.679674 -200 45 -200 45 -200 45
5458936872.8121 -6.4598417 17.586924 -200 45 -200 45 -200 45
5459936989.4983 -6.4613919 17.529024 -200 45 -200 45 -200 45
5460937106.1844 -6.4635487 17.421404 -200 45 -200 45 -200 45
5461937222.8705 -6.4687867 17.324036 -200 45 -200 45 -200 45
5462937339.5566 -6.4729962 17.278458 -200 45 -200 45 -200 45
5463937456.2427 -6.4807415 17.196648 -200 45 -200 45 -200 45
5464937572.9288 -6.4880137 17.137272 -200 45 -200 45 -200 45
5465937689.6149 -6.4906793 17.071255 -200 45 -200 45 -200 45
5466937806.3011 -6.4994545 17.025871 -200 45 -200 45 -200 45
5467937922.9872 -6.5066075 16.957844 -200 45 -200 45 -200 45
5468938039.6733 -6.5077353 16.916698 -200 45 -200 45 -200 45
5469938156.3594 -6.5163574 16.87063 -200 45 -200 45 -200 45
5470938273.0455 -6.5229378 16.856846 -200 45 -200 45 -200 45
5471938389.7316 -6.5306697 16.794579 -200 45 -200 45 -200 45
5472938506.4177 -6.5380526 16.787674 -200 45 -200 45 -200 45
5473938623.1039 -6.5423741 16.743902 -200 45 -200 45 -200 45
5474938739.79 -6.5461931 16.724979 -200 45 -200 45 -200 45
5475938856.4761 -6.5533075 16.688871 -200 45 -200 45 -200 45
5476938973.1622 -6.5582848 16.662001 -200 45 -200 45 -200 45
5477939089.8483 -6.563683 16.65254 -200 45 -200 45 -200 45
5478939206.5344 -6.5715303 16.632063 -200 45 -200 45 -200 45
5479939323.2205 -6.5766993 16.602282 -200 45 -200 45 -200 45
5480939439.9067 -6.5829358 16.592857 -200 45 -200 45 -200 45
5481939556.5928 -6.5866151 16.565859 -200 45 -200 45 -200 45
5482939673.2789 -6.58812 16.566267 -200 45 -200 45 -200 45
5483939789.965 -6.5941906 16.544729 -200 45 -200 45 -200 45
5484939906.6511 -6.5973697 16.52594 -200 45 -200 45 -200 45
5485940023.3372 -6.6028852 16.5263 -200 45 -200 45 -200 45
5486940140.0233 -6.6066928 16.505516 -200 45 -200 45 -200 45
5487940256.7095 -6.6106558 16.511765 -200 45 -200 45 -200 45
5488940373.3956 -6.6162238 16.490995 -200 45 -200 45 -200 45
5489940490.0817 -6.6188102 16.49099 -200 45 -200 45 -200 45
5490940606.7678 -6.620544 16.481089 -200 45 -200 45 -200 45
5491940723.4539 -6.6244864 16.463974 -200 45 -200 45 -200 45
5492940840.14 -6.6278753 16.458645 -200 45 -200 45 -200 45
5493940956.8261 -6.6325436 16.455227 -200 45 -200 45 -200 45
5494941073.5123 -6.6355095 16.457502 -200 45 -200 45 -200 45
5495941190.1984 -6.6392045 16.438984 -200 45 -200 45 -200 45
5496941306.8845 -6.6455994 16.423738 -200 45 -200 45 -200 45
5497941423.5706 -6.6479039 16.426512 -200 45 -200 45 -200 45
5498941540.2567 -6.6507807 16.404011 -200 45 -200 45 -200 45
5499941656.9428 -6.6526523 16.408545 -200 45 -200 45 -200 45
5500941773.6289 -6.6584721 16.400707 -200 45 -200 45 -200 45
5501941890.3151 -6.6618447 16.407579 -200 45 -200 45 -200 45
5502942007.0012 -6.6643929 16.413525 -200 45 -200 45 -200 45
5503942123.6873 -6.6714015 16.407364 -200 45 -200 45 -200 45
5504942240.3734 -6.6732178 16.402731 -200 45 -200 45 -200 45
5505942357.0595 -6.675169 16.397974 -200 45 -200 45 -200 45
5506942473.7456 -6.6779661 16.386072 -200 45 -200 45 -200 45
5507942590.4317 -6.6828594 16.387587 -200 45 -200 45 -200 45
5508942707.1179 -6.6839008 16.399246 -200 45 -200 45 -200 45
5509942823.804 -6.6868706 16.381538 -200 45 -200 45 -200 45
5510942940.4901 -6.6899099 16.397827 -200 45 -200 45 -200 45
5511943057.1762 -6.6951747 16.415218 -200 45 -200 45 -200 45
5512943173.8623 -6.6990409 16.402128 -200 45 -200 45 -200 45
5513943290.5484 -6.7015262 16.402308 -200 45 -200 45 -200 45
5514943407.2345 -6.7073555 16.410801 -200 45 -200 45 -200 45
5515943523.9207 -6.7071204 16.387735 -200 45 -200 45 -200 45
5516943640.6068 -6.7114782 16.407013 -200 45 -200 45 -200 45
5517943757.2929 -6.711359 16.412415 -200 45 -200 45 -200 45
5518943873.979 -6.7166157 16.431845 -200 45 -200 45 -200 45
5519943990.6651 -6.7233109 16.424639 -200 45 -200 45 -200 45
5520944107.3512 -6.7279344 16.425798 -200 45 -200 45 -200 45
5521944224.0373 -6.7281418 16.434572 -200 45 -200 45 -200 45
5522944340.7235 -6.727622 16.42008 -200 45 -200 45 -200 45
5523944457.4096 -6.7314301 16.440811 -200 45 -200 45 -200 45
5524944574.0957 -6.7330594 16.442276 -200 45 -200 45 -200 45
5525944690.7818 -6.7393165 16.436562 -200 45 -200 45 -200 45
5526944807.4679 -6.7414842 16.461855 -200 45 -200 45 -200 45
5527944924.154 -6.7438049 16.478914 -200 45 -200 45 -200 45
5528945040.8401 -6.7446828 16.481678 -200 45 -200 45 -200 45
5529945157.5263 -6.7471628 16.470055 -200 45 -200 45 -200 45
5530945274.2124 -6.7519336 16.483431 -200 45 -200 45 -200 45
5531945390.8985 -6.7512522 16.473183 -200 45 -200 45 -200 45
5532945507.5846 -6.7556448 16.485674 -200 45 -200 45 -200 45
5533945624.2707 -6.7575722 16.501568 -200 45 -200 45 -200 45
5534945740.9568 -6.7600098 16.497341 -200 45 -200 45 -200 45
5535945857.6429 -6.7641649 16.52906 -200 45 -200 45 -200 45
5536945974.3291 -6.763063 16.524254 -200 45 -200 45 -200 45
5537946091.0152 -6.766469 16.518482 -200 45 -200 45 -200 45
5538946207.7013 -6.7652011 16.519812 -200 45 -200 45 -200 45
5539946324.3874 -6.7688055 16.514771 -200 45 -200 45 -200 45
5540946441.0735 -6.7700076 16.537367 -200 45 -200 45 -200 45
5541946557.7596 -6.7745042 16.527843 -200 45 -200 45 -200 45
5542946674.4457 -6.7779613 16.529861 -200 45 -200 45 -200 45
5543946791.1319 -6.7797251 16.561102 -200 45 -200 45 -200 45
5544946907.818 -6.7816882 16.542723 -200 45 -200 45 -200 45
5545947024.5041 -6.7838025 16.54369 -200 45 -200 45 -200 45
5546947141.1902 -6.7858658 16.535084 -200 45 -200 45 -200 45
5547947257.8763 -6.7863989 16.546457 -200 45 -200 45 -200 45
5548947374.5624 -6.7868261 16.536211 -200 45 -200 45 -200 45
5549947491.2485 -6.7925868 16.544743 -200 45 -200 45 -200 45
5550947607.9347 -6.7997231 16.559504 -200 45 -200 45 -200 45
5551947724.6208 -6.8028188 16.551878 -200 45 -200 45 -200 45
5552947841.3069 -6.8018751 16.549961 -200 45 -200 45 -200 45
5553947957.993 -6.8040757 16.568056 -200 45 -200 45 -200 45
5554948074.6791 -6.8088102 16.556385 -200 45 -200 45 -200 45
5555948191.3652 -6.8108654 16.561865 -200 45 -200 45 -200 45
5556948308.0513 -6.8148513 16.566414 -200 45 -200 45 -200 45
5557948424.7375 -6.8153214 16.591434 -200 45 -200 45 -200 45
5558948541.4236 -6.8203826 16.582855 -200 45 -200 45 -200 45
5559948658.1097 -6.8230577 16.597815 -200 45 -200 45 -200 45
5560948774.7958 -6.8250194 16.602457 -200 45 -200 45 -200 45
5561948891.4819 -6.828022 16.585764 -200 45 -200 45 -200 45
5562949008.168 -6.8287396 16.607344 -200 45 -200 45 -200 45
5563949124.8541 -6.8329592 16.603029 -200 45 -200 45 -200 45
5564949241.5403 -6.8335814 16.597282 -200 45 -200 45 -200 45
5565949358.2264 -6.8389273 16.618145 -200 45 -200 45 -200 45
5566949474.9125 -6.8416262 16.630896 -200 45 -200 45 -200 45
5567949591.5986 -6.8462038 16.635939 -200 45 -200 45 -200 45
5568949708.2847 -6.8462734 16.665785 -200 45 -200 45 -200 45
5569949824.9708 -6.8464828 16.65419 -200 45 -200 45 -200 45
5570949941.6569 -6.850831 16.660248 -200 45 -200 45 -200 45
5571950058.3431 -6.8515611 16.64381 -200 45 -200 45 -200 45
5572950175.0292 -6.854876 16.674305 -200 45 -200 45 -200 45
5573950291.7153 -6.8560629 16.68152 -200 45 -200 45 -200 45
5574950408.4014 -6.8619132 16.693029 -200 45 -200 45 -200 45
5575950525.0875 -6.8630047 16.698711 -200 45 -200 45 -200 45
5576950641.7736 -6.8620615 16.71476 -200 45 -200 45 -200 45
5577950758.4597 -6.8635187 16.708769 -200 45 -200 45 -200 45
5578950875.1459 -6.8637381 16.718149 -200 45 -200 45 -200 45
5579950991.832 -6.8702331 16.710928 -200 45 -200 45 -200 45
5580951108.5181 -6.8680534 16.732014 -200 45 -200 45 -200 45
5581951225.2042 -6.8724184 16.727211 -200 45 -200 45 -200 45
5582951341.8903 -6.8752365 16.744184 -200 45 -200 45 -200 45
5583951458.5764 -6.8756828 16.75956 -200 45 -200 45 -200 45
5584951575.2625 -6.8784084 16.74161 -200 45 -200 45 -200 45
5585951691.9487 -6.881649 16.765589 -200 45 -200 45 -200 45
5586951808.6348 -6.8814626 16.752779 -200 45 -200 45 -200 45
5587951925.3209 -6.8805385 16.757963 -200 45 -200 45 -200 45
5588952042.007 -6.8835421 16.788437 -200 45 -200 45 -200 45
5589952158.6931 -6.8863401 16.76409 -200 45 -200 45 -200 45
5590952275.3792 -6.8883109 16.794542 -200 45 -200 45 -200 45
5591952392.0653 -6.8892736 16.795418 -200 45 -200 45 -200 45
5592952508.7515 -6.891819 16.790548 -200 45 -200 45 -200 45
5593952625.4376 -6.8909011 16.799145 -200 45 -200 45 -200 45
5594952742.1237 -6.8904829 16.785971 -200 45 -200 45 -200 45
5595952858.8098 -6.8936234 16.790052 -200 45 -200 45 -200 45
5596952975.4959 -6.8952155 16.819939 -200 45 -200 45 -200 45
5597953092.182 -6.8948321 16.815067 -200 45 -200 45 -200 45
5598953208.8681 -6.8979931 16.808336 -200 45 -200 45 -200 45
5599953325.5543 -6.9000945 16.820467 -200 45 -200 45 -200 45
5600953442.2404 -6.8983641 16.821245 -200 45 -200 45 -200 45
5601953558.9265 -6.899272 16.826824 -200 45 -200 45 -200 45
5602953675.6126 -6.9007096 16.822657 -200 45 -200 45 -200 45
5603953792.2987 -6.901216 16.840324 -200 45 -200 45 -200 45
5604953908.9848 -6.903223 16.836885 -200 45 -200 45 -200 45
5605954025.6709 -6.9051089 16.838093 -200 45 -200 45 -200 45
5606954142.3571 -6.9078712 16.856886 -200 45 -200 45 -200 45
5607954259.0432 -6.9119248 16.85544 -200 45 -200 45 -200 45
5608954375.7293 -6.9108396 16.849943 -200 45 -200 45 -200 45
5609954492.4154 -6.9081254 16.859444 -200 45 -200 45 -200 45
5610954609.1015 -6.9100952 16.855371 -200 45 -200 45 -200 45
5611954725.7876 -6.9138408 16.853886 -200 45 -200 45 -200 45
5612954842.4737 -6.9176207 16.860817 -200 45 -200 45 -200 45
5613954959.1599 -6.9157519 16.88497 -200 45 -200 45 -200 45
5614955075.846 -6.9219151 16.848133 -200 45 -200 45 -200 45
5615955192.5321 -6.9212441 16.886341 -200 45 -200 45 -200 45
5616955309.2182 -6.921102 16.881552 -200 45 -200 45 -200 45
5617955425.9043 -6.9232068 16.866232 -200 45 -200 45 -200 45
5618955542.5904 -6.9250407 16.875851 -200 45 -200 45 -200 45
5619955659.2765 -6.9249997 16.882713 -200 45 -200 45 -200 45
5620955775.9627 -6.9310746 16.896111 -200 45 -200 45 -200 45
5621955892.6488 -6.9317365 16.912577 -200 45 -200 45 -200 45
5622956009.3349 -6.9361105 16.894361 -200 45 -200 45 -200 45
5623956126.021 -6.9368482 16.896461 -200 45 -200 45 -200 45
5624956242.7071 -6.9387989 16.906794 -200 45 -200 45 -200 45
5625956359.3932 -6.9401269 16.901676 -200 45 -200 45 -200 45
5626956476.0793 -6.9416513 16.930695 -200 45 -200 45 -200 45
5627956592.7655 -6.9437938 16.93634 -200 45 -200 45 -200 45
5628956709.4516 -6.9490738 16.933575 -200 45 -200 45 -200 45
5629956826.1377 -6.950963 16.963045 -200 45 -200 45 -200 45
5630956942.8238 -6.9554567 16.961439 -200 45 -200 45 -200 45
5631957059.5099 -6.9548216 16.986305 -200 45 -200 45 -200 45
5632957176.196 -6.9565806 17.003771 -200 45 -200 45 -200 45
5633957292.8821 -6.9604864 16.994505 -200 45 -200 45 -200 45
5634957409.5683 -6.9622998 17.010279 -200 45 -200 45 -200 45
5635957526.2544 -6.966661 17.018242 -200 45 -200 45 -200 45
5636957642.9405 -6.9714451 17.035719 -200 45 -200 45 -200 45
5637957759.6266 -6.9682813 17.065865 -200 45 -200 45 -200 45
5638957876.3127 -6.9686012 17.073399 -200 45 -200 45 -200 45
5639957992.9988 -6.9723525 17.088985 -200 45 -200 45 -200 45
5640958109.6849 -6.9754896 17.097546 -200 45 -200 45 -200 45
5641958226.3711 -6.9758258 17.121414 -200 45 -200 45 -200 45
5642958343.0572 -6.976851 17.112148 -200 45 -200 45 -200 45
5643958459.7433 -6.9784131 17.148106 -200 45 -200 45 -200 45
5644958576.4294 -6.9800014 17.165783 -200 45 -200 45 -200 45
5645958693.1155 -6.9791479 17.182196 -200 45 -200 45 -200 45
5646958809.8016 -6.9849873 17.209776 -200 45 -200 45 -200 45
5647958926.4877 -6.9799185 17.198154 -200 45 -200 45 -200 45
5648959043.1739 -6.9854136 17.212557 -200 45 -200 45 -200 45
5649959159.86 -6.9812336 17.204311 -200 45 -200 45 -200 45
5650959276.5461 -6.9852452 17.225409 -200 45 -200 45 -200 45
5651959393.2322 -6.9854345 17.209627 -200 45 -200 45 -200 45
5652959509.9183 -6.9887218 17.222343 -200 45 -200 45 -200 45
5653959626.6044 -6.9898424 17.237413 -200 45 -200 45 -200 45
5654959743.2905 -6.9890981 17.235746 -200 45 -200 45 -200 45
5655959859.9767 -6.9923854 17.244328 -200 45 -200 45 -200 45
5656959976.6628 -6.9921212 17.250772 -200 45 -200 45 -200 45
5657960093.3489 -6.9943142 17.258469 -200 45 -200 45 -200 45
5658960210.035 -6.9942369 17.26836 -200 45 -200 45 -200 45
5659960326.7211 -6.997407 17.2785 -200 45 -200 45 -200 45
5660960443.4072 -6.9999757 17.301413 -200 45 -200 45 -200 45
5661960560.0933 -7.000124 17.288824 -200 45 -200 45 -200 45
5662960676.7795 -7.0041394 17.277653 -200 45 -200 45 -200 45
5663960793.4656 -7.0013351 17.278788 -200 45 -200 45 -200 45
5664960910.1517 -7.0069475 17.297611 -200 45 -200 45 -200 45
5665961026.8378 -7.0075822 17.299053 -200 45 -200 45 -200 45
5666961143.5239 -7.0102725 17.29743 -200 45 -200 45 -200 45
5667961260.21 -7.0128822 17.302519 -200 45 -200 45 -200 45
5668961376.8961 -7.0160489 17.337475 -200 45 -200 45 -200 45
5669961493.5823 -7.0172424 17.334656 -200 45 -200 45 -200 45
5670961610.2684 -7.0193868 17.328125 -200 45 -200 45 -200 45
5671961726.9545 -7.0230007 17.339964 -200 45 -200 45 -200 45
5672961843.6406 -7.0214949 17.33568 -200 45 -200 45 -200 45
5673961960.3267 -7.0254736 17.348131 -200 45 -200 45 -200 45
5674962077.0128 -7.0291886 17.372902 -200 45 -200 45 -200 45
5675962193.6989 -7.0302086 17.37855 -200 45 -200 45 -200 45
5676962310.3851 -7.0349183 17.374044 -200 45 -200 45 -200 45
5677962427.0712 -7.0345697 17.391895 -200 45 -200 45 -200 45
5678962543.7573 -7.0382514 17.388758 -200 45 -200 45 -200 45
5679962660.4434 -7.0401831 17.412533 -200 45 -200 45 -200 45
5680962777.1295 -7.0402498 17.416136 -200 45 -200 45 -200 45
5681962893.8156 -7.0406694 17.418835 -200 45 -200 45 -200 45
5682963010.5018 -7.0452085 17.431606 -200 45 -200 45 -200 45
5683963127.1879 -7.0472636 17.442862 -200 45 -200 45 -200 45
5684963243.874 -7.0484171 17.456783 -200 45 -200 45 -200 45
5685963360.5601 -7.0527873 17.444841 -200 45 -200 45 -200 45
5686963477.2462 -7.0513859 17.465843 -200 45 -200 45 -200 45
5687963593.9323 -7.0546637 17.468645 -200 45 -200 45 -200 45
5688963710.6184 -7.0554347 17.455574 -200 45 -200 45 -200 45
5689963827.3046 -7.0581236 17.47089 -200 45 -200 45 -200 45
5690963943.9907 -7.0599046 17.456846 -200 45 -200 45 -200 45
5691964060.6768 -7.0618382 17.478392 -200 45 -200 45 -200 45
5692964177.3629 -7.0634542 17.480949 -200 45 -200 45 -200 45
5693964294.049 -7.0672112 17.467131 -200 45 -200 45 -200 45
5694964410.7351 -7.0668516 17.477945 -200 45 -200 45 -200 45
5695964527.4212 -7.0681944 17.481548 -200 45 -200 45 -200 45
5696964644.1074 -7.0711622 17.490326 -200 45 -200 45 -200 45
5697964760.7935 -7.0725017 17.492201 -200 45 -200 45 -200 45
5698964877.4796 -7.0746083 17.49032 -200 45 -200 45 -200 45
5699964994.1657 -7.081531 17.485216 -200 45 -200 45 -200 45
5700965110.8518 -7.0838346 17.491354 -200 45 -200 45 -200 45
5701965227.5379 -7.0836906 17.496992 -200 45 -200 45 -200 45
5702965344.224 -7.0893459 17.483555 -200 45 -200 45 -200 45
5703965460.9102 -7.0909414 17.490351 -200 45 -200 45 -200 45
5704965577.5963 -7.0943146 17.482878 -200 45 -200 45 -200 45
5705965694.2824 -7.0986953 17.494329 -200 45 -200 45 -200 45
5706965810.9685 -7.1028824 17.507837 -200 45 -200 45 -200 45
5707965927.6546 -7.1082821 17.505482 -200 45 -200 45 -200 45
5708966044.3407 -7.1107655 17.505718 -200 45 -200 45 -200 45
5709966161.0268 -7.1159148 17.522179 -200 45 -200 45 -200 45
5710966277.713 -7.1204138 17.506388 -200 45 -200 45 -200 45
5711966394.3991 -7.123157 17.492685 -200 45 -200 45 -200 45
5712966511.0852 -7.1285477 17.51815 -200 45 -200 45 -200 45
5713966627.7713 -7.134531 17.53698 -200 45 -200 45 -200 45
5714966744.4574 -7.1399221 17.561949 -200 45 -200 45 -200 45
5715966861.1435 -7.1443949 17.562935 -200 45 -200 45 -200 45
5716966977.8296 -7.1521282 17.569246 -200 45 -200 45 -200 45
5717967094.5158 -7.1552086 17.602831 -200 45 -200 45 -200 45
5718967211.2019 -7.1622391 17.598782 -200 45 -200 45 -200 45
5719967327.888 -7.1662564 17.629988 -200 45 -200 45 -200 45
5720967444.5741 -7.1706114 17.659681 -200 45 -200 45 -200 45
5721967561.2602 -7.1757517 17.688316 -200 45 -200 45 -200 45
5722967677.9463 -7.1835628 17.727921 -200 45 -200 45 -200 45
5723967794.6324 -7.1867881 17.759983 -200 45 -200 45 -200 45
5724967911.3186 -7.1906343 17.799068 -200 45 -200 45 -200 45
5725968028.0047 -7.1940269 17.849415 -200 45 -200 45 -200 45
5726968144.6908 -7.1936617 17.883841 -200 45 -200 45 -200 45
5727968261.3769 -7.1961989 17.910961 -200 45 -200 45 -200 45
5728968378.063 -7.1987309 17.943892 -200 45 -200 45 -200 45
5729968494.7491 -7.2021875 17.99017 -200 45 -200 45 -200 45
5730968611.4352 -7.20612 18.037642 -200 45 -200 45 -200 45
5731968728.1214 -7.204834 18.038313 -200 45 -200 45 -200 45
5732968844.8075 -7.209908 18.079683 -200 45 -200 45 -200 45
5733968961.4936 -7.2102423 18.091166 -200 45 -200 45 -200 45
5734969078.1797 -7.2126217 18.085613 -200 45 -200 45 -200 45
5735969194.8658 -7.2156787 18.137091 -200 45 -200 45 -200 45
5736969311.5519 -7.2219734 18.171999 -200 45 -200 45 -200 45
5737969428.238 -7.2269497 18.181072 -200 45 -200 45 -200 45
5738969544.9242 -7.2305717 18.245295 -200 45 -200 45 -200 45
5739969661.6103 -7.2359786 18.282822 -200 45 -200 45 -200 45
5740969778.2964 -7.24613 18.332008 -200 45 -200 45 -200 45
5741969894.9825 -7.2508664 18.408314 -200 45 -200 45 -200 45
5742970011.6686 -7.2536154 18.461447 -200 45 -200 45 -200 45
5743970128.3547 -7.257153 18.544714 -200 45 -200 45 -200 45
5744970245.0408 -7.2623887 18.640972 -200 45 -200 45 -200 45
5745970361.727 -7.2632966 18.731596 -200 45 -200 45 -200 45
5746970478.4131 -7.259182 18.821259 -200 45 -200 45 -200 45
5747970595.0992 -7.2570095 18.911865 -200 45 -200 45 -200 45
5748970711.7853 -7.2538972 19.018833 -200 45 -200 45 -200 45
5749970828.4714 -7.246511 19.103117 -200 45 -200 45 -200 45
5750970945.1575 -7.2355065 19.162771 -200 45 -200 45 -200 45
5751971061.8436 -7.2319651 19.246225 -200 45 -200 45 -200 45
5752971178.5298 -7.2215157 19.290144 -200 45 -200 45 -200 45
5753971295.2159 -7.2096295 19.328346 -200 45 -200 45 -200 45
5754971411.902 -7.2013173 19.378235 -200 45 -200 45 -200 45
5755971528.5881 -7.1907821 19.375593 -200 45 -200 45 -200 45
5756971645.2742 -7.1812258 19.415407 -200 45 -200 45 -200 45
5757971761.9603 -7.1757045 19.409115 -200 45 -200 45 -200 45
5758971878.6464 -7.1647558 19.42046 -200 45 -200 45 -200 45
5759971995.3326 -7.1551046 19.446413 -200 45 -200 45 -200 45
5760972112.0187 -7.1503286 19.446075 -200 45 -200 45 -200 45
5761972228.7048 -7.1430588 19.446112 -200 45 -200 45 -200 45
5762972345.3909 -7.1358032 19.425831 -200 45 -200 45 -200 45
5763972462.077 -7.1321249 19.420778 -200 45 -200 45 -200 45
5764972578.7631 -7.1254439 19.435696 -200 45 -200 45 -200 45
5765972695.4492 -7.1192336 19.39823 -200 45 -200 45 -200 45
5766972812.1354 -7.1128545 19.385492 -200 45 -200 45 -200 45
5767972928.8215 -7.1087437 19.395861 -200 45 -200 45 -200 45
5768973045.5076 -7.1098723 19.368061 -200 45 -200 45 -200 45
5769973162.1937 -7.1061964 19.369974 -200 45 -200 45 -200 45
5770973278.8798 -7.1040764 19.344769 -200 45 -200 45 -200 45
5771973395.5659 -7.1028199 19.343405 -200 45 -200 45 -200 45
5772973512.252 -7.1050525 19.312464 -200 45 -200 45 -200 45
5773973628.9382 -7.1009569 19.316584 -200 45 -200 45 -200 45
5774973745.6243 -7.1032467 19.291687 -200 45 -200 45 -200 45
5775973862.3104 -7.0999055 19.295876 -200 45 -200 45 -200 45
5776973978.9965 -7.103416 19.307137 -200 45 -200 45 -200 45
5777974095.6826 -7.101285 19.318708 -200 45 -200 45 -200 45
5778974212.3687 -7.0999599 19.326229 -200 45 -200 45 -200 45
5779974329.0548 -7.0996804 19.327175 -200 45 -200 45 -200 45
5780974445.741 -7.1016917 19.341856 -200 45 -200 45 -200 45
5781974562.4271 -7.0959425 19.324284 -200 45 -200 45 -200 45
5782974679.1132 -7.0963607 19.328844 -200 45 -200 45 -200 45
5783974795.7993 -7.0887775 19.370155 -200 45 -200 45 -200 45
5784974912.4854 -7.0865207 19.348186 -200 45 -200 45 -200 45
5785975029.1715 -7.087831 19.370262 -200 45 -200 45 -200 45
5786975145.8576 -7.0815697 19.351362 -200 45 -200 45 -200 45
5787975262.5438 -7.0825438 19.349918 -200 45 -200 45 -200 45
5788975379.2299 -7.0799975 19.338852 -200 45 -200 45 -200 45
5789975495.916 -7.0755239 19.311792 -200 45 -200 45 -200 45
5790975612.6021 -7.0747752 19.309752 -200 45 -200 45 -200 45
5791975729.2882 -7.071785 19.304293 -200 45 -200 45 -200 45
5792975845.9743 -7.0710435 19.301809 -200 45 -200 45 -200 45
5793975962.6604 -7.0694714 19.256769 -200 45 -200 45 -200 45
5794976079.3466 -7.0701194 19.246704 -200 45 -200 45 -200 45
5795976196.0327 -7.0690255 19.243401 -200 45 -200 45 -200 45
5796976312.7188 -7.0690961 19.220509 -200 45 -200 45 -200 45
5797976429.4049 -7.0625896 19.205744 -200 45 -200 45 -200 45
5798976546.091 -7.0649643 19.172523 -200 45 -200 45 -200 45
5799976662.7771 -7.0658107 19.153025 -200 45 -200 45 -200 45
5800976779.4632 -7.0635157 19.144331 -200 45 -200 45 -200 45
5801976896.1494 -7.0641751 19.131033 -200 45 -200 45 -200 45
5802977012.8355 -7.0641661 19.084919 -200 45 -200 45 -200 45
5803977129.5216 -7.0662408 19.050764 -200 45 -200 45 -200 45
5804977246.2077 -7.068357 19.048601 -200 45 -200 45 -200 45
5805977362.8938 -7.0681925 19.025911 -200 45 -200 45 -200 45
5806977479.5799 -7.0695825 19.00186 -200 45 -200 45 -200 45
5807977596.266 -7.0734458 18.991879 -200 45 -200 45 -200 45
5808977712.9522 -7.0770679 18.965401 -200 45 -200 45 -200 45
5809977829.6383 -7.0791473 18.945101 -200 45 -200 45 -200 45
5810977946.3244 -7.0837612 18.946548 -200 45 -200 45 -200 45
5811978063.0105 -7.0859408 18.929218 -200 45 -200 45 -200 45
5812978179.6966 -7.0872674 18.907528 -200 45 -200 45 -200 45
5813978296.3827 -7.0897951 18.912621 -200 45 -200 45 -200 45
5814978413.0688 -7.0952086 18.875818 -200 45 -200 45 -200 45
5815978529.755 -7.0993409 18.889462 -200 45 -200 45 -200 45
5816978646.4411 -7.1034451 18.868298 -200 45 -200 45 -200 45
5817978763.1272 -7.1080303 18.861217 -200 45 -200 45 -200 45
5818978879.8133 -7.1081858 18.887779 -200 45 -200 45 -200 45
5819978996.4994 -7.1156416 18.882259 -200 45 -200 45 -200 45
5820979113.1855 -7.1157532 18.866276 -200 45 -200 45 -200 45
5821979229.8716 -7.1198864 18.863852 -200 45 -200 45 -200 45
5822979346.5578 -7.1245327 18.864962 -200 45 -200 45 -200 45
5823979463.2439 -7.1272602 18.876043 -200 45 -200 45 -200 45
5824979579.93 -7.1275506 18.858124 -200 45 -200 45 -200 45
5825979696.6161 -7.1315732 18.874397 -200 45 -200 45 -200 45
5826979813.3022 -7.1340942 18.875288 -200 45 -200 45 -200 45
5827979929.9883 -7.1346989 18.868807 -200 45 -200 45 -200 45
5828980046.6744 -7.1369085 18.879978 -200 45 -200 45 -200 45
5829980163.3606 -7.1393433 18.891014 -200 45 -200 45 -200 45
5830980280.0467 -7.1440592 18.884758 -200 45 -200 45 -200 45
5831980396.7328 -7.1451559 18.883116 -200 45 -200 45 -200 45
5832980513.4189 -7.1460147 18.908661 -200 45 -200 45 -200 45
5833980630.105 -7.1502557 18.915941 -200 45 -200 45 -200 45
5834980746.7911 -7.1530657 18.918682 -200 45 -200 45 -200 45
5835980863.4772 -7.1523485 18.90263 -200 45 -200 45 -200 45
5836980980.1634 -7.1549983 18.918406 -200 45 -200 45 -200 45
5837981096.8495 -7.1585612 18.92491 -200 45 -200 45 -200 45
5838981213.5356 -7.160511 18.925632 -200 45 -200 45 -200 45
5839981330.2217 -7.1609368 18.957693 -200 45 -200 45 -200 45
5840981446.9078 -7.1622558 18.929483 -200 45 -200 45 -200 45
5841981563.5939 -7.1650796 18.967209 -200 45 -200 45 -200 45
5842981680.28 -7.1702151 18.980532 -200 45 -200 45 -200 45
5843981796.9662 -7.167541 18.971189 -200 45 -200 45 -200 45
5844981913.6523 -7.1724143 18.979622 -200 45 -200 45 -200 45
5845982030.3384 -7.1704335 18.995903 -200 45 -200 45 -200 45
5846982147.0245 -7.1748304 19.000818 -200 45 -200 45 -200 45
5847982263.7106 -7.1777959 19.01844 -200 45 -200 45 -200 45
5848982380.3967 -7.1785245 19.007727 -200 45 -200 45 -200 45
5849982497.0828 -7.1827054 19.033066 -200 45 -200 45 -200 45
5850982613.769 -7.1835976 19.031017 -200 45 -200 45 -200 45
5851982730.4551 -7.1821733 19.056662 -200 45 -200 45 -200 45
5852982847.1412 -7.1816936 19.053583 -200 45 -200 45 -200 45
5853982963.8273 -7.1865053 19.065788 -200 45 -200 45 -200 45
5854983080.5134 -7.1888084 19.050552 -200 45 -200 45 -200 45
5855983197.1995 -7.191875 19.066566 -200 45 -200 45 -200 45
5856983313.8856 -7.1924844 19.076284 -200 45 -200 45 -200 45
5857983430.5718 -7.1944432 19.084412 -200 45 -200 45 -200 45
5858983547.2579 -7.1945233 19.117193 -200 45 -200 45 -200 45
5859983663.944 -7.1971912 19.088905 -200 45 -200 45 -200 45
5860983780.6301 -7.1967044 19.120914 -200 45 -200 45 -200 45
5861983897.3162 -7.1977482 19.120575 -200 45 -200 45 -200 45
5862984014.0023 -7.200634 19.141993 -200 45 -200 45 -200 45
5863984130.6884 -7.2047601 19.146812 -200 45 -200 45 -200 45
5864984247.3746 -7.2085485 19.175409 -200 45 -200 45 -200 45
5865984364.0607 -7.2078123 19.170084 -200 45 -200 45 -200 45
5866984480.7468 -7.2112703 19.172073 -200 45 -200 45 -200 45
5867984597.4329 -7.2144122 19.198595 -200 45 -200 45 -200 45
5868984714.119 -7.21034 19.204353 -200 45 -200 45 -200 45
5869984830.8051 -7.2169967 19.223085 -200 45 -200 45 -200 45
5870984947.4912 -7.2163725 19.217133 -200 45 -200 45 -200 45
5871985064.1774 -7.2211137 19.254158 -200 45 -200 45 -200 45
5872985180.8635 -7.2239909 19.250029 -200 45 -200 45 -200 45
5873985297.5496 -7.2244148 19.25642 -200 45 -200 45 -200 45
5874985414.2357 -7.2271814 19.263634 -200 45 -200 45 -200 45
5875985530.9218 -7.2265959 19.264488 -200 45 -200 45 -200 45
5876985647.6079 -7.2285652 19.272469 -200 45 -200 45 -200 45
5877985764.294 -7.2319994 19.285656 -200 45 -200 45 -200 45
5878985880.9802 -7.2358484 19.295168 -200 45 -200 45 -200 45
5879985997.6663 -7.2382975 19.312057 -200 45 -200 45 -200 45
5880986114.3524 -7.2442231 19.33427 -200 45 -200 45 -200 45
5881986231.0385 -7.2468991 19.338682 -200 45 -200 45 -200 45
5882986347.7246 -7.2421412 19.349581 -200 45 -200 45 -200 45
5883986464.4107 -7.2464437 19.327869 -200 45 -200 45 -200 45
5884986581.0968 -7.2485142 19.366261 -200 45 -200 45 -200 45
5885986697.783 -7.2546191 19.357691 -200 45 -200 45 -200 45
5886986814.4691 -7.2566304 19.408049 -200 45 -200 45 -200 45
5887986931.1552 -7.2606478 19.422359 -200 45 -200 45 -200 45
5888987047.8413 -7.2622623 19.429913 -200 45 -200 45 -200 45
5889987164.5274 -7.2643008 19.447365 -200 45 -200 45 -200 45
5890987281.2135 -7.2688704 19.474518 -200 45 -200 45 -200 45
5891987397.8997 -7.2725263 19.478291 -200 45 -200 45 -200 45
5892987514.5858 -7.2750592 19.500021 -200 45 -200 45 -200 45
5893987631.2719 -7.2790556 19.517475 -200 45 -200 45 -200 45
5894987747.958 -7.2836719 19.576204 -200 45 -200 45 -200 45
5895987864.6441 -7.2889333 19.605057 -200 45 -200 45 -200 45
5896987981.3302 -7.2871318 19.638802 -200 45 -200 45 -200 45
5897988098.0163 -7.2913918 19.661264 -200 45 -200 45 -200 45
5898988214.7025 -7.2941055 19.690773 -200 45 -200 45 -200 45
5899988331.3886 -7.2917171 19.74785 -200 45 -200 45 -200 45
5900988448.0747 -7.2968264 19.747845 -200 45 -200 45 -200 45
5901988564.7608 -7.2980165 19.790934 -200 45 -200 45 -200 45
5902988681.4469 -7.2988319 19.830204 -200 45 -200 45 -200 45
5903988798.133 -7.3001699 19.874523 -200 45 -200 45 -200 45
5904988914.8191 -7.2982669 19.89945 -200 45 -200 45 -200 45
5905989031.5053 -7.3000083 19.929157 -200 45 -200 45 -200 45
5906989148.1914 -7.3017716 19.962254 -200 45 -200 45 -200 45
5907989264.8775 -7.2994218 19.9897 -200 45 -200 45 -200 45
5908989381.5636 -7.3026114 20.030005 -200 45 -200 45 -200 45
5909989498.2497 -7.299552 20.051102 -200 45 -200 45 -200 45
5910989614.9358 -7.2997026 20.08519 -200 45 -200 45 -200 45
5911989731.6219 -7.3001251 20.127987 -200 45 -200 45 -200 45
5912989848.3081 -7.2979069 20.140284 -200 45 -200 45 -200 45
5913989964.9942 -7.2932973 20.176912 -200 45 -200 45 -200 45
5914990081.6803 -7.292573 20.198038 -200 45 -200 45 -200 45
5915990198.3664 -7.2910624 20.21133 -200 45 -200 45 -200 45
5916990315.0525 -7.2866812 20.255306 -200 45 -200 45 -200 45
5917990431.7386 -7.2838783 20.280775 -200 45 -200 45 -200 45
5918990548.4247 -7.2834473 20.30286 -200 45 -200 45 -200 45
5919990665.1109 -7.2781982 20.313236 -200 45 -200 45 -200 45
5920990781.797 -7.2773728 20.341703 -200 45 -200 45 -200 45
5921990898.4831 -7.2739186 20.350061 -200 45 -200 45 -200 45
5922991015.1692 -7.2712102 20.377577 -200 45 -200 45 -200 45
5923991131.8553 -7.2672234 20.3729 -200 45 -200 45 -200 45
5924991248.5414 -7.2649908 20.390373 -200 45 -200 45 -200 45
5925991365.2275 -7.2637496 20.40543 -200 45 -200 45 -200 45
5926991481.9137 -7.2599654 20.399294 -200 45 -200 45 -200 45
5927991598.5998 -7.2589712 20.417397 -200 45 -200 45 -200 45
5928991715.2859 -7.2509794 20.403522 -200 45 -200 45 -200 45
5929991831.972 -7.2544198 20.391382 -200 45 -200 45 -200 45
5930991948.6581 -7.2485466 20.391239 -200 45 -200 45 -200 45
5931992065.3442 -7.2471824 20.380754 -200 45 -200 45 -200 45
5932992182.0303 -7.2470179 20.381044 -200 45 -200 45 -200 45
5933992298.7165 -7.2450914 20.380379 -200 45 -200 45 -200 45
5934992415.4026 -7.2446609 20.385883 -200 45 -200 45 -200 45
5935992532.0887 -7.2449312 20.371723 -200 45 -200 45 -200 45
5936992648.7748 -7.2404475 20.336504 -200 45 -200 45 -200 45
5937992765.4609 -7.2399139 20.349808 -200 45 -200 45 -200 45
5938992882.147 -7.2414956 20.346048 -200 45 -200 45 -200 45
5939992998.8331 -7.2372422 20.329878 -200 45 -200 45 -200 45
5940993115.5193 -7.2397051 20.318611 -200 45 -200 45 -200 45
5941993232.2054 -7.241859 20.31727 -200 45 -200 45 -200 45
5942993348.8915 -7.2412019 20.313644 -200 45 -200 45 -200 45
5943993465.5776 -7.242517 20.295137 -200 45 -200 45 -200 45
5944993582.2637 -7.240025 20.310177 -200 45 -200 45 -200 45
5945993698.9498 -7.2404208 20.289894 -200 45 -200 45 -200 45
5946993815.6359 -7.2423267 20.263264 -200 45 -200 45 -200 45
5947993932.3221 -7.2425838 20.272377 -200 45 -200 45 -200 45
5948994049.0082 -7.2462835 20.267632 -200 45 -200 45 -200 45
5949994165.6943 -7.2479372 20.279339 -200 45 -200 45 -200 45
5950994282.3804 -7.2473536 20.2796 -200 45 -200 45 -200 45
5951994399.0665 -7.2489972 20.281073 -200 45 -200 45 -200 45
5952994515.7526 -7.2499676 20.26758 -200 45 -200 45 -200 45
5953994632.4387 -7.2504044 20.266628 -200 45 -200 45 -200 45
5954994749.1249 -7.2507839 20.266199 -200 45 -200 45 -200 45
5955994865.811 -7.2521205 20.265848 -200 45 -200 45 -200 45
5956994982.4971 -7.25422 20.273155 -200 45 -200 45 -200 45
5957995099.1832 -7.2591834 20.278172 -200 45 -200 45 -200 45
5958995215.8693 -7.261169 20.278189 -200 45 -200 45 -200 45
5959995332.5554 -7.2610822 20.280111 -200 45 -200 45 -200 45
5960995449.2415 -7.2598557 20.293995 -200 45 -200 45 -200 45
5961995565.9277 -7.2617269 20.282686 -200 45 -200 45 -200 45
5962995682.6138 -7.2654667 20.274508 -200 45 -200 45 -200 45
5963995799.2999 -7.2632871 20.278204 -200 45 -200 45 -200 45
5964995915.986 -7.2665486 20.288918 -200 45 -200 45 -200 45
5965996032.6721 -7.2646027 20.314716 -200 45 -200 45 -200 45
5966996149.3582 -7.2679687 20.302637 -200 45 -200 45 -200 45
5967996266.0443 -7.2692523 20.3127 -200 45 -200 45 -200 45
5968996382.7305 -7.268929 20.302216 -200 45 -200 45 -200 45
5969996499.4166 -7.2693515 20.308765 -200 45 -200 45 -200 45
5970996616.1027 -7.2688322 20.303783 -200 45 -200 45 -200 45
5971996732.7888 -7.2726707 20.304127 -200 45 -200 45 -200 45
5972996849.4749 -7.2716603 20.321615 -200 45 -200 45 -200 45
5973996966.161 -7.2746162 20.354294 -200 45 -200 45 -200 45
5974997082.8471 -7.2762027 20.362751 -200 45 -200 45 -200 45
5975997199.5333 -7.279614 20.342995 -200 45 -200 45 -200 45
5976997316.2194 -7.2769938 20.358652 -200 45 -200 45 -200 45
5977997432.9055 -7.2770195 20.365295 -200 45 -200 45 -200 45
5978997549.5916 -7.2808251 20.375706 -200 45 -200 45 -200 45
5979997666.2777 -7.2818241 20.36499 -200 45 -200 45 -200 45
5980997782.9638 -7.2838149 20.372414 -200 45 -200 45 -200 45
5981997899.6499 -7.2876477 20.402964 -200 45 -200 45 -200 45
5982998016.3361 -7.2887616 20.405289 -200 45 -200 45 -200 45
5983998133.0222 -7.2871842 20.390471 -200 45 -200 45 -200 45
5984998249.7083 -7.2878265 20.417097 -200 45 -200 45 -200 45
5985998366.3944 -7.2902932 20.407015 -200 45 -200 45 -200 45
5986998483.0805 -7.2930598 20.427767 -200 45 -200 45 -200 45
5987998599.7666 -7.2915173 20.427607 -200 45 -200 45 -200 45
5988998716.4527 -7.2952123 20.451271 -200 45 -200 45 -200 45
5989998833.1389 -7.299901 20.448235 -200 45 -200 45 -200 45
5990998949.825 -7.2988214 20.447596 -200 45 -200 45 -200 45
5991999066.5111 -7.2993989 20.463299 -200 45 -200 45 -200 45
5992999183.1972 -7.300766 20.46069 -200 45 -200 45 -200 45
5993999299.8833 -7.3049154 20.450075 -200 45 -200 45 -200 45
5994999416.5694 -7.3060298 20.474874 -200 45 -200 45 -200 45
5995999533.2555 -7.3079534 20.512009 -200 45 -200 45 -200 45
5996999649.9417 -7.310925 20.503466 -200 45 -200 45 -200 45
5997999766.6278 -7.3122582 20.523806 -200 45 -200 45 -200 45
5998999883.3139 -7.3144488 20.51738 -200 45 -200 45 -200 45
6000000000 -7.31391 20.536242 -200 45 -200 45 -200 45
