!Keysight Technologies,P9374A,MY57304198,A.17.20.09
!Date: Tuesday, August 20, 2024 14:08:59
!Correction: S11(C  1-Port  ) 
!S21(C  1-Port  ) 
!S12(Off) 
!S22(Off) 
!S2P File: Measurements: S11, S21, S12, S22:
# Hz S  dB   R 50
300000 0.001083969 -0.0090164319 -200 45 -200 45 -200 45
1300116.6861144 0.0008645053 -0.012278604 -200 45 -200 45 -200 45
2300233.3722287 0.00074804004 -0.032319382 -200 45 -200 45 -200 45
3300350.0583431 -0.0004504392 -0.051452782 -200 45 -200 45 -200 45
4300466.7444574 -0.0005801433 -0.057642121 -200 45 -200 45 -200 45
5300583.4305718 -0.00029873435 -0.068731159 -200 45 -200 45 -200 45
6300700.1166861 -0.00051153684 -0.088983856 -200 45 -200 45 -200 45
7300816.8028005 -0.0002891559 -0.10194402 -200 45 -200 45 -200 45
8300933.4889148 -0.00037924599 -0.1143356 -200 45 -200 45 -200 45
9301050.1750292 -0.0003318708 -0.13858142 -200 45 -200 45 -200 45
10301166.861144 -0.0023780183 -0.13614428 -200 45 -200 45 -200 45
11301283.547258 -0.00024022843 -0.17145641 -200 45 -200 45 -200 45
12301400.233372 -0.0002327211 -0.17992084 -200 45 -200 45 -200 45
13301516.919487 -0.0017924554 -0.1885576 -200 45 -200 45 -200 45
14301633.605601 -0.00034455591 -0.20029169 -200 45 -200 45 -200 45
15301750.291715 -0.00022754363 -0.21056195 -200 45 -200 45 -200 45
16301866.97783 -0.00059490028 -0.22801989 -200 45 -200 45 -200 45
17301983.663944 -0.00081263657 -0.24360515 -200 45 -200 45 -200 45
18302100.350058 -0.0026546407 -0.25591063 -200 45 -200 45 -200 45
19302217.036173 -0.0023712842 -0.26346713 -200 45 -200 45 -200 45
20302333.722287 -0.0014985383 -0.28093773 -200 45 -200 45 -200 45
21302450.408401 -0.0026393586 -0.29379383 -200 45 -200 45 -200 45
22302567.094516 -0.0015723394 -0.32275072 -200 45 -200 45 -200 45
23302683.78063 -0.0014532225 -0.33388838 -200 45 -200 45 -200 45
24302800.466744 -0.0021353406 -0.34732407 -200 45 -200 45 -200 45
25302917.152859 -0.0025538837 -0.35639107 -200 45 -200 45 -200 45
26303033.838973 -0.004391185 -0.386785 -200 45 -200 45 -200 45
27303150.525088 -0.0033356522 -0.39344415 -200 45 -200 45 -200 45
28303267.211202 -0.0023521183 -0.39984944 -200 45 -200 45 -200 45
29303383.897316 -0.0034522302 -0.41314533 -200 45 -200 45 -200 45
30303500.583431 -0.003478914 -0.42281544 -200 45 -200 45 -200 45
31303617.269545 -0.003524251 -0.43755889 -200 45 -200 45 -200 45
32303733.955659 -0.0015083784 -0.44873628 -200 45 -200 45 -200 45
33303850.641774 -0.0037991328 -0.45775518 -200 45 -200 45 -200 45
34303967.327888 -0.0052023116 -0.47996184 -200 45 -200 45 -200 45
35304084.014002 -0.004745937 -0.48520917 -200 45 -200 45 -200 45
36304200.700117 -0.003643943 -0.50366932 -200 45 -200 45 -200 45
37304317.386231 -0.0056255567 -0.52714241 -200 45 -200 45 -200 45
38304434.072345 -0.0061447555 -0.54323697 -200 45 -200 45 -200 45
39304550.75846 -0.0056644361 -0.57513303 -200 45 -200 45 -200 45
40304667.444574 -0.005478336 -0.57957703 -200 45 -200 45 -200 45
41304784.130688 -0.0063604373 -0.59368467 -200 45 -200 45 -200 45
42304900.816803 -0.007297169 -0.60787767 -200 45 -200 45 -200 45
43305017.502917 -0.0057699308 -0.61395144 -200 45 -200 45 -200 45
44305134.189032 -0.0079555688 -0.62005401 -200 45 -200 45 -200 45
45305250.875146 -0.007094664 -0.6301682 -200 45 -200 45 -200 45
46305367.56126 -0.0076350435 -0.63398635 -200 45 -200 45 -200 45
47305484.247375 -0.0077753351 -0.651191 -200 45 -200 45 -200 45
48305600.933489 -0.0089686466 -0.67224485 -200 45 -200 45 -200 45
49305717.619603 -0.0079467511 -0.68295956 -200 45 -200 45 -200 45
50305834.305718 -0.0073676975 -0.69695443 -200 45 -200 45 -200 45
51305950.991832 -0.0084467754 -0.70165622 -200 45 -200 45 -200 45
52306067.677946 -0.0091162445 -0.73744434 -200 45 -200 45 -200 45
53306184.364061 -0.0093868114 -0.75176418 -200 45 -200 45 -200 45
54306301.050175 -0.011084008 -0.77921534 -200 45 -200 45 -200 45
55306417.736289 -0.010427988 -0.80941498 -200 45 -200 45 -200 45
56306534.422404 -0.0096177012 -0.8315658 -200 45 -200 45 -200 45
57306651.108518 -0.011788924 -0.83624858 -200 45 -200 45 -200 45
58306767.794632 -0.011515613 -0.84470624 -200 45 -200 45 -200 45
59306884.480747 -0.012798483 -0.85479069 -200 45 -200 45 -200 45
60307001.166861 -0.012720857 -0.85599905 -200 45 -200 45 -200 45
61307117.852975 -0.012903113 -0.85320699 -200 45 -200 45 -200 45
62307234.53909 -0.013254147 -0.85527343 -200 45 -200 45 -200 45
63307351.225204 -0.013285046 -0.88556004 -200 45 -200 45 -200 45
64307467.911319 -0.014811293 -0.90119386 -200 45 -200 45 -200 45
65307584.597433 -0.013367097 -0.90028119 -200 45 -200 45 -200 45
66307701.283547 -0.014756487 -0.91231608 -200 45 -200 45 -200 45
67307817.969662 -0.016624944 -0.92361522 -200 45 -200 45 -200 45
68307934.655776 -0.016518665 -0.94956708 -200 45 -200 45 -200 45
69308051.34189 -0.01733206 -0.98688489 -200 45 -200 45 -200 45
70308168.028005 -0.018611711 -1.0142307 -200 45 -200 45 -200 45
71308284.714119 -0.017751031 -1.0363824 -200 45 -200 45 -200 45
72308401.400233 -0.021114657 -1.0569082 -200 45 -200 45 -200 45
73308518.086348 -0.017810814 -1.061334 -200 45 -200 45 -200 45
74308634.772462 -0.019224247 -1.0725536 -200 45 -200 45 -200 45
75308751.458576 -0.020472465 -1.0885462 -200 45 -200 45 -200 45
76308868.144691 -0.021569373 -1.0702734 -200 45 -200 45 -200 45
77308984.830805 -0.022020234 -1.0806962 -200 45 -200 45 -200 45
78309101.516919 -0.021543879 -1.0868056 -200 45 -200 45 -200 45
79309218.203034 -0.024702691 -1.0957561 -200 45 -200 45 -200 45
80309334.889148 -0.024292421 -1.1106755 -200 45 -200 45 -200 45
81309451.575263 -0.023438422 -1.1243184 -200 45 -200 45 -200 45
82309568.261377 -0.024300231 -1.124185 -200 45 -200 45 -200 45
83309684.947491 -0.024257019 -1.1267577 -200 45 -200 45 -200 45
84309801.633606 -0.023971207 -1.1570309 -200 45 -200 45 -200 45
85309918.31972 -0.026901526 -1.2021941 -200 45 -200 45 -200 45
86310035.005834 -0.029693602 -1.2409537 -200 45 -200 45 -200 45
87310151.691949 -0.027895067 -1.249252 -200 45 -200 45 -200 45
88310268.378063 -0.031013921 -1.267167 -200 45 -200 45 -200 45
89310385.064177 -0.031163573 -1.263885 -200 45 -200 45 -200 45
90310501.750292 -0.030588716 -1.2842168 -200 45 -200 45 -200 45
91310618.436406 -0.032456696 -1.2826158 -200 45 -200 45 -200 45
92310735.12252 -0.030745914 -1.2768046 -200 45 -200 45 -200 45
93310851.808635 -0.03233647 -1.2727816 -200 45 -200 45 -200 45
94310968.494749 -0.032139573 -1.2776351 -200 45 -200 45 -200 45
95311085.180863 -0.034129538 -1.3139558 -200 45 -200 45 -200 45
96311201.866978 -0.034806892 -1.3299 -200 45 -200 45 -200 45
97311318.553092 -0.035099681 -1.3113192 -200 45 -200 45 -200 45
98311435.239207 -0.034647983 -1.3241997 -200 45 -200 45 -200 45
99311551.925321 -0.037008502 -1.3237928 -200 45 -200 45 -200 45
100311668.61144 -0.039500918 -1.3396013 -200 45 -200 45 -200 45
101311785.29755 -0.040029928 -1.3860574 -200 45 -200 45 -200 45
102311901.98366 -0.041188497 -1.4257556 -200 45 -200 45 -200 45
103312018.66978 -0.041058358 -1.4499856 -200 45 -200 45 -200 45
104312135.35589 -0.04392257 -1.4584416 -200 45 -200 45 -200 45
105312252.04201 -0.042966403 -1.4688054 -200 45 -200 45 -200 45
106312368.72812 -0.044510439 -1.4767376 -200 45 -200 45 -200 45
107312485.41424 -0.043730639 -1.4815218 -200 45 -200 45 -200 45
108312602.10035 -0.04358029 -1.4688921 -200 45 -200 45 -200 45
109312718.78646 -0.043940611 -1.4542928 -200 45 -200 45 -200 45
110312835.47258 -0.041261144 -1.4464942 -200 45 -200 45 -200 45
111312952.15869 -0.044532932 -1.4783232 -200 45 -200 45 -200 45
112313068.84481 -0.044853836 -1.4868879 -200 45 -200 45 -200 45
113313185.53092 -0.04627401 -1.4833561 -200 45 -200 45 -200 45
114313302.21704 -0.043874979 -1.4993651 -200 45 -200 45 -200 45
115313418.90315 -0.044088881 -1.4837285 -200 45 -200 45 -200 45
116313535.58926 -0.044280827 -1.5086561 -200 45 -200 45 -200 45
117313652.27538 -0.04614738 -1.5611303 -200 45 -200 45 -200 45
118313768.96149 -0.049129881 -1.6047795 -200 45 -200 45 -200 45
119313885.64761 -0.049954645 -1.6190915 -200 45 -200 45 -200 45
120314002.33372 -0.051810019 -1.641133 -200 45 -200 45 -200 45
121314119.01984 -0.049044535 -1.6576213 -200 45 -200 45 -200 45
122314235.70595 -0.051267259 -1.6546605 -200 45 -200 45 -200 45
123314352.39207 -0.051968772 -1.6564834 -200 45 -200 45 -200 45
124314469.07818 -0.051211204 -1.6567171 -200 45 -200 45 -200 45
125314585.76429 -0.050883543 -1.6532006 -200 45 -200 45 -200 45
126314702.45041 -0.051092029 -1.6465406 -200 45 -200 45 -200 45
127314819.13652 -0.050884068 -1.6670057 -200 45 -200 45 -200 45
128314935.82264 -0.05229966 -1.6876737 -200 45 -200 45 -200 45
129315052.50875 -0.053155687 -1.7007722 -200 45 -200 45 -200 45
130315169.19487 -0.053539865 -1.6961137 -200 45 -200 45 -200 45
131315285.88098 -0.055429019 -1.6904311 -200 45 -200 45 -200 45
132315402.56709 -0.055015311 -1.7094176 -200 45 -200 45 -200 45
133315519.25321 -0.057129096 -1.7493433 -200 45 -200 45 -200 45
134315635.93932 -0.058927972 -1.7949915 -200 45 -200 45 -200 45
135315752.62544 -0.061072275 -1.8410031 -200 45 -200 45 -200 45
136315869.31155 -0.062704965 -1.8587829 -200 45 -200 45 -200 45
137315985.99767 -0.062016685 -1.8693985 -200 45 -200 45 -200 45
138316102.68378 -0.061384954 -1.8758796 -200 45 -200 45 -200 45
139316219.36989 -0.062751718 -1.8806794 -200 45 -200 45 -200 45
140316336.05601 -0.062109638 -1.8711705 -200 45 -200 45 -200 45
141316452.74212 -0.062418714 -1.8546045 -200 45 -200 45 -200 45
142316569.42824 -0.061192252 -1.8502522 -200 45 -200 45 -200 45
143316686.11435 -0.061572418 -1.85357 -200 45 -200 45 -200 45
144316802.80047 -0.063059784 -1.8786211 -200 45 -200 45 -200 45
145316919.48658 -0.064685084 -1.9035733 -200 45 -200 45 -200 45
146317036.1727 -0.064593911 -1.8906244 -200 45 -200 45 -200 45
147317152.85881 -0.063942894 -1.8894783 -200 45 -200 45 -200 45
148317269.54492 -0.064712666 -1.9066776 -200 45 -200 45 -200 45
149317386.23104 -0.066706844 -1.9403855 -200 45 -200 45 -200 45
150317502.91715 -0.069773473 -1.996866 -200 45 -200 45 -200 45
151317619.60327 -0.072661951 -2.0472138 -200 45 -200 45 -200 45
152317736.28938 -0.074060708 -2.0599599 -200 45 -200 45 -200 45
153317852.9755 -0.075157799 -2.0752163 -200 45 -200 45 -200 45
154317969.66161 -0.075783104 -2.0818744 -200 45 -200 45 -200 45
155318086.34772 -0.077935755 -2.0943437 -200 45 -200 45 -200 45
156318203.03384 -0.074525736 -2.0847235 -200 45 -200 45 -200 45
157318319.71995 -0.075455166 -2.0558975 -200 45 -200 45 -200 45
158318436.40607 -0.075714618 -2.0553021 -200 45 -200 45 -200 45
159318553.09218 -0.07436879 -2.0558848 -200 45 -200 45 -200 45
160318669.7783 -0.076588444 -2.0780079 -200 45 -200 45 -200 45
161318786.46441 -0.079270825 -2.1007354 -200 45 -200 45 -200 45
162318903.15053 -0.07813447 -2.0903573 -200 45 -200 45 -200 45
163319019.83664 -0.077456914 -2.0808139 -200 45 -200 45 -200 45
164319136.52275 -0.08107204 -2.0936482 -200 45 -200 45 -200 45
165319253.20887 -0.082420997 -2.1358807 -200 45 -200 45 -200 45
166319369.89498 -0.084308773 -2.1777546 -200 45 -200 45 -200 45
167319486.5811 -0.089061655 -2.2300122 -200 45 -200 45 -200 45
168319603.26721 -0.089729398 -2.2498133 -200 45 -200 45 -200 45
169319719.95333 -0.091016024 -2.2650082 -200 45 -200 45 -200 45
170319836.63944 -0.091711298 -2.2699678 -200 45 -200 45 -200 45
171319953.32555 -0.092748336 -2.2741308 -200 45 -200 45 -200 45
172320070.01167 -0.09411601 -2.2570839 -200 45 -200 45 -200 45
173320186.69778 -0.089395911 -2.2433112 -200 45 -200 45 -200 45
174320303.3839 -0.089694515 -2.2261784 -200 45 -200 45 -200 45
175320420.07001 -0.090658121 -2.225697 -200 45 -200 45 -200 45
176320536.75613 -0.091779247 -2.2424781 -200 45 -200 45 -200 45
177320653.44224 -0.093107477 -2.2628284 -200 45 -200 45 -200 45
178320770.12835 -0.092969686 -2.2730231 -200 45 -200 45 -200 45
179320886.81447 -0.090948619 -2.2585201 -200 45 -200 45 -200 45
180321003.50058 -0.091040343 -2.2627559 -200 45 -200 45 -200 45
181321120.1867 -0.093740925 -2.2804422 -200 45 -200 45 -200 45
182321236.87281 -0.096641958 -2.3519461 -200 45 -200 45 -200 45
183321353.55893 -0.10044184 -2.3852057 -200 45 -200 45 -200 45
184321470.24504 -0.10091659 -2.4337578 -200 45 -200 45 -200 45
185321586.93116 -0.10305921 -2.4445126 -200 45 -200 45 -200 45
186321703.61727 -0.10336246 -2.4455233 -200 45 -200 45 -200 45
187321820.30338 -0.10489551 -2.4638681 -200 45 -200 45 -200 45
188321936.9895 -0.10376861 -2.4518468 -200 45 -200 45 -200 45
189322053.67561 -0.10373547 -2.4327874 -200 45 -200 45 -200 45
190322170.36173 -0.10207562 -2.4283571 -200 45 -200 45 -200 45
191322287.04784 -0.10111929 -2.4140201 -200 45 -200 45 -200 45
192322403.73396 -0.10305125 -2.4271946 -200 45 -200 45 -200 45
193322520.42007 -0.10420051 -2.4528148 -200 45 -200 45 -200 45
194322637.10618 -0.10599989 -2.4520502 -200 45 -200 45 -200 45
195322753.7923 -0.10533203 -2.4441078 -200 45 -200 45 -200 45
196322870.47841 -0.10453222 -2.4409108 -200 45 -200 45 -200 45
197322987.16453 -0.10773369 -2.4680018 -200 45 -200 45 -200 45
198323103.85064 -0.10959215 -2.5297122 -200 45 -200 45 -200 45
199323220.53676 -0.1144108 -2.5836456 -200 45 -200 45 -200 45
200323337.22287 -0.11745573 -2.6142762 -200 45 -200 45 -200 45
201323453.90898 -0.11847446 -2.6388788 -200 45 -200 45 -200 45
202323570.5951 -0.11864524 -2.6382384 -200 45 -200 45 -200 45
203323687.28121 -0.11926141 -2.646636 -200 45 -200 45 -200 45
204323803.96733 -0.11974781 -2.6623936 -200 45 -200 45 -200 45
205323920.65344 -0.11906692 -2.6320069 -200 45 -200 45 -200 45
206324037.33956 -0.11690444 -2.6004472 -200 45 -200 45 -200 45
207324154.02567 -0.11677254 -2.5797136 -200 45 -200 45 -200 45
208324270.71179 -0.11782914 -2.6060641 -200 45 -200 45 -200 45
209324387.3979 -0.12060685 -2.6343284 -200 45 -200 45 -200 45
210324504.08401 -0.12115196 -2.6405833 -200 45 -200 45 -200 45
211324620.77013 -0.12039181 -2.6377642 -200 45 -200 45 -200 45
212324737.45624 -0.1205491 -2.6168313 -200 45 -200 45 -200 45
213324854.14236 -0.12097602 -2.6341908 -200 45 -200 45 -200 45
214324970.82847 -0.1251159 -2.684083 -200 45 -200 45 -200 45
215325087.51459 -0.12903039 -2.7486975 -200 45 -200 45 -200 45
216325204.2007 -0.13151215 -2.8016152 -200 45 -200 45 -200 45
217325320.88681 -0.13492636 -2.8185325 -200 45 -200 45 -200 45
218325437.57293 -0.13440329 -2.8245835 -200 45 -200 45 -200 45
219325554.25904 -0.13496216 -2.8475993 -200 45 -200 45 -200 45
220325670.94516 -0.13650639 -2.8379688 -200 45 -200 45 -200 45
221325787.63127 -0.13648529 -2.8289502 -200 45 -200 45 -200 45
222325904.31739 -0.13463773 -2.7983105 -200 45 -200 45 -200 45
223326021.0035 -0.13191187 -2.7771032 -200 45 -200 45 -200 45
224326137.68961 -0.13362907 -2.7818971 -200 45 -200 45 -200 45
225326254.37573 -0.13690443 -2.8166883 -200 45 -200 45 -200 45
226326371.06184 -0.13782567 -2.8447931 -200 45 -200 45 -200 45
227326487.74796 -0.13797076 -2.8217428 -200 45 -200 45 -200 45
228326604.43407 -0.13741446 -2.8057342 -200 45 -200 45 -200 45
229326721.12019 -0.13753201 -2.8112395 -200 45 -200 45 -200 45
230326837.8063 -0.14127025 -2.8511353 -200 45 -200 45 -200 45
231326954.49242 -0.1466503 -2.9114716 -200 45 -200 45 -200 45
232327071.17853 -0.15075095 -2.9647245 -200 45 -200 45 -200 45
233327187.86464 -0.15349321 -3.0052354 -200 45 -200 45 -200 45
234327304.55076 -0.15622649 -3.0214138 -200 45 -200 45 -200 45
235327421.23687 -0.15598176 -3.0201657 -200 45 -200 45 -200 45
236327537.92299 -0.15592273 -3.0215847 -200 45 -200 45 -200 45
237327654.6091 -0.15644197 -3.0071394 -200 45 -200 45 -200 45
238327771.29522 -0.15321004 -2.9875951 -200 45 -200 45 -200 45
239327887.98133 -0.15308857 -2.949487 -200 45 -200 45 -200 45
240328004.66744 -0.15231074 -2.9470408 -200 45 -200 45 -200 45
241328121.35356 -0.15316203 -2.9794967 -200 45 -200 45 -200 45
242328238.03967 -0.15652274 -2.999131 -200 45 -200 45 -200 45
243328354.72579 -0.15667035 -2.9991488 -200 45 -200 45 -200 45
244328471.4119 -0.15611191 -2.9763212 -200 45 -200 45 -200 45
245328588.09802 -0.15401618 -2.9688826 -200 45 -200 45 -200 45
246328704.78413 -0.15827334 -2.9991126 -200 45 -200 45 -200 45
247328821.47025 -0.16417181 -3.066169 -200 45 -200 45 -200 45
248328938.15636 -0.16823792 -3.1259885 -200 45 -200 45 -200 45
249329054.84247 -0.17161247 -3.1801882 -200 45 -200 45 -200 45
250329171.52859 -0.17530982 -3.1817286 -200 45 -200 45 -200 45
251329288.2147 -0.17553273 -3.1991923 -200 45 -200 45 -200 45
252329404.90082 -0.17547128 -3.2023356 -200 45 -200 45 -200 45
253329521.58693 -0.17620555 -3.1926401 -200 45 -200 45 -200 45
254329638.27305 -0.17434424 -3.1745598 -200 45 -200 45 -200 45
255329754.95916 -0.17314637 -3.1294212 -200 45 -200 45 -200 45
256329871.64527 -0.17210288 -3.12713 -200 45 -200 45 -200 45
257329988.33139 -0.17420277 -3.1306317 -200 45 -200 45 -200 45
258330105.0175 -0.17718369 -3.1646376 -200 45 -200 45 -200 45
259330221.70362 -0.17827559 -3.1745288 -200 45 -200 45 -200 45
260330338.38973 -0.17766286 -3.1601069 -200 45 -200 45 -200 45
261330455.07585 -0.17632875 -3.1345382 -200 45 -200 45 -200 45
262330571.76196 -0.17661829 -3.1587255 -200 45 -200 45 -200 45
263330688.44807 -0.18209659 -3.2175734 -200 45 -200 45 -200 45
264330805.13419 -0.18889722 -3.2819843 -200 45 -200 45 -200 45
265330921.8203 -0.19575265 -3.3307219 -200 45 -200 45 -200 45
266331038.50642 -0.1973528 -3.361891 -200 45 -200 45 -200 45
267331155.19253 -0.1983303 -3.3740122 -200 45 -200 45 -200 45
268331271.87865 -0.20086555 -3.3540027 -200 45 -200 45 -200 45
269331388.56476 -0.20038055 -3.3598487 -200 45 -200 45 -200 45
270331505.25088 -0.19715668 -3.3452482 -200 45 -200 45 -200 45
271331621.93699 -0.19518375 -3.3070562 -200 45 -200 45 -200 45
272331738.6231 -0.19481662 -3.278723 -200 45 -200 45 -200 45
273331855.30922 -0.19484234 -3.2874 -200 45 -200 45 -200 45
274331971.99533 -0.19666776 -3.310813 -200 45 -200 45 -200 45
275332088.68145 -0.20177224 -3.3163064 -200 45 -200 45 -200 45
276332205.36756 -0.19908524 -3.3037326 -200 45 -200 45 -200 45
277332322.05368 -0.19832732 -3.2901347 -200 45 -200 45 -200 45
278332438.73979 -0.19881181 -3.2918549 -200 45 -200 45 -200 45
279332555.4259 -0.20233035 -3.3494613 -200 45 -200 45 -200 45
280332672.11202 -0.20940886 -3.4124308 -200 45 -200 45 -200 45
281332788.79813 -0.21633297 -3.4569845 -200 45 -200 45 -200 45
282332905.48425 -0.21851642 -3.495055 -200 45 -200 45 -200 45
283333022.17036 -0.22030771 -3.5088325 -200 45 -200 45 -200 45
284333138.85648 -0.22056398 -3.5063221 -200 45 -200 45 -200 45
285333255.54259 -0.22096924 -3.4957926 -200 45 -200 45 -200 45
286333372.2287 -0.22032242 -3.4831679 -200 45 -200 45 -200 45
287333488.91482 -0.21730794 -3.4477863 -200 45 -200 45 -200 45
288333605.60093 -0.21400431 -3.4260445 -200 45 -200 45 -200 45
289333722.28705 -0.21521431 -3.4197748 -200 45 -200 45 -200 45
290333838.97316 -0.214858 -3.43857 -200 45 -200 45 -200 45
291333955.65928 -0.21890353 -3.4553573 -200 45 -200 45 -200 45
292334072.34539 -0.21506907 -3.4473493 -200 45 -200 45 -200 45
293334189.03151 -0.21710439 -3.4361825 -200 45 -200 45 -200 45
294334305.71762 -0.21621053 -3.4253359 -200 45 -200 45 -200 45
295334422.40373 -0.22049153 -3.466939 -200 45 -200 45 -200 45
296334539.08985 -0.22657827 -3.5309148 -200 45 -200 45 -200 45
297334655.77596 -0.23317555 -3.5989771 -200 45 -200 45 -200 45
298334772.46208 -0.23736997 -3.6533244 -200 45 -200 45 -200 45
299334889.14819 -0.23993878 -3.6526597 -200 45 -200 45 -200 45
300335005.83431 -0.2403103 -3.652658 -200 45 -200 45 -200 45
301335122.52042 -0.24085176 -3.6599877 -200 45 -200 45 -200 45
302335239.20653 -0.2396439 -3.6517055 -200 45 -200 45 -200 45
303335355.89265 -0.23738883 -3.6376247 -200 45 -200 45 -200 45
304335472.57876 -0.23390599 -3.594341 -200 45 -200 45 -200 45
305335589.26488 -0.23473135 -3.5673957 -200 45 -200 45 -200 45
306335705.95099 -0.23465511 -3.596875 -200 45 -200 45 -200 45
307335822.63711 -0.23947895 -3.6020527 -200 45 -200 45 -200 45
308335939.32322 -0.24025723 -3.614964 -200 45 -200 45 -200 45
309336056.00933 -0.23671959 -3.5964353 -200 45 -200 45 -200 45
310336172.69545 -0.23620926 -3.5719342 -200 45 -200 45 -200 45
311336289.38156 -0.24090266 -3.6002209 -200 45 -200 45 -200 45
312336406.06768 -0.24648763 -3.6642518 -200 45 -200 45 -200 45
313336522.75379 -0.25320801 -3.7417278 -200 45 -200 45 -200 45
314336639.43991 -0.26089004 -3.787832 -200 45 -200 45 -200 45
315336756.12602 -0.26205435 -3.8028474 -200 45 -200 45 -200 45
316336872.81214 -0.2614525 -3.8020892 -200 45 -200 45 -200 45
317336989.49825 -0.26249596 -3.808538 -200 45 -200 45 -200 45
318337106.18436 -0.26305586 -3.8089211 -200 45 -200 45 -200 45
319337222.87048 -0.26205683 -3.7733917 -200 45 -200 45 -200 45
320337339.55659 -0.25536999 -3.7243865 -200 45 -200 45 -200 45
321337456.24271 -0.25461674 -3.7160051 -200 45 -200 45 -200 45
322337572.92882 -0.25708425 -3.722049 -200 45 -200 45 -200 45
323337689.61494 -0.26086062 -3.7514758 -200 45 -200 45 -200 45
324337806.30105 -0.25992751 -3.7363975 -200 45 -200 45 -200 45
325337922.98716 -0.25647405 -3.7344432 -200 45 -200 45 -200 45
326338039.67328 -0.25704554 -3.7042623 -200 45 -200 45 -200 45
327338156.35939 -0.25907096 -3.7402718 -200 45 -200 45 -200 45
328338273.04551 -0.26935133 -3.7990375 -200 45 -200 45 -200 45
329338389.73162 -0.27395332 -3.8731101 -200 45 -200 45 -200 45
330338506.41774 -0.28224009 -3.9319069 -200 45 -200 45 -200 45
331338623.10385 -0.28449482 -3.9449275 -200 45 -200 45 -200 45
332338739.78997 -0.28466535 -3.9479868 -200 45 -200 45 -200 45
333338856.47608 -0.2862007 -3.9484684 -200 45 -200 45 -200 45
334338973.16219 -0.28643131 -3.9336481 -200 45 -200 45 -200 45
335339089.84831 -0.28445306 -3.9240906 -200 45 -200 45 -200 45
336339206.53442 -0.27958015 -3.875396 -200 45 -200 45 -200 45
337339323.22054 -0.27774245 -3.856663 -200 45 -200 45 -200 45
338339439.90665 -0.27850968 -3.8630385 -200 45 -200 45 -200 45
339339556.59277 -0.28294843 -3.8809896 -200 45 -200 45 -200 45
340339673.27888 -0.28645924 -3.8824298 -200 45 -200 45 -200 45
341339789.96499 -0.28391913 -3.8785567 -200 45 -200 45 -200 45
342339906.65111 -0.27993631 -3.845577 -200 45 -200 45 -200 45
343340023.33722 -0.28256193 -3.8631077 -200 45 -200 45 -200 45
344340140.02334 -0.28960788 -3.9158807 -200 45 -200 45 -200 45
345340256.70945 -0.29839543 -3.9801123 -200 45 -200 45 -200 45
346340373.39557 -0.30616233 -4.0535307 -200 45 -200 45 -200 45
347340490.08168 -0.31198573 -4.0799527 -200 45 -200 45 -200 45
348340606.76779 -0.3095324 -4.0831075 -200 45 -200 45 -200 45
349340723.45391 -0.31193623 -4.0781975 -200 45 -200 45 -200 45
350340840.14002 -0.31297073 -4.0903773 -200 45 -200 45 -200 45
351340956.82614 -0.31165031 -4.0700536 -200 45 -200 45 -200 45
352341073.51225 -0.30747136 -4.0215206 -200 45 -200 45 -200 45
353341190.19837 -0.30391049 -3.9848306 -200 45 -200 45 -200 45
354341306.88448 -0.3031657 -3.9841199 -200 45 -200 45 -200 45
355341423.5706 -0.30703461 -3.9935775 -200 45 -200 45 -200 45
356341540.25671 -0.31135914 -4.0242233 -200 45 -200 45 -200 45
357341656.94282 -0.30909044 -3.9980206 -200 45 -200 45 -200 45
358341773.62894 -0.30495948 -3.9810846 -200 45 -200 45 -200 45
359341890.31505 -0.30562043 -3.9689791 -200 45 -200 45 -200 45
360342007.00117 -0.31221825 -4.0145669 -200 45 -200 45 -200 45
361342123.68728 -0.32150018 -4.0816035 -200 45 -200 45 -200 45
362342240.3734 -0.32913989 -4.1622534 -200 45 -200 45 -200 45
363342357.05951 -0.33519721 -4.1961713 -200 45 -200 45 -200 45
364342473.74562 -0.33695561 -4.1922665 -200 45 -200 45 -200 45
365342590.43174 -0.33823588 -4.202816 -200 45 -200 45 -200 45
366342707.11785 -0.3385191 -4.2048602 -200 45 -200 45 -200 45
367342823.80397 -0.33667168 -4.1910944 -200 45 -200 45 -200 45
368342940.49008 -0.3349039 -4.1583509 -200 45 -200 45 -200 45
369343057.1762 -0.32916307 -4.1134186 -200 45 -200 45 -200 45
370343173.86231 -0.32800606 -4.0885091 -200 45 -200 45 -200 45
371343290.54842 -0.33037961 -4.1224318 -200 45 -200 45 -200 45
372343407.23454 -0.33475626 -4.1426487 -200 45 -200 45 -200 45
373343523.92065 -0.33453006 -4.1203856 -200 45 -200 45 -200 45
374343640.60677 -0.33203882 -4.1000352 -200 45 -200 45 -200 45
375343757.29288 -0.331442 -4.0839605 -200 45 -200 45 -200 45
376343873.979 -0.33462429 -4.1249619 -200 45 -200 45 -200 45
377343990.66511 -0.34615883 -4.1876264 -200 45 -200 45 -200 45
378344107.35123 -0.35511503 -4.2436028 -200 45 -200 45 -200 45
379344224.03734 -0.36125541 -4.3090987 -200 45 -200 45 -200 45
380344340.72345 -0.36411393 -4.3207211 -200 45 -200 45 -200 45
381344457.40957 -0.36459839 -4.3225594 -200 45 -200 45 -200 45
382344574.09568 -0.36573482 -4.3285451 -200 45 -200 45 -200 45
383344690.7818 -0.36536309 -4.3055916 -200 45 -200 45 -200 45
384344807.46791 -0.36047539 -4.2708101 -200 45 -200 45 -200 45
385344924.15403 -0.35536477 -4.2339239 -200 45 -200 45 -200 45
386345040.84014 -0.35368624 -4.2023787 -200 45 -200 45 -200 45
387345157.52625 -0.3568531 -4.2174206 -200 45 -200 45 -200 45
388345274.21237 -0.35970256 -4.2361979 -200 45 -200 45 -200 45
389345390.89848 -0.36080053 -4.2450538 -200 45 -200 45 -200 45
390345507.5846 -0.35810444 -4.2183685 -200 45 -200 45 -200 45
391345624.27071 -0.35438526 -4.1908951 -200 45 -200 45 -200 45
392345740.95683 -0.35833243 -4.2189522 -200 45 -200 45 -200 45
393345857.64294 -0.36661941 -4.2666588 -200 45 -200 45 -200 45
394345974.32905 -0.37687722 -4.3365183 -200 45 -200 45 -200 45
395346091.01517 -0.38815641 -4.410605 -200 45 -200 45 -200 45
396346207.70128 -0.38982111 -4.4142151 -200 45 -200 45 -200 45
397346324.3874 -0.39067864 -4.4191828 -200 45 -200 45 -200 45
398346441.07351 -0.39109811 -4.4258652 -200 45 -200 45 -200 45
399346557.75963 -0.39155871 -4.4215178 -200 45 -200 45 -200 45
400346674.44574 -0.38877946 -4.3913536 -200 45 -200 45 -200 45
401346791.13186 -0.38474515 -4.3370528 -200 45 -200 45 -200 45
402346907.81797 -0.38009861 -4.3128109 -200 45 -200 45 -200 45
403347024.50408 -0.37787056 -4.3056469 -200 45 -200 45 -200 45
404347141.1902 -0.38246748 -4.3294578 -200 45 -200 45 -200 45
405347257.87631 -0.38725665 -4.3562322 -200 45 -200 45 -200 45
406347374.56243 -0.38450333 -4.3279042 -200 45 -200 45 -200 45
407347491.24854 -0.37973672 -4.302382 -200 45 -200 45 -200 45
408347607.93466 -0.38371179 -4.3087258 -200 45 -200 45 -200 45
409347724.62077 -0.39066929 -4.3533721 -200 45 -200 45 -200 45
410347841.30688 -0.4024311 -4.4103441 -200 45 -200 45 -200 45
411347957.993 -0.4104161 -4.4838309 -200 45 -200 45 -200 45
412348074.67911 -0.41811964 -4.5135493 -200 45 -200 45 -200 45
413348191.36523 -0.41903266 -4.5067759 -200 45 -200 45 -200 45
414348308.05134 -0.42103893 -4.5132437 -200 45 -200 45 -200 45
415348424.73746 -0.42017797 -4.5148048 -200 45 -200 45 -200 45
416348541.42357 -0.41732135 -4.4898987 -200 45 -200 45 -200 45
417348658.10968 -0.41142195 -4.4447136 -200 45 -200 45 -200 45
418348774.7958 -0.40445048 -4.4051476 -200 45 -200 45 -200 45
419348891.48191 -0.40238851 -4.3833709 -200 45 -200 45 -200 45
420349008.16803 -0.40921104 -4.4148722 -200 45 -200 45 -200 45
421349124.85414 -0.4131836 -4.4345126 -200 45 -200 45 -200 45
422349241.54026 -0.41120967 -4.4197569 -200 45 -200 45 -200 45
423349358.22637 -0.40781981 -4.3943253 -200 45 -200 45 -200 45
424349474.91249 -0.40648672 -4.3867726 -200 45 -200 45 -200 45
425349591.5986 -0.4115873 -4.4072685 -200 45 -200 45 -200 45
426349708.28471 -0.42501691 -4.4862189 -200 45 -200 45 -200 45
427349824.97083 -0.43589422 -4.5383286 -200 45 -200 45 -200 45
428349941.65694 -0.44322973 -4.590477 -200 45 -200 45 -200 45
429350058.34306 -0.44582376 -4.5991554 -200 45 -200 45 -200 45
430350175.02917 -0.44468856 -4.5936408 -200 45 -200 45 -200 45
431350291.71529 -0.44467539 -4.5942712 -200 45 -200 45 -200 45
432350408.4014 -0.44283128 -4.5795498 -200 45 -200 45 -200 45
433350525.08751 -0.44142005 -4.5407834 -200 45 -200 45 -200 45
434350641.77363 -0.4332535 -4.4859433 -200 45 -200 45 -200 45
435350758.45974 -0.42962176 -4.4581313 -200 45 -200 45 -200 45
436350875.14586 -0.43428412 -4.4767189 -200 45 -200 45 -200 45
437350991.83197 -0.43773538 -4.495883 -200 45 -200 45 -200 45
438351108.51809 -0.43796471 -4.4822445 -200 45 -200 45 -200 45
439351225.2042 -0.4352555 -4.4679918 -200 45 -200 45 -200 45
440351341.89032 -0.43082762 -4.4289527 -200 45 -200 45 -200 45
441351458.57643 -0.43601844 -4.4614782 -200 45 -200 45 -200 45
442351575.26254 -0.44556674 -4.5273795 -200 45 -200 45 -200 45
443351691.94866 -0.45492253 -4.5900116 -200 45 -200 45 -200 45
444351808.63477 -0.46680626 -4.6467152 -200 45 -200 45 -200 45
445351925.32089 -0.47043291 -4.6600704 -200 45 -200 45 -200 45
446352042.007 -0.4703683 -4.6534491 -200 45 -200 45 -200 45
447352158.69312 -0.46919349 -4.6551433 -200 45 -200 45 -200 45
448352275.37923 -0.46871883 -4.6342192 -200 45 -200 45 -200 45
449352392.06534 -0.46470326 -4.6068487 -200 45 -200 45 -200 45
450352508.75146 -0.45579097 -4.5561061 -200 45 -200 45 -200 45
451352625.43757 -0.45209181 -4.5286336 -200 45 -200 45 -200 45
452352742.12369 -0.45310596 -4.5333042 -200 45 -200 45 -200 45
453352858.8098 -0.45778385 -4.5603962 -200 45 -200 45 -200 45
454352975.49592 -0.46122274 -4.5721231 -200 45 -200 45 -200 45
455353092.18203 -0.45705244 -4.5437698 -200 45 -200 45 -200 45
456353208.86814 -0.45538217 -4.5179591 -200 45 -200 45 -200 45
457353325.55426 -0.4576472 -4.531415 -200 45 -200 45 -200 45
458353442.24037 -0.46575925 -4.5693631 -200 45 -200 45 -200 45
459353558.92649 -0.47552371 -4.6437144 -200 45 -200 45 -200 45
460353675.6126 -0.48984239 -4.7170229 -200 45 -200 45 -200 45
461353792.29872 -0.49272856 -4.743804 -200 45 -200 45 -200 45
462353908.98483 -0.49561837 -4.7356825 -200 45 -200 45 -200 45
463354025.67095 -0.49464473 -4.7289858 -200 45 -200 45 -200 45
464354142.35706 -0.4949244 -4.7269039 -200 45 -200 45 -200 45
465354259.04317 -0.49324819 -4.7103901 -200 45 -200 45 -200 45
466354375.72929 -0.48488063 -4.6608396 -200 45 -200 45 -200 45
467354492.4154 -0.47783107 -4.610744 -200 45 -200 45 -200 45
468354609.10152 -0.47853449 -4.5960007 -200 45 -200 45 -200 45
469354725.78763 -0.48210409 -4.6190553 -200 45 -200 45 -200 45
470354842.47375 -0.48788083 -4.6547861 -200 45 -200 45 -200 45
471354959.15986 -0.48406363 -4.6202812 -200 45 -200 45 -200 45
472355075.84597 -0.48254871 -4.6121478 -200 45 -200 45 -200 45
473355192.53209 -0.4807457 -4.6027913 -200 45 -200 45 -200 45
474355309.2182 -0.48649514 -4.6253729 -200 45 -200 45 -200 45
475355425.90432 -0.50144476 -4.694797 -200 45 -200 45 -200 45
476355542.59043 -0.51167661 -4.7550292 -200 45 -200 45 -200 45
477355659.27655 -0.52025414 -4.7960868 -200 45 -200 45 -200 45
478355775.96266 -0.52081418 -4.7979016 -200 45 -200 45 -200 45
479355892.64877 -0.52159315 -4.7941961 -200 45 -200 45 -200 45
480356009.33489 -0.52094173 -4.7849469 -200 45 -200 45 -200 45
481356126.021 -0.51928228 -4.76614 -200 45 -200 45 -200 45
482356242.70712 -0.5125227 -4.7351294 -200 45 -200 45 -200 45
483356359.39323 -0.50570154 -4.6893482 -200 45 -200 45 -200 45
484356476.07935 -0.50076467 -4.6622024 -200 45 -200 45 -200 45
485356592.76546 -0.50706023 -4.6806307 -200 45 -200 45 -200 45
486356709.45158 -0.51201677 -4.7085104 -200 45 -200 45 -200 45
487356826.13769 -0.51036835 -4.6947799 -200 45 -200 45 -200 45
488356942.8238 -0.50655723 -4.6611867 -200 45 -200 45 -200 45
489357059.50992 -0.50508827 -4.6597738 -200 45 -200 45 -200 45
490357176.19603 -0.50959367 -4.6741228 -200 45 -200 45 -200 45
491357292.88215 -0.5236994 -4.7371292 -200 45 -200 45 -200 45
492357409.56826 -0.53294307 -4.8021111 -200 45 -200 45 -200 45
493357526.25438 -0.5442555 -4.8564329 -200 45 -200 45 -200 45
494357642.94049 -0.54608685 -4.8693504 -200 45 -200 45 -200 45
495357759.6266 -0.5467996 -4.8585615 -200 45 -200 45 -200 45
496357876.31272 -0.54685777 -4.8506041 -200 45 -200 45 -200 45
497357992.99883 -0.54530168 -4.8454885 -200 45 -200 45 -200 45
498358109.68495 -0.54047114 -4.7973161 -200 45 -200 45 -200 45
499358226.37106 -0.53174102 -4.7542763 -200 45 -200 45 -200 45
500358343.05718 -0.525473 -4.7219329 -200 45 -200 45 -200 45
501358459.74329 -0.52932471 -4.7351079 -200 45 -200 45 -200 45
502358576.4294 -0.53565216 -4.7625914 -200 45 -200 45 -200 45
503358693.11552 -0.53813177 -4.7588005 -200 45 -200 45 -200 45
504358809.80163 -0.53177816 -4.7294483 -200 45 -200 45 -200 45
505358926.48775 -0.52733237 -4.7069068 -200 45 -200 45 -200 45
506359043.17386 -0.53234607 -4.7220945 -200 45 -200 45 -200 45
507359159.85998 -0.5420475 -4.7785606 -200 45 -200 45 -200 45
508359276.54609 -0.55481005 -4.8374763 -200 45 -200 45 -200 45
509359393.23221 -0.56701195 -4.8982477 -200 45 -200 45 -200 45
510359509.91832 -0.57099223 -4.9005451 -200 45 -200 45 -200 45
511359626.60443 -0.57165539 -4.9128389 -200 45 -200 45 -200 45
512359743.29055 -0.57122165 -4.9041486 -200 45 -200 45 -200 45
513359859.97666 -0.57035577 -4.9005079 -200 45 -200 45 -200 45
514359976.66278 -0.56636781 -4.8711381 -200 45 -200 45 -200 45
515360093.34889 -0.55736595 -4.8315983 -200 45 -200 45 -200 45
516360210.03501 -0.54935902 -4.7838216 -200 45 -200 45 -200 45
517360326.72112 -0.55074877 -4.7775798 -200 45 -200 45 -200 45
518360443.40723 -0.55572957 -4.8072357 -200 45 -200 45 -200 45
519360560.09335 -0.56071496 -4.8292899 -200 45 -200 45 -200 45
520360676.77946 -0.55495149 -4.7985864 -200 45 -200 45 -200 45
521360793.46558 -0.5527066 -4.7751966 -200 45 -200 45 -200 45
522360910.15169 -0.55216038 -4.7776766 -200 45 -200 45 -200 45
523361026.83781 -0.56071144 -4.8203516 -200 45 -200 45 -200 45
524361143.52392 -0.5743373 -4.8918452 -200 45 -200 45 -200 45
525361260.21004 -0.58751827 -4.9463806 -200 45 -200 45 -200 45
526361376.89615 -0.59365451 -4.9769621 -200 45 -200 45 -200 45
527361493.58226 -0.5947566 -4.9771476 -200 45 -200 45 -200 45
528361610.26838 -0.59666634 -4.9754004 -200 45 -200 45 -200 45
529361726.95449 -0.59588242 -4.973381 -200 45 -200 45 -200 45
530361843.64061 -0.59362274 -4.945848 -200 45 -200 45 -200 45
531361960.32672 -0.58522296 -4.9136033 -200 45 -200 45 -200 45
532362077.01284 -0.57648849 -4.8547902 -200 45 -200 45 -200 45
533362193.69895 -0.57314676 -4.8519187 -200 45 -200 45 -200 45
534362310.38506 -0.57921481 -4.8562226 -200 45 -200 45 -200 45
535362427.07118 -0.58442658 -4.877563 -200 45 -200 45 -200 45
536362543.75729 -0.5811367 -4.8698411 -200 45 -200 45 -200 45
537362660.44341 -0.57769269 -4.8419566 -200 45 -200 45 -200 45
538362777.12952 -0.57521641 -4.8130465 -200 45 -200 45 -200 45
539362893.81564 -0.58100802 -4.8424959 -200 45 -200 45 -200 45
540363010.50175 -0.59414959 -4.9229808 -200 45 -200 45 -200 45
541363127.18786 -0.60529542 -4.9758091 -200 45 -200 45 -200 45
542363243.87398 -0.6168862 -5.022553 -200 45 -200 45 -200 45
543363360.56009 -0.62024623 -5.02425 -200 45 -200 45 -200 45
544363477.24621 -0.62095428 -5.0261555 -200 45 -200 45 -200 45
545363593.93232 -0.61959147 -5.0303197 -200 45 -200 45 -200 45
546363710.61844 -0.61925024 -5.0076618 -200 45 -200 45 -200 45
547363827.30455 -0.61272389 -4.9782128 -200 45 -200 45 -200 45
548363943.99067 -0.60184497 -4.9230623 -200 45 -200 45 -200 45
549364060.67678 -0.59734207 -4.8941255 -200 45 -200 45 -200 45
550364177.36289 -0.59950167 -4.9051552 -200 45 -200 45 -200 45
551364294.04901 -0.60717565 -4.9230285 -200 45 -200 45 -200 45
552364410.73512 -0.60807329 -4.9187002 -200 45 -200 45 -200 45
553364527.42124 -0.6042636 -4.8988886 -200 45 -200 45 -200 45
554364644.10735 -0.59695059 -4.8795457 -200 45 -200 45 -200 45
555364760.79347 -0.60374862 -4.8890481 -200 45 -200 45 -200 45
556364877.47958 -0.61363876 -4.9429898 -200 45 -200 45 -200 45
557364994.16569 -0.62857407 -5.0029106 -200 45 -200 45 -200 45
558365110.85181 -0.64054072 -5.0710216 -200 45 -200 45 -200 45
559365227.53792 -0.64553374 -5.0751839 -200 45 -200 45 -200 45
560365344.22404 -0.64593112 -5.0694084 -200 45 -200 45 -200 45
561365460.91015 -0.64439738 -5.0689907 -200 45 -200 45 -200 45
562365577.59627 -0.64264452 -5.0593853 -200 45 -200 45 -200 45
563365694.28238 -0.63832128 -5.0337172 -200 45 -200 45 -200 45
564365810.96849 -0.6292302 -4.9765763 -200 45 -200 45 -200 45
565365927.65461 -0.6216045 -4.9492455 -200 45 -200 45 -200 45
566366044.34072 -0.62304443 -4.9412847 -200 45 -200 45 -200 45
567366161.02684 -0.62825549 -4.9621577 -200 45 -200 45 -200 45
568366277.71295 -0.63328141 -4.9851766 -200 45 -200 45 -200 45
569366394.39907 -0.62817979 -4.9587865 -200 45 -200 45 -200 45
570366511.08518 -0.62274176 -4.9242644 -200 45 -200 45 -200 45
571366627.7713 -0.62494004 -4.9370522 -200 45 -200 45 -200 45
572366744.45741 -0.6326741 -4.9695907 -200 45 -200 45 -200 45
573366861.14352 -0.65021563 -5.0191994 -200 45 -200 45 -200 45
574366977.82964 -0.6631307 -5.1006107 -200 45 -200 45 -200 45
575367094.51575 -0.66900039 -5.1203899 -200 45 -200 45 -200 45
576367211.20187 -0.67092222 -5.1123776 -200 45 -200 45 -200 45
577367327.88798 -0.67125309 -5.1061273 -200 45 -200 45 -200 45
578367444.5741 -0.67089081 -5.0976095 -200 45 -200 45 -200 45
579367561.26021 -0.66710746 -5.084157 -200 45 -200 45 -200 45
580367677.94632 -0.65773219 -5.0406628 -200 45 -200 45 -200 45
581367794.63244 -0.64800626 -4.9856014 -200 45 -200 45 -200 45
582367911.31855 -0.64583921 -4.9819841 -200 45 -200 45 -200 45
583368028.00467 -0.65230334 -4.9913416 -200 45 -200 45 -200 45
584368144.69078 -0.65728736 -5.0168762 -200 45 -200 45 -200 45
585368261.3769 -0.65389192 -4.9950128 -200 45 -200 45 -200 45
586368378.06301 -0.65030038 -4.9766827 -200 45 -200 45 -200 45
587368494.74912 -0.64843243 -4.9654393 -200 45 -200 45 -200 45
588368611.43524 -0.65594292 -4.9967237 -200 45 -200 45 -200 45
589368728.12135 -0.67167819 -5.0491705 -200 45 -200 45 -200 45
590368844.80747 -0.68511045 -5.1148362 -200 45 -200 45 -200 45
591368961.49358 -0.69383585 -5.1318512 -200 45 -200 45 -200 45
592369078.1797 -0.69743472 -5.1504049 -200 45 -200 45 -200 45
593369194.86581 -0.69736719 -5.1450262 -200 45 -200 45 -200 45
594369311.55193 -0.69718665 -5.134995 -200 45 -200 45 -200 45
595369428.23804 -0.69447488 -5.1166172 -200 45 -200 45 -200 45
596369544.92415 -0.68641877 -5.0952425 -200 45 -200 45 -200 45
597369661.61027 -0.67555141 -5.0377469 -200 45 -200 45 -200 45
598369778.29638 -0.67120802 -5.0108328 -200 45 -200 45 -200 45
599369894.9825 -0.67602807 -5.0085783 -200 45 -200 45 -200 45
600370011.66861 -0.68114567 -5.0521455 -200 45 -200 45 -200 45
601370128.35473 -0.67957073 -5.036593 -200 45 -200 45 -200 45
602370245.04084 -0.67578852 -5.0142236 -200 45 -200 45 -200 45
603370361.72695 -0.67114186 -4.9975657 -200 45 -200 45 -200 45
604370478.41307 -0.67647243 -5.0126128 -200 45 -200 45 -200 45
605370595.09918 -0.68921143 -5.0584087 -200 45 -200 45 -200 45
606370711.7853 -0.70346171 -5.1311507 -200 45 -200 45 -200 45
607370828.47141 -0.71575063 -5.1879377 -200 45 -200 45 -200 45
608370945.15753 -0.72068149 -5.189887 -200 45 -200 45 -200 45
609371061.84364 -0.72098374 -5.1912274 -200 45 -200 45 -200 45
610371178.52976 -0.72041351 -5.1808672 -200 45 -200 45 -200 45
611371295.21587 -0.71972328 -5.1725736 -200 45 -200 45 -200 45
612371411.90198 -0.71441966 -5.154696 -200 45 -200 45 -200 45
613371528.5881 -0.70306486 -5.0951705 -200 45 -200 45 -200 45
614371645.27421 -0.69499159 -5.0604439 -200 45 -200 45 -200 45
615371761.96033 -0.69658643 -5.058454 -200 45 -200 45 -200 45
616371878.64644 -0.70277417 -5.0804658 -200 45 -200 45 -200 45
617371995.33256 -0.70679075 -5.0934963 -200 45 -200 45 -200 45
618372112.01867 -0.70223862 -5.0651903 -200 45 -200 45 -200 45
619372228.70478 -0.69555056 -5.0528183 -200 45 -200 45 -200 45
620372345.3909 -0.69890183 -5.0507655 -200 45 -200 45 -200 45
621372462.07701 -0.70952946 -5.0836806 -200 45 -200 45 -200 45
622372578.76313 -0.72507071 -5.1511774 -200 45 -200 45 -200 45
623372695.44924 -0.74067086 -5.2100391 -200 45 -200 45 -200 45
624372812.13536 -0.74709547 -5.2311902 -200 45 -200 45 -200 45
625372928.82147 -0.74816126 -5.2310047 -200 45 -200 45 -200 45
626373045.50758 -0.74713671 -5.2221298 -200 45 -200 45 -200 45
627373162.1937 -0.74444574 -5.2129407 -200 45 -200 45 -200 45
628373278.87981 -0.73981935 -5.1904907 -200 45 -200 45 -200 45
629373395.56593 -0.72841448 -5.127975 -200 45 -200 45 -200 45
630373512.25204 -0.72143608 -5.1051826 -200 45 -200 45 -200 45
631373628.93816 -0.72056234 -5.0952086 -200 45 -200 45 -200 45
632373745.62427 -0.72839552 -5.1080842 -200 45 -200 45 -200 45
633373862.31039 -0.73264056 -5.1262569 -200 45 -200 45 -200 45
634373978.9965 -0.72440511 -5.1031923 -200 45 -200 45 -200 45
635374095.68261 -0.7204175 -5.0769176 -200 45 -200 45 -200 45
636374212.36873 -0.72417361 -5.0853581 -200 45 -200 45 -200 45
637374329.05484 -0.73504847 -5.1318874 -200 45 -200 45 -200 45
638374445.74096 -0.75044984 -5.1727457 -200 45 -200 45 -200 45
639374562.42707 -0.76676476 -5.2361774 -200 45 -200 45 -200 45
640374679.11319 -0.77323651 -5.2557521 -200 45 -200 45 -200 45
641374795.7993 -0.77447021 -5.2441335 -200 45 -200 45 -200 45
642374912.48541 -0.77403551 -5.2418046 -200 45 -200 45 -200 45
643375029.17153 -0.77402252 -5.2323885 -200 45 -200 45 -200 45
644375145.85764 -0.76938272 -5.2122626 -200 45 -200 45 -200 45
645375262.54376 -0.75730002 -5.1785965 -200 45 -200 45 -200 45
646375379.22987 -0.74963486 -5.1305108 -200 45 -200 45 -200 45
647375495.91599 -0.74512577 -5.1070805 -200 45 -200 45 -200 45
648375612.6021 -0.75390774 -5.1252184 -200 45 -200 45 -200 45
649375729.28821 -0.75846785 -5.1509261 -200 45 -200 45 -200 45
650375845.97433 -0.75281382 -5.1160069 -200 45 -200 45 -200 45
651375962.66044 -0.74800318 -5.091599 -200 45 -200 45 -200 45
652376079.34656 -0.74817663 -5.0953126 -200 45 -200 45 -200 45
653376196.03267 -0.75665104 -5.1155286 -200 45 -200 45 -200 45
654376312.71879 -0.77380043 -5.1739578 -200 45 -200 45 -200 45
655376429.4049 -0.78866792 -5.225522 -200 45 -200 45 -200 45
656376546.09102 -0.79848135 -5.2576151 -200 45 -200 45 -200 45
657376662.77713 -0.79741031 -5.2540803 -200 45 -200 45 -200 45
658376779.46324 -0.79824769 -5.239996 -200 45 -200 45 -200 45
659376896.14936 -0.79770923 -5.2411861 -200 45 -200 45 -200 45
660377012.83547 -0.7942881 -5.2148657 -200 45 -200 45 -200 45
661377129.52159 -0.78455418 -5.1881633 -200 45 -200 45 -200 45
662377246.2077 -0.77119899 -5.1361055 -200 45 -200 45 -200 45
663377362.89382 -0.76828486 -5.1168489 -200 45 -200 45 -200 45
664377479.57993 -0.77340198 -5.1337047 -200 45 -200 45 -200 45
665377596.26604 -0.78161687 -5.1426425 -200 45 -200 45 -200 45
666377712.95216 -0.77731323 -5.122869 -200 45 -200 45 -200 45
667377829.63827 -0.77365345 -5.1116362 -200 45 -200 45 -200 45
668377946.32439 -0.76730341 -5.0962014 -200 45 -200 45 -200 45
669378063.0105 -0.77681941 -5.1190166 -200 45 -200 45 -200 45
670378179.69662 -0.79256558 -5.1730895 -200 45 -200 45 -200 45
671378296.38273 -0.80873144 -5.2165799 -200 45 -200 45 -200 45
672378413.06884 -0.81964314 -5.2629147 -200 45 -200 45 -200 45
673378529.75496 -0.82186431 -5.2591825 -200 45 -200 45 -200 45
674378646.44107 -0.82167131 -5.2500448 -200 45 -200 45 -200 45
675378763.12719 -0.82111335 -5.2421842 -200 45 -200 45 -200 45
676378879.8133 -0.81926328 -5.2345958 -200 45 -200 45 -200 45
677378996.49942 -0.81018549 -5.2172523 -200 45 -200 45 -200 45
678379113.18553 -0.79729992 -5.1589704 -200 45 -200 45 -200 45
679379229.87165 -0.79137957 -5.1211271 -200 45 -200 45 -200 45
680379346.55776 -0.79570681 -5.1336398 -200 45 -200 45 -200 45
681379463.24387 -0.804093 -5.1536541 -200 45 -200 45 -200 45
682379579.92999 -0.79995006 -5.1538892 -200 45 -200 45 -200 45
683379696.6161 -0.79590708 -5.1251845 -200 45 -200 45 -200 45
684379813.30222 -0.78990477 -5.110826 -200 45 -200 45 -200 45
685379929.98833 -0.79756647 -5.1175861 -200 45 -200 45 -200 45
686380046.67445 -0.81315374 -5.1768203 -200 45 -200 45 -200 45
687380163.36056 -0.82773304 -5.2337689 -200 45 -200 45 -200 45
688380280.04667 -0.84250695 -5.2718782 -200 45 -200 45 -200 45
689380396.73279 -0.8452754 -5.271317 -200 45 -200 45 -200 45
690380513.4189 -0.84601194 -5.276545 -200 45 -200 45 -200 45
691380630.10502 -0.84677601 -5.2658186 -200 45 -200 45 -200 45
692380746.79113 -0.84299284 -5.2508836 -200 45 -200 45 -200 45
693380863.47725 -0.83773977 -5.2199779 -200 45 -200 45 -200 45
694380980.16336 -0.82198346 -5.1854858 -200 45 -200 45 -200 45
695381096.84947 -0.81730062 -5.1426835 -200 45 -200 45 -200 45
696381213.53559 -0.81826091 -5.1413698 -200 45 -200 45 -200 45
697381330.2217 -0.82516515 -5.1636271 -200 45 -200 45 -200 45
698381446.90782 -0.82954156 -5.1650839 -200 45 -200 45 -200 45
699381563.59393 -0.82309401 -5.1527267 -200 45 -200 45 -200 45
700381680.28005 -0.81678665 -5.1205192 -200 45 -200 45 -200 45
701381796.96616 -0.81995076 -5.1285152 -200 45 -200 45 -200 45
702381913.65228 -0.83246291 -5.1742816 -200 45 -200 45 -200 45
703382030.33839 -0.84998697 -5.2186918 -200 45 -200 45 -200 45
704382147.0245 -0.86464864 -5.2612138 -200 45 -200 45 -200 45
705382263.71062 -0.87028164 -5.2688236 -200 45 -200 45 -200 45
706382380.39673 -0.8704493 -5.2559185 -200 45 -200 45 -200 45
707382497.08285 -0.87084091 -5.2629962 -200 45 -200 45 -200 45
708382613.76896 -0.86954856 -5.252018 -200 45 -200 45 -200 45
709382730.45508 -0.8634004 -5.2302814 -200 45 -200 45 -200 45
710382847.14119 -0.85053384 -5.1885381 -200 45 -200 45 -200 45
711382963.8273 -0.84082967 -5.1517797 -200 45 -200 45 -200 45
712383080.51342 -0.83826441 -5.1384277 -200 45 -200 45 -200 45
713383197.19953 -0.84683865 -5.1585097 -200 45 -200 45 -200 45
714383313.88565 -0.8515982 -5.168591 -200 45 -200 45 -200 45
715383430.57176 -0.84589559 -5.1487861 -200 45 -200 45 -200 45
716383547.25788 -0.83973622 -5.1313767 -200 45 -200 45 -200 45
717383663.94399 -0.84160006 -5.1173153 -200 45 -200 45 -200 45
718383780.63011 -0.84992176 -5.1504536 -200 45 -200 45 -200 45
719383897.31622 -0.86921364 -5.2120152 -200 45 -200 45 -200 45
720384014.00233 -0.8837114 -5.2600498 -200 45 -200 45 -200 45
721384130.68845 -0.89353138 -5.2693334 -200 45 -200 45 -200 45
722384247.37456 -0.89338034 -5.2691317 -200 45 -200 45 -200 45
723384364.06068 -0.8926214 -5.2677994 -200 45 -200 45 -200 45
724384480.74679 -0.8925432 -5.263567 -200 45 -200 45 -200 45
725384597.43291 -0.88625067 -5.2468319 -200 45 -200 45 -200 45
726384714.11902 -0.87592643 -5.2119622 -200 45 -200 45 -200 45
727384830.80513 -0.86246955 -5.1722941 -200 45 -200 45 -200 45
728384947.49125 -0.86092848 -5.1542993 -200 45 -200 45 -200 45
729385064.17736 -0.86525708 -5.1624575 -200 45 -200 45 -200 45
730385180.86348 -0.87494665 -5.1773281 -200 45 -200 45 -200 45
731385297.54959 -0.86961371 -5.1719227 -200 45 -200 45 -200 45
732385414.23571 -0.86342001 -5.1515784 -200 45 -200 45 -200 45
733385530.92182 -0.85983342 -5.1414447 -200 45 -200 45 -200 45
734385647.60793 -0.87090069 -5.1710076 -200 45 -200 45 -200 45
735385764.29405 -0.8897022 -5.2020688 -200 45 -200 45 -200 45
736385880.98016 -0.9048683 -5.250236 -200 45 -200 45 -200 45
737385997.66628 -0.91462761 -5.2873507 -200 45 -200 45 -200 45
738386114.35239 -0.91699958 -5.2868304 -200 45 -200 45 -200 45
739386231.03851 -0.91725987 -5.2760525 -200 45 -200 45 -200 45
740386347.72462 -0.91726816 -5.2729049 -200 45 -200 45 -200 45
741386464.41074 -0.91125077 -5.2673073 -200 45 -200 45 -200 45
742386581.09685 -0.90243161 -5.2284141 -200 45 -200 45 -200 45
743386697.78296 -0.88905096 -5.1888099 -200 45 -200 45 -200 45
744386814.46908 -0.88580436 -5.1644502 -200 45 -200 45 -200 45
745386931.15519 -0.88876599 -5.1636806 -200 45 -200 45 -200 45
746387047.84131 -0.89634115 -5.1894474 -200 45 -200 45 -200 45
747387164.52742 -0.89541334 -5.1746678 -200 45 -200 45 -200 45
748387281.21354 -0.88951254 -5.1630354 -200 45 -200 45 -200 45
749387397.89965 -0.88453513 -5.1484199 -200 45 -200 45 -200 45
750387514.58576 -0.8896479 -5.1597691 -200 45 -200 45 -200 45
751387631.27188 -0.90812153 -5.206758 -200 45 -200 45 -200 45
752387747.95799 -0.92356992 -5.2496223 -200 45 -200 45 -200 45
753387864.64411 -0.93769163 -5.2816467 -200 45 -200 45 -200 45
754387981.33022 -0.94218683 -5.2743163 -200 45 -200 45 -200 45
755388098.01634 -0.94100422 -5.272799 -200 45 -200 45 -200 45
756388214.70245 -0.94018388 -5.267714 -200 45 -200 45 -200 45
757388331.38856 -0.93651599 -5.2639041 -200 45 -200 45 -200 45
758388448.07468 -0.92928672 -5.2403769 -200 45 -200 45 -200 45
759388564.76079 -0.91542238 -5.1868749 -200 45 -200 45 -200 45
760388681.44691 -0.90651119 -5.159452 -200 45 -200 45 -200 45
761388798.13302 -0.90909541 -5.1576252 -200 45 -200 45 -200 45
762388914.81914 -0.91790545 -5.1755443 -200 45 -200 45 -200 45
763389031.50525 -0.91662329 -5.1823511 -200 45 -200 45 -200 45
764389148.19137 -0.91237575 -5.1560979 -200 45 -200 45 -200 45
765389264.87748 -0.90489954 -5.1507492 -200 45 -200 45 -200 45
766389381.56359 -0.91193664 -5.1575413 -200 45 -200 45 -200 45
767389498.24971 -0.92481792 -5.1901522 -200 45 -200 45 -200 45
768389614.93582 -0.94347239 -5.2307572 -200 45 -200 45 -200 45
769389731.62194 -0.95822829 -5.2721715 -200 45 -200 45 -200 45
770389848.30805 -0.96208549 -5.266551 -200 45 -200 45 -200 45
771389964.99417 -0.96489209 -5.261322 -200 45 -200 45 -200 45
772390081.68028 -0.96360278 -5.2617707 -200 45 -200 45 -200 45
773390198.36639 -0.9611975 -5.2611256 -200 45 -200 45 -200 45
774390315.05251 -0.95560342 -5.2284722 -200 45 -200 45 -200 45
775390431.73862 -0.9398644 -5.189281 -200 45 -200 45 -200 45
776390548.42474 -0.93203753 -5.1601129 -200 45 -200 45 -200 45
777390665.11085 -0.93100333 -5.1487236 -200 45 -200 45 -200 45
778390781.79697 -0.93805301 -5.1633172 -200 45 -200 45 -200 45
779390898.48308 -0.94405365 -5.1696053 -200 45 -200 45 -200 45
780391015.16919 -0.93651056 -5.1448936 -200 45 -200 45 -200 45
781391131.85531 -0.93064541 -5.117651 -200 45 -200 45 -200 45
782391248.54142 -0.93235004 -5.1300893 -200 45 -200 45 -200 45
783391365.22754 -0.94300079 -5.1548219 -200 45 -200 45 -200 45
784391481.91365 -0.96185803 -5.1997004 -200 45 -200 45 -200 45
785391598.59977 -0.97850716 -5.237741 -200 45 -200 45 -200 45
786391715.28588 -0.98560035 -5.2480516 -200 45 -200 45 -200 45
787391831.972 -0.98580658 -5.2507081 -200 45 -200 45 -200 45
788391948.65811 -0.98618311 -5.2386961 -200 45 -200 45 -200 45
789392065.34422 -0.98424256 -5.2459383 -200 45 -200 45 -200 45
790392182.03034 -0.9792797 -5.2149782 -200 45 -200 45 -200 45
791392298.71645 -0.96455753 -5.1732121 -200 45 -200 45 -200 45
792392415.40257 -0.95334536 -5.1515565 -200 45 -200 45 -200 45
793392532.08868 -0.95251977 -5.1279864 -200 45 -200 45 -200 45
794392648.7748 -0.95822668 -5.1358209 -200 45 -200 45 -200 45
795392765.46091 -0.96496612 -5.150578 -200 45 -200 45 -200 45
796392882.14702 -0.95717818 -5.1301346 -200 45 -200 45 -200 45
797392998.83314 -0.95285273 -5.1154332 -200 45 -200 45 -200 45
798393115.51925 -0.95124477 -5.1061149 -200 45 -200 45 -200 45
799393232.20537 -0.95972782 -5.1223745 -200 45 -200 45 -200 45
800393348.89148 -0.98013145 -5.1747971 -200 45 -200 45 -200 45
801393465.5776 -0.99567485 -5.2240896 -200 45 -200 45 -200 45
802393582.26371 -1.0058771 -5.2324839 -200 45 -200 45 -200 45
803393698.94983 -1.0064499 -5.2203889 -200 45 -200 45 -200 45
804393815.63594 -1.0068939 -5.2175846 -200 45 -200 45 -200 45
805393932.32205 -1.0054648 -5.2192593 -200 45 -200 45 -200 45
806394049.00817 -1.0010056 -5.1967683 -200 45 -200 45 -200 45
807394165.69428 -0.98979431 -5.1777878 -200 45 -200 45 -200 45
808394282.3804 -0.97544289 -5.1368246 -200 45 -200 45 -200 45
809394399.06651 -0.97229975 -5.1071906 -200 45 -200 45 -200 45
810394515.75263 -0.97536868 -5.1320062 -200 45 -200 45 -200 45
811394632.43874 -0.98485756 -5.1382051 -200 45 -200 45 -200 45
812394749.12485 -0.98034328 -5.1160998 -200 45 -200 45 -200 45
813394865.81097 -0.97486484 -5.1071172 -200 45 -200 45 -200 45
814394982.49708 -0.96910203 -5.100071 -200 45 -200 45 -200 45
815395099.1832 -0.97723877 -5.0978446 -200 45 -200 45 -200 45
816395215.86931 -0.99625766 -5.1483197 -200 45 -200 45 -200 45
817395332.55543 -1.0106294 -5.1891661 -200 45 -200 45 -200 45
818395449.24154 -1.0239383 -5.2099433 -200 45 -200 45 -200 45
819395565.92765 -1.027491 -5.2206516 -200 45 -200 45 -200 45
820395682.61377 -1.0253719 -5.2114234 -200 45 -200 45 -200 45
821395799.29988 -1.0262495 -5.2174258 -200 45 -200 45 -200 45
822395915.986 -1.0222069 -5.1961918 -200 45 -200 45 -200 45
823396032.67211 -1.0104612 -5.1789327 -200 45 -200 45 -200 45
824396149.35823 -0.99758339 -5.1313338 -200 45 -200 45 -200 45
825396266.04434 -0.99143195 -5.1085267 -200 45 -200 45 -200 45
826396382.73046 -0.9951387 -5.1145687 -200 45 -200 45 -200 45
827396499.41657 -1.0029875 -5.1375375 -200 45 -200 45 -200 45
828396616.10268 -1.0010532 -5.1250768 -200 45 -200 45 -200 45
829396732.7888 -0.99411929 -5.116879 -200 45 -200 45 -200 45
830396849.47491 -0.9879061 -5.0948381 -200 45 -200 45 -200 45
831396966.16103 -0.99422342 -5.1057224 -200 45 -200 45 -200 45
832397082.84714 -1.0111356 -5.1466894 -200 45 -200 45 -200 45
833397199.53326 -1.0261921 -5.1728354 -200 45 -200 45 -200 45
834397316.21937 -1.0410464 -5.2057409 -200 45 -200 45 -200 45
835397432.90548 -1.0455209 -5.2174158 -200 45 -200 45 -200 45
836397549.5916 -1.0458769 -5.2086158 -200 45 -200 45 -200 45
837397666.27771 -1.0441376 -5.2118802 -200 45 -200 45 -200 45
838397782.96383 -1.0411376 -5.1941571 -200 45 -200 45 -200 45
839397899.64994 -1.0363899 -5.1818585 -200 45 -200 45 -200 45
840398016.33606 -1.0214212 -5.1498742 -200 45 -200 45 -200 45
841398133.02217 -1.014214 -5.1260138 -200 45 -200 45 -200 45
842398249.70828 -1.0150374 -5.1280251 -200 45 -200 45 -200 45
843398366.3944 -1.0216203 -5.1267462 -200 45 -200 45 -200 45
844398483.08051 -1.0237687 -5.1455874 -200 45 -200 45 -200 45
845398599.76663 -1.0174364 -5.1185746 -200 45 -200 45 -200 45
846398716.45274 -1.0099467 -5.1021018 -200 45 -200 45 -200 45
847398833.13886 -1.0141709 -5.1163893 -200 45 -200 45 -200 45
848398949.82497 -1.027674 -5.134191 -200 45 -200 45 -200 45
849399066.51109 -1.0449417 -5.1709599 -200 45 -200 45 -200 45
850399183.1972 -1.0610451 -5.2085428 -200 45 -200 45 -200 45
851399299.88331 -1.066734 -5.2194743 -200 45 -200 45 -200 45
852399416.56943 -1.0664921 -5.2231164 -200 45 -200 45 -200 45
853399533.25554 -1.0671179 -5.2067714 -200 45 -200 45 -200 45
854399649.94166 -1.0650138 -5.2070498 -200 45 -200 45 -200 45
855399766.62777 -1.0586975 -5.2031326 -200 45 -200 45 -200 45
856399883.31389 -1.0469853 -5.1646781 -200 45 -200 45 -200 45
857400000 -1.0347126 -5.1360669 -200 45 -200 45 -200 45
858400116.68611 -1.0320154 -5.1307344 -200 45 -200 45 -200 45
859400233.37223 -1.0389118 -5.1375151 -200 45 -200 45 -200 45
860400350.05834 -1.0459234 -5.1489916 -200 45 -200 45 -200 45
861400466.74446 -1.0392888 -5.1332836 -200 45 -200 45 -200 45
862400583.43057 -1.0330819 -5.1184354 -200 45 -200 45 -200 45
863400700.11669 -1.032632 -5.1169901 -200 45 -200 45 -200 45
864400816.8028 -1.0427144 -5.139792 -200 45 -200 45 -200 45
865400933.48891 -1.0619999 -5.1675825 -200 45 -200 45 -200 45
866401050.17503 -1.0815166 -5.2172618 -200 45 -200 45 -200 45
867401166.86114 -1.0884553 -5.2300181 -200 45 -200 45 -200 45
868401283.54726 -1.0884932 -5.2272072 -200 45 -200 45 -200 45
869401400.23337 -1.0880795 -5.2179322 -200 45 -200 45 -200 45
870401516.91949 -1.0892063 -5.2191334 -200 45 -200 45 -200 45
871401633.6056 -1.0821844 -5.2102199 -200 45 -200 45 -200 45
872401750.29172 -1.073246 -5.181489 -200 45 -200 45 -200 45
873401866.97783 -1.0588855 -5.13445 -200 45 -200 45 -200 45
874401983.66394 -1.0538706 -5.1359458 -200 45 -200 45 -200 45
875402100.35006 -1.0608886 -5.139235 -200 45 -200 45 -200 45
876402217.03617 -1.0679934 -5.1403069 -200 45 -200 45 -200 45
877402333.72229 -1.0631157 -5.1299987 -200 45 -200 45 -200 45
878402450.4084 -1.0562525 -5.118031 -200 45 -200 45 -200 45
879402567.09452 -1.0516526 -5.1159916 -200 45 -200 45 -200 45
880402683.78063 -1.0617514 -5.1309199 -200 45 -200 45 -200 45
881402800.46674 -1.0805365 -5.1660795 -200 45 -200 45 -200 45
882402917.15286 -1.0967277 -5.1942 -200 45 -200 45 -200 45
883403033.83897 -1.1094686 -5.2193947 -200 45 -200 45 -200 45
884403150.52509 -1.113346 -5.2144246 -200 45 -200 45 -200 45
885403267.2112 -1.1117657 -5.215939 -200 45 -200 45 -200 45
886403383.89732 -1.1105251 -5.2132382 -200 45 -200 45 -200 45
887403500.58343 -1.1083187 -5.2023735 -200 45 -200 45 -200 45
888403617.26954 -1.0970759 -5.1747913 -200 45 -200 45 -200 45
889403733.95566 -1.0826246 -5.1550694 -200 45 -200 45 -200 45
890403850.64177 -1.0763429 -5.1226583 -200 45 -200 45 -200 45
891403967.32789 -1.0797824 -5.1271033 -200 45 -200 45 -200 45
892404084.014 -1.0906134 -5.1474414 -200 45 -200 45 -200 45
893404200.70012 -1.0874802 -5.1297436 -200 45 -200 45 -200 45
894404317.38623 -1.0813586 -5.1140079 -200 45 -200 45 -200 45
895404434.07235 -1.0746481 -5.1069322 -200 45 -200 45 -200 45
896404550.75846 -1.0812929 -5.1173687 -200 45 -200 45 -200 45
897404667.44457 -1.0996161 -5.1461387 -200 45 -200 45 -200 45
898404784.13069 -1.1167419 -5.175446 -200 45 -200 45 -200 45
899404900.8168 -1.1318445 -5.2032866 -200 45 -200 45 -200 45
900405017.50292 -1.1365306 -5.20859 -200 45 -200 45 -200 45
901405134.18903 -1.1363766 -5.1792917 -200 45 -200 45 -200 45
902405250.87515 -1.1351678 -5.1765876 -200 45 -200 45 -200 45
903405367.56126 -1.1330235 -5.1787329 -200 45 -200 45 -200 45
904405484.24737 -1.1243353 -5.1617994 -200 45 -200 45 -200 45
905405600.93349 -1.1077263 -5.1226687 -200 45 -200 45 -200 45
906405717.6196 -1.0997738 -5.1020269 -200 45 -200 45 -200 45
907405834.30572 -1.1016825 -5.0924315 -200 45 -200 45 -200 45
908405950.99183 -1.1115308 -5.101316 -200 45 -200 45 -200 45
909406067.67795 -1.1119521 -5.1024294 -200 45 -200 45 -200 45
910406184.36406 -1.1047368 -5.0958571 -200 45 -200 45 -200 45
911406301.05018 -1.0984591 -5.0768418 -200 45 -200 45 -200 45
912406417.73629 -1.1034113 -5.0776014 -200 45 -200 45 -200 45
913406534.4224 -1.1187905 -5.1095543 -200 45 -200 45 -200 45
914406651.10852 -1.1342579 -5.1393886 -200 45 -200 45 -200 45
915406767.79463 -1.1541122 -5.1648531 -200 45 -200 45 -200 45
916406884.48075 -1.1588116 -5.1664371 -200 45 -200 45 -200 45
917407001.16686 -1.1578443 -5.1600189 -200 45 -200 45 -200 45
918407117.85298 -1.1565984 -5.1444807 -200 45 -200 45 -200 45
919407234.53909 -1.155691 -5.1388998 -200 45 -200 45 -200 45
920407351.2252 -1.146172 -5.1237702 -200 45 -200 45 -200 45
921407467.91132 -1.1314989 -5.1015048 -200 45 -200 45 -200 45
922407584.59743 -1.1222278 -5.0793457 -200 45 -200 45 -200 45
923407701.28355 -1.1209459 -5.0734529 -200 45 -200 45 -200 45
924407817.96966 -1.130271 -5.075098 -200 45 -200 45 -200 45
925407934.65578 -1.1346525 -5.0772548 -200 45 -200 45 -200 45
926408051.34189 -1.1289263 -5.0605178 -200 45 -200 45 -200 45
927408168.028 -1.1197681 -5.0447326 -200 45 -200 45 -200 45
928408284.71412 -1.1228365 -5.0577211 -200 45 -200 45 -200 45
929408401.40023 -1.1337473 -5.0562077 -200 45 -200 45 -200 45
930408518.08635 -1.1533418 -5.094749 -200 45 -200 45 -200 45
931408634.77246 -1.1720742 -5.1212311 -200 45 -200 45 -200 45
932408751.45858 -1.1798306 -5.1335721 -200 45 -200 45 -200 45
933408868.14469 -1.1805052 -5.1065192 -200 45 -200 45 -200 45
934408984.83081 -1.1801325 -5.1163588 -200 45 -200 45 -200 45
935409101.51692 -1.1768354 -5.1155643 -200 45 -200 45 -200 45
936409218.20303 -1.1701993 -5.0962806 -200 45 -200 45 -200 45
937409334.88915 -1.155892 -5.0701365 -200 45 -200 45 -200 45
938409451.57526 -1.1416466 -5.0511279 -200 45 -200 45 -200 45
939409568.26138 -1.1408811 -5.0496039 -200 45 -200 45 -200 45
940409684.94749 -1.1488219 -5.0430741 -200 45 -200 45 -200 45
941409801.63361 -1.1545576 -5.0533977 -200 45 -200 45 -200 45
942409918.31972 -1.1510069 -5.0299926 -200 45 -200 45 -200 45
943410035.00583 -1.1425153 -5.0287123 -200 45 -200 45 -200 45
944410151.69195 -1.1386687 -5.0219979 -200 45 -200 45 -200 45
945410268.37806 -1.1485221 -5.0413818 -200 45 -200 45 -200 45
946410385.06418 -1.1702427 -5.05581 -200 45 -200 45 -200 45
947410501.75029 -1.1879737 -5.0985661 -200 45 -200 45 -200 45
948410618.43641 -1.1963198 -5.102345 -200 45 -200 45 -200 45
949410735.12252 -1.1971109 -5.0977464 -200 45 -200 45 -200 45
950410851.80863 -1.1987191 -5.0898523 -200 45 -200 45 -200 45
951410968.49475 -1.1961743 -5.0825515 -200 45 -200 45 -200 45
952411085.18086 -1.1912395 -5.085814 -200 45 -200 45 -200 45
953411201.86698 -1.1794447 -5.0686975 -200 45 -200 45 -200 45
954411318.55309 -1.1646935 -5.0358305 -200 45 -200 45 -200 45
955411435.23921 -1.1582326 -5.0213037 -200 45 -200 45 -200 45
956411551.92532 -1.1643133 -5.0194821 -200 45 -200 45 -200 45
957411668.61144 -1.1740428 -5.0257154 -200 45 -200 45 -200 45
958411785.29755 -1.1710286 -5.023665 -200 45 -200 45 -200 45
959411901.98366 -1.1635674 -5.0120187 -200 45 -200 45 -200 45
960412018.66978 -1.1563319 -5.0052004 -200 45 -200 45 -200 45
961412135.35589 -1.1639752 -5.0138364 -200 45 -200 45 -200 45
962412252.04201 -1.1834587 -5.0399809 -200 45 -200 45 -200 45
963412368.72812 -1.1997031 -5.0605745 -200 45 -200 45 -200 45
964412485.41424 -1.2145182 -5.0947418 -200 45 -200 45 -200 45
965412602.10035 -1.2167573 -5.096468 -200 45 -200 45 -200 45
966412718.78646 -1.2172489 -5.087018 -200 45 -200 45 -200 45
967412835.47258 -1.2153955 -5.0801339 -200 45 -200 45 -200 45
968412952.15869 -1.2122207 -5.0852737 -200 45 -200 45 -200 45
969413068.84481 -1.2036921 -5.0682173 -200 45 -200 45 -200 45
970413185.53092 -1.1846327 -5.0388298 -200 45 -200 45 -200 45
971413302.21704 -1.1783675 -5.0198026 -200 45 -200 45 -200 45
972413418.90315 -1.1796614 -5.0075989 -200 45 -200 45 -200 45
973413535.58926 -1.1893097 -5.0180349 -200 45 -200 45 -200 45
974413652.27538 -1.1902755 -5.0197372 -200 45 -200 45 -200 45
975413768.96149 -1.183887 -5.0269508 -200 45 -200 45 -200 45
976413885.64761 -1.1767832 -5.0193992 -200 45 -200 45 -200 45
977414002.33372 -1.1810552 -5.0168943 -200 45 -200 45 -200 45
978414119.01984 -1.1959496 -5.0405226 -200 45 -200 45 -200 45
979414235.70595 -1.2141104 -5.0705419 -200 45 -200 45 -200 45
980414352.39207 -1.2328935 -5.0920725 -200 45 -200 45 -200 45
981414469.07818 -1.2383333 -5.09413 -200 45 -200 45 -200 45
982414585.76429 -1.2355652 -5.1000013 -200 45 -200 45 -200 45
983414702.45041 -1.2361361 -5.0844936 -200 45 -200 45 -200 45
984414819.13652 -1.2333573 -5.082128 -200 45 -200 45 -200 45
985414935.82264 -1.2259367 -5.0809999 -200 45 -200 45 -200 45
986415052.50875 -1.2102453 -5.0417137 -200 45 -200 45 -200 45
987415169.19487 -1.1986092 -5.0291123 -200 45 -200 45 -200 45
988415285.88098 -1.1974025 -5.0244489 -200 45 -200 45 -200 45
989415402.56709 -1.2081876 -5.0311966 -200 45 -200 45 -200 45
990415519.25321 -1.2125154 -5.0416436 -200 45 -200 45 -200 45
991415635.93932 -1.205164 -5.0274148 -200 45 -200 45 -200 45
992415752.62544 -1.1982255 -5.0190401 -200 45 -200 45 -200 45
993415869.31155 -1.2004484 -5.0280652 -200 45 -200 45 -200 45
994415985.99767 -1.2129945 -5.0459027 -200 45 -200 45 -200 45
995416102.68378 -1.2321732 -5.0673852 -200 45 -200 45 -200 45
996416219.36989 -1.2494546 -5.0986552 -200 45 -200 45 -200 45
997416336.05601 -1.2591165 -5.1011753 -200 45 -200 45 -200 45
998416452.74212 -1.2589712 -5.0919814 -200 45 -200 45 -200 45
999416569.42824 -1.2587322 -5.0862799 -200 45 -200 45 -200 45
1000416686.1144 -1.2564859 -5.0812802 -200 45 -200 45 -200 45
1001416802.8005 -1.2506995 -5.0868416 -200 45 -200 45 -200 45
1002416919.4866 -1.2365173 -5.0578008 -200 45 -200 45 -200 45
1003417036.1727 -1.2231332 -5.0369964 -200 45 -200 45 -200 45
1004417152.8588 -1.2193882 -5.0354347 -200 45 -200 45 -200 45
1005417269.5449 -1.2287811 -5.0402417 -200 45 -200 45 -200 45
1006417386.231 -1.2375416 -5.0359521 -200 45 -200 45 -200 45
1007417502.9172 -1.2307402 -5.029995 -200 45 -200 45 -200 45
1008417619.6033 -1.2237594 -5.0217066 -200 45 -200 45 -200 45
1009417736.2894 -1.221954 -5.0217137 -200 45 -200 45 -200 45
1010417852.9755 -1.2307385 -5.0341239 -200 45 -200 45 -200 45
1011417969.6616 -1.2518009 -5.0653772 -200 45 -200 45 -200 45
1012418086.3477 -1.2708678 -5.0855594 -200 45 -200 45 -200 45
1013418203.0338 -1.2813034 -5.0960183 -200 45 -200 45 -200 45
1014418319.72 -1.2825594 -5.0846634 -200 45 -200 45 -200 45
1015418436.4061 -1.2819998 -5.0810428 -200 45 -200 45 -200 45
1016418553.0922 -1.2815307 -5.0872173 -200 45 -200 45 -200 45
1017418669.7783 -1.2773186 -5.0744891 -200 45 -200 45 -200 45
1018418786.4644 -1.2657636 -5.0564451 -200 45 -200 45 -200 45
1019418903.1505 -1.2488034 -5.0415592 -200 45 -200 45 -200 45
1020419019.8366 -1.2445004 -5.0143204 -200 45 -200 45 -200 45
1021419136.5228 -1.2517264 -5.0267768 -200 45 -200 45 -200 45
1022419253.2089 -1.2616415 -5.0269861 -200 45 -200 45 -200 45
1023419369.895 -1.2579609 -5.0262785 -200 45 -200 45 -200 45
1024419486.5811 -1.2512208 -5.0139403 -200 45 -200 45 -200 45
1025419603.2672 -1.2455593 -5.0052323 -200 45 -200 45 -200 45
1026419719.9533 -1.2549077 -5.022275 -200 45 -200 45 -200 45
1027419836.6394 -1.2742096 -5.0356817 -200 45 -200 45 -200 45
1028419953.3256 -1.2911403 -5.0565567 -200 45 -200 45 -200 45
1029420070.0117 -1.3058047 -5.0812149 -200 45 -200 45 -200 45
1030420186.6978 -1.309689 -5.0743933 -200 45 -200 45 -200 45
1031420303.3839 -1.3091466 -5.0623822 -200 45 -200 45 -200 45
1032420420.07 -1.3090413 -5.0618901 -200 45 -200 45 -200 45
1033420536.7561 -1.3055305 -5.0463886 -200 45 -200 45 -200 45
1034420653.4422 -1.294901 -5.0380039 -200 45 -200 45 -200 45
1035420770.1284 -1.2781489 -5.0135245 -200 45 -200 45 -200 45
1036420886.8145 -1.2689227 -5.0089483 -200 45 -200 45 -200 45
1037421003.5006 -1.2743416 -5.0018144 -200 45 -200 45 -200 45
1038421120.1867 -1.2834704 -5.0031433 -200 45 -200 45 -200 45
1039421236.8728 -1.2846459 -5.0016394 -200 45 -200 45 -200 45
1040421353.5589 -1.2773186 -4.9971118 -200 45 -200 45 -200 45
1041421470.245 -1.2714912 -4.9825149 -200 45 -200 45 -200 45
1042421586.9312 -1.2770983 -4.9878349 -200 45 -200 45 -200 45
1043421703.6173 -1.2943408 -5.0104508 -200 45 -200 45 -200 45
1044421820.3034 -1.3100841 -5.0425458 -200 45 -200 45 -200 45
1045421936.9895 -1.3269819 -5.0423231 -200 45 -200 45 -200 45
1046422053.6756 -1.3317343 -5.0510507 -200 45 -200 45 -200 45
1047422170.3617 -1.3328305 -5.0359297 -200 45 -200 45 -200 45
1048422287.0478 -1.3324274 -5.0344343 -200 45 -200 45 -200 45
1049422403.734 -1.3291979 -5.0284467 -200 45 -200 45 -200 45
1050422520.4201 -1.321123 -5.022666 -200 45 -200 45 -200 45
1051422637.1062 -1.3058026 -5.010428 -200 45 -200 45 -200 45
1052422753.7923 -1.2960776 -4.9864726 -200 45 -200 45 -200 45
1053422870.4784 -1.2951193 -4.9894562 -200 45 -200 45 -200 45
1054422987.1645 -1.3058938 -4.9860921 -200 45 -200 45 -200 45
1055423103.8506 -1.3102428 -4.9904571 -200 45 -200 45 -200 45
1056423220.5368 -1.3031337 -4.9897985 -200 45 -200 45 -200 45
1057423337.2229 -1.2953585 -4.9898386 -200 45 -200 45 -200 45
1058423453.909 -1.3013166 -4.9779181 -200 45 -200 45 -200 45
1059423570.5951 -1.3114035 -4.9882102 -200 45 -200 45 -200 45
1060423687.2812 -1.3325765 -5.0035448 -200 45 -200 45 -200 45
1061423803.9673 -1.3524785 -5.0180669 -200 45 -200 45 -200 45
1062423920.6534 -1.3571672 -5.0202417 -200 45 -200 45 -200 45
1063424037.3396 -1.3577369 -5.0213671 -200 45 -200 45 -200 45
1064424154.0257 -1.3563985 -5.0115328 -200 45 -200 45 -200 45
1065424270.7118 -1.3547018 -5.0141416 -200 45 -200 45 -200 45
1066424387.3979 -1.3472521 -5.0039787 -200 45 -200 45 -200 45
1067424504.084 -1.3322999 -5.0031371 -200 45 -200 45 -200 45
1068424620.7701 -1.321071 -4.9871116 -200 45 -200 45 -200 45
1069424737.4562 -1.3179412 -4.9782233 -200 45 -200 45 -200 45
1070424854.1424 -1.3270501 -4.9778643 -200 45 -200 45 -200 45
1071424970.8285 -1.3319644 -4.9867268 -200 45 -200 45 -200 45
1072425087.5146 -1.3247896 -5.0038013 -200 45 -200 45 -200 45
1073425204.2007 -1.3196726 -4.9860034 -200 45 -200 45 -200 45
1074425320.8868 -1.3183308 -4.9985542 -200 45 -200 45 -200 45
1075425437.5729 -1.3272536 -4.9979634 -200 45 -200 45 -200 45
1076425554.259 -1.3486239 -5.0223866 -200 45 -200 45 -200 45
1077425670.9452 -1.3662019 -5.0503621 -200 45 -200 45 -200 45
1078425787.6313 -1.3775688 -5.0629296 -200 45 -200 45 -200 45
1079425904.3174 -1.3776268 -5.0583878 -200 45 -200 45 -200 45
1080426021.0035 -1.3780086 -5.0629373 -200 45 -200 45 -200 45
1081426137.6896 -1.3772749 -5.0721092 -200 45 -200 45 -200 45
1082426254.3757 -1.3734572 -5.073411 -200 45 -200 45 -200 45
1083426371.0618 -1.3610635 -5.0765967 -200 45 -200 45 -200 45
1084426487.748 -1.3481157 -5.058073 -200 45 -200 45 -200 45
1085426604.4341 -1.3419969 -5.0602531 -200 45 -200 45 -200 45
1086426721.1202 -1.3487378 -5.0765295 -200 45 -200 45 -200 45
1087426837.8063 -1.3589261 -5.0830846 -200 45 -200 45 -200 45
1088426954.4924 -1.3581017 -5.1017909 -200 45 -200 45 -200 45
1089427071.1785 -1.3554395 -5.1048584 -200 45 -200 45 -200 45
1090427187.8646 -1.3558565 -5.0797243 -200 45 -200 45 -200 45
1091427304.5508 -1.3620442 -5.0297356 -200 45 -200 45 -200 45
1092427421.2369 -1.3774462 -5.064147 -200 45 -200 45 -200 45
1093427537.923 -1.3918355 -5.1058679 -200 45 -200 45 -200 45
1094427654.6091 -1.407289 -5.1393147 -200 45 -200 45 -200 45
1095427771.2952 -1.4086947 -5.1275468 -200 45 -200 45 -200 45
1096427887.9813 -1.4065245 -5.1504622 -200 45 -200 45 -200 45
1097428004.6674 -1.4065149 -5.1770277 -200 45 -200 45 -200 45
1098428121.3536 -1.4047645 -5.2012143 -200 45 -200 45 -200 45
1099428238.0397 -1.3959804 -5.2028227 -200 45 -200 45 -200 45
1100428354.7258 -1.3816631 -5.2238836 -200 45 -200 45 -200 45
1101428471.4119 -1.3759866 -5.2438302 -200 45 -200 45 -200 45
1102428588.098 -1.3820397 -5.2727523 -200 45 -200 45 -200 45
1103428704.7841 -1.3926573 -5.3008466 -200 45 -200 45 -200 45
1104428821.4702 -1.3921287 -5.3430805 -200 45 -200 45 -200 45
1105428938.1564 -1.3899068 -5.4165907 -200 45 -200 45 -200 45
1106429054.8425 -1.3921572 -5.4940882 -200 45 -200 45 -200 45
1107429171.5286 -1.4186795 -5.5371165 -200 45 -200 45 -200 45
1108429288.2147 -1.4448965 -5.5151854 -200 45 -200 45 -200 45
1109429404.9008 -1.4676923 -5.5770392 -200 45 -200 45 -200 45
1110429521.5869 -1.4962604 -5.670104 -200 45 -200 45 -200 45
1111429638.273 -1.5342753 -5.7617393 -200 45 -200 45 -200 45
1112429754.9592 -1.5949475 -5.6095619 -200 45 -200 45 -200 45
1113429871.6453 -1.5866036 -4.9769688 -200 45 -200 45 -200 45
1114429988.3314 -1.5107639 -4.95854 -200 45 -200 45 -200 45
1115430105.0175 -1.4802339 -5.1989622 -200 45 -200 45 -200 45
1116430221.7036 -1.4684879 -5.4208102 -200 45 -200 45 -200 45
1117430338.3897 -1.4740847 -5.5708895 -200 45 -200 45 -200 45
1118430455.0758 -1.4912965 -5.7024522 -200 45 -200 45 -200 45
1119430571.762 -1.5201359 -5.9206319 -200 45 -200 45 -200 45
1120430688.4481 -1.5632744 -6.1716661 -200 45 -200 45 -200 45
1121430805.1342 -1.6274198 -6.4567456 -200 45 -200 45 -200 45
1122430921.8203 -1.7424973 -6.6361027 -200 45 -200 45 -200 45
1123431038.5064 -1.94794 -6.29141 -200 45 -200 45 -200 45
1124431155.1925 -2.1040206 -4.567977 -200 45 -200 45 -200 45
1125431271.8786 -2.0134473 -2.9124982 -200 45 -200 45 -200 45
1126431388.5648 -1.8554913 -2.2860823 -200 45 -200 45 -200 45
1127431505.2509 -1.7331204 -2.3432424 -200 45 -200 45 -200 45
1128431621.937 -1.6672561 -2.518656 -200 45 -200 45 -200 45
1129431738.6231 -1.6314242 -2.5595512 -200 45 -200 45 -200 45
1130431855.3092 -1.5843897 -2.5472806 -200 45 -200 45 -200 45
1131431971.9953 -1.5297129 -2.5908258 -200 45 -200 45 -200 45
1132432088.6814 -1.4750862 -2.7110698 -200 45 -200 45 -200 45
1133432205.3676 -1.4335243 -2.8706362 -200 45 -200 45 -200 45
1134432322.0537 -1.413188 -3.0406833 -200 45 -200 45 -200 45
1135432438.7398 -1.4114877 -3.1920223 -200 45 -200 45 -200 45
1136432555.4259 -1.411272 -3.3032765 -200 45 -200 45 -200 45
1137432672.112 -1.3995575 -3.3979328 -200 45 -200 45 -200 45
1138432788.7981 -1.3910288 -3.4612362 -200 45 -200 45 -200 45
1139432905.4842 -1.3853798 -3.5339506 -200 45 -200 45 -200 45
1140433022.1704 -1.3925792 -3.5976272 -200 45 -200 45 -200 45
1141433138.8565 -1.4114465 -3.6734393 -200 45 -200 45 -200 45
1142433255.5426 -1.4277666 -3.722559 -200 45 -200 45 -200 45
1143433372.2287 -1.4360316 -3.7545846 -200 45 -200 45 -200 45
1144433488.9148 -1.435565 -3.8001661 -200 45 -200 45 -200 45
1145433605.6009 -1.434811 -3.8383875 -200 45 -200 45 -200 45
1146433722.287 -1.4344372 -3.868372 -200 45 -200 45 -200 45
1147433838.9732 -1.4285663 -3.8881462 -200 45 -200 45 -200 45
1148433955.6593 -1.4166882 -3.8963938 -200 45 -200 45 -200 45
1149434072.3454 -1.4002868 -3.9174321 -200 45 -200 45 -200 45
1150434189.0315 -1.3951722 -3.9163382 -200 45 -200 45 -200 45
1151434305.7176 -1.4037838 -3.9302979 -200 45 -200 45 -200 45
1152434422.4037 -1.4106784 -3.9386005 -200 45 -200 45 -200 45
1153434539.0898 -1.4068581 -3.9669013 -200 45 -200 45 -200 45
1154434655.776 -1.4001045 -3.9815025 -200 45 -200 45 -200 45
1155434772.4621 -1.3947228 -3.9902773 -200 45 -200 45 -200 45
1156434889.1482 -1.4028448 -4.007195 -200 45 -200 45 -200 45
1157435005.8343 -1.4225807 -4.031003 -200 45 -200 45 -200 45
1158435122.5204 -1.4411675 -4.0515246 -200 45 -200 45 -200 45
1159435239.2065 -1.4540824 -4.0685339 -200 45 -200 45 -200 45
1160435355.8926 -1.4549305 -4.0677762 -200 45 -200 45 -200 45
1161435472.5788 -1.4544945 -4.0678754 -200 45 -200 45 -200 45
1162435589.2649 -1.4543668 -4.0684958 -200 45 -200 45 -200 45
1163435705.951 -1.4520228 -4.0693111 -200 45 -200 45 -200 45
1164435822.6371 -1.4373047 -4.0496554 -200 45 -200 45 -200 45
1165435939.3232 -1.4218702 -4.0638227 -200 45 -200 45 -200 45
1166436056.0093 -1.4135665 -4.0493484 -200 45 -200 45 -200 45
1167436172.6954 -1.4166617 -4.0506563 -200 45 -200 45 -200 45
1168436289.3816 -1.4266547 -4.0529056 -200 45 -200 45 -200 45
1169436406.0677 -1.424883 -4.0689831 -200 45 -200 45 -200 45
1170436522.7538 -1.4182134 -4.0744181 -200 45 -200 45 -200 45
1171436639.4399 -1.4099846 -4.0645285 -200 45 -200 45 -200 45
1172436756.126 -1.416067 -4.0793219 -200 45 -200 45 -200 45
1173436872.8121 -1.435119 -4.0963917 -200 45 -200 45 -200 45
1174436989.4982 -1.448667 -4.1049981 -200 45 -200 45 -200 45
1175437106.1844 -1.4661628 -4.1264286 -200 45 -200 45 -200 45
1176437222.8705 -1.4696541 -4.138093 -200 45 -200 45 -200 45
1177437339.5566 -1.4690677 -4.1155248 -200 45 -200 45 -200 45
1178437456.2427 -1.4688247 -4.1284475 -200 45 -200 45 -200 45
1179437572.9288 -1.4655805 -4.1358352 -200 45 -200 45 -200 45
1180437689.6149 -1.4578004 -4.135262 -200 45 -200 45 -200 45
1181437806.3011 -1.4430526 -4.1276708 -200 45 -200 45 -200 45
1182437922.9872 -1.433525 -4.1331367 -200 45 -200 45 -200 45
1183438039.6733 -1.4359138 -4.135231 -200 45 -200 45 -200 45
1184438156.3594 -1.4493699 -4.1133165 -200 45 -200 45 -200 45
1185438273.0455 -1.4501079 -4.0756536 -200 45 -200 45 -200 45
1186438389.7316 -1.4424458 -4.0769734 -200 45 -200 45 -200 45
1187438506.4177 -1.4331155 -4.0691462 -200 45 -200 45 -200 45
1188438623.1039 -1.4354638 -4.0761132 -200 45 -200 45 -200 45
1189438739.79 -1.445489 -4.0676036 -200 45 -200 45 -200 45
1190438856.4761 -1.4636379 -4.0971789 -200 45 -200 45 -200 45
1191438973.1622 -1.4807639 -4.1102605 -200 45 -200 45 -200 45
1192439089.8483 -1.4862472 -4.1200728 -200 45 -200 45 -200 45
1193439206.5344 -1.486743 -4.1230574 -200 45 -200 45 -200 45
1194439323.2205 -1.4843726 -4.1246257 -200 45 -200 45 -200 45
1195439439.9067 -1.4834484 -4.1100073 -200 45 -200 45 -200 45
1196439556.5928 -1.4760876 -4.1178207 -200 45 -200 45 -200 45
1197439673.2789 -1.4628215 -4.1159325 -200 45 -200 45 -200 45
1198439789.965 -1.4501079 -4.1133356 -200 45 -200 45 -200 45
1199439906.6511 -1.4475105 -4.0973139 -200 45 -200 45 -200 45
1200440023.3372 -1.4542127 -4.1006432 -200 45 -200 45 -200 45
1201440140.0233 -1.4602493 -4.1028552 -200 45 -200 45 -200 45
1202440256.7095 -1.453509 -4.0996218 -200 45 -200 45 -200 45
1203440373.3956 -1.4471463 -4.0972548 -200 45 -200 45 -200 45
1204440490.0817 -1.4474238 -4.1117144 -200 45 -200 45 -200 45
1205440606.7678 -1.4568384 -4.1085143 -200 45 -200 45 -200 45
1206440723.4539 -1.4761585 -4.1125655 -200 45 -200 45 -200 45
1207440840.14 -1.4950619 -4.1288676 -200 45 -200 45 -200 45
1208440956.8261 -1.5035268 -4.1420236 -200 45 -200 45 -200 45
1209441073.5123 -1.5033196 -4.1209106 -200 45 -200 45 -200 45
1210441190.1984 -1.5010116 -4.1153345 -200 45 -200 45 -200 45
1211441306.8845 -1.5010061 -4.1154399 -200 45 -200 45 -200 45
1212441423.5706 -1.4950093 -4.11621 -200 45 -200 45 -200 45
1213441540.2567 -1.482075 -4.1058011 -200 45 -200 45 -200 45
1214441656.9428 -1.4705027 -4.1007185 -200 45 -200 45 -200 45
1215441773.6289 -1.4646606 -4.0918107 -200 45 -200 45 -200 45
1216441890.3151 -1.4688125 -4.0932207 -200 45 -200 45 -200 45
1217442007.0012 -1.4779727 -4.0927515 -200 45 -200 45 -200 45
1218442123.6873 -1.4728487 -4.0864758 -200 45 -200 45 -200 45
1219442240.3734 -1.466038 -4.0895147 -200 45 -200 45 -200 45
1220442357.0595 -1.4620149 -4.0928683 -200 45 -200 45 -200 45
1221442473.7456 -1.470101 -4.0858045 -200 45 -200 45 -200 45
1222442590.4317 -1.4877627 -4.0947599 -200 45 -200 45 -200 45
1223442707.1179 -1.5069717 -4.1059337 -200 45 -200 45 -200 45
1224442823.804 -1.5174738 -4.1209154 -200 45 -200 45 -200 45
1225442940.4901 -1.5196186 -4.1020226 -200 45 -200 45 -200 45
1226443057.1762 -1.5181992 -4.1013432 -200 45 -200 45 -200 45
1227443173.8623 -1.5172987 -4.1043792 -200 45 -200 45 -200 45
1228443290.5484 -1.5146918 -4.1021409 -200 45 -200 45 -200 45
1229443407.2345 -1.5034635 -4.0933628 -200 45 -200 45 -200 45
1230443523.9207 -1.4896708 -4.0763788 -200 45 -200 45 -200 45
1231443640.6068 -1.4826125 -4.0732903 -200 45 -200 45 -200 45
1232443757.2929 -1.4853743 -4.0677004 -200 45 -200 45 -200 45
1233443873.979 -1.4923863 -4.0594187 -200 45 -200 45 -200 45
1234443990.6651 -1.4912443 -4.066081 -200 45 -200 45 -200 45
1235444107.3512 -1.4834101 -4.070219 -200 45 -200 45 -200 45
1236444224.0373 -1.4764174 -4.0594549 -200 45 -200 45 -200 45
1237444340.7235 -1.48183 -4.0621219 -200 45 -200 45 -200 45
1238444457.4096 -1.5007505 -4.0624738 -200 45 -200 45 -200 45
1239444574.0957 -1.5177414 -4.0788612 -200 45 -200 45 -200 45
1240444690.7818 -1.5347836 -4.0802574 -200 45 -200 45 -200 45
1241444807.4679 -1.5360934 -4.0708323 -200 45 -200 45 -200 45
1242444924.154 -1.5359256 -4.0656929 -200 45 -200 45 -200 45
1243445040.8401 -1.5354367 -4.0672121 -200 45 -200 45 -200 45
1244445157.5263 -1.5314267 -4.059514 -200 45 -200 45 -200 45
1245445274.2124 -1.5236043 -4.0660281 -200 45 -200 45 -200 45
1246445390.8985 -1.5076746 -4.0558996 -200 45 -200 45 -200 45
1247445507.5846 -1.4999322 -4.0561624 -200 45 -200 45 -200 45
1248445624.2707 -1.5008247 -4.029634 -200 45 -200 45 -200 45
1249445740.9568 -1.5068487 -4.0279465 -200 45 -200 45 -200 45
1250445857.6429 -1.5062584 -4.0298719 -200 45 -200 45 -200 45
1251445974.3291 -1.4998206 -4.0251746 -200 45 -200 45 -200 45
1252446091.0152 -1.4957201 -4.0245786 -200 45 -200 45 -200 45
1253446207.7013 -1.5019308 -4.0255694 -200 45 -200 45 -200 45
1254446324.3874 -1.5220641 -4.0343099 -200 45 -200 45 -200 45
1255446441.0735 -1.5381092 -4.0451536 -200 45 -200 45 -200 45
1256446557.7596 -1.5525597 -4.0421834 -200 45 -200 45 -200 45
1257446674.4457 -1.5557719 -4.0413322 -200 45 -200 45 -200 45
1258446791.1319 -1.5547254 -4.0158172 -200 45 -200 45 -200 45
1259446907.818 -1.5524372 -4.0027118 -200 45 -200 45 -200 45
1260447024.5041 -1.5488325 -4.0077615 -200 45 -200 45 -200 45
1261447141.1902 -1.5389347 -4.0152941 -200 45 -200 45 -200 45
1262447257.8763 -1.5228 -4.0044255 -200 45 -200 45 -200 45
1263447374.5624 -1.5144218 -3.9712825 -200 45 -200 45 -200 45
1264447491.2485 -1.51933 -3.9726195 -200 45 -200 45 -200 45
1265447607.9347 -1.5259545 -3.9765937 -200 45 -200 45 -200 45
1266447724.6208 -1.5243514 -3.9682007 -200 45 -200 45 -200 45
1267447841.3069 -1.5176827 -3.9663694 -200 45 -200 45 -200 45
1268447957.993 -1.5109102 -3.9585757 -200 45 -200 45 -200 45
1269448074.6791 -1.5172135 -3.9656758 -200 45 -200 45 -200 45
1270448191.3652 -1.5342963 -3.9615252 -200 45 -200 45 -200 45
1271448308.0513 -1.5506623 -3.9897714 -200 45 -200 45 -200 45
1272448424.7375 -1.5665168 -3.9809966 -200 45 -200 45 -200 45
1273448541.4236 -1.5688053 -3.9737878 -200 45 -200 45 -200 45
1274448658.1097 -1.5681463 -3.973726 -200 45 -200 45 -200 45
1275448774.7958 -1.5669386 -3.9673667 -200 45 -200 45 -200 45
1276448891.4819 -1.5644745 -3.9647374 -200 45 -200 45 -200 45
1277449008.168 -1.5549902 -3.9564378 -200 45 -200 45 -200 45
1278449124.8541 -1.540144 -3.9612408 -200 45 -200 45 -200 45
1279449241.5403 -1.5302018 -3.9514315 -200 45 -200 45 -200 45
1280449358.2264 -1.5348116 -3.9298522 -200 45 -200 45 -200 45
1281449474.9125 -1.5399853 -3.9276474 -200 45 -200 45 -200 45
1282449591.5986 -1.5395986 -3.9287927 -200 45 -200 45 -200 45
1283449708.2847 -1.532472 -3.924412 -200 45 -200 45 -200 45
1284449824.9708 -1.5256757 -3.9211955 -200 45 -200 45 -200 45
1285449941.6569 -1.5317773 -3.9266996 -200 45 -200 45 -200 45
1286450058.3431 -1.5487863 -3.9319584 -200 45 -200 45 -200 45
1287450175.0292 -1.5635664 -3.9349766 -200 45 -200 45 -200 45
1288450291.7153 -1.5810446 -3.9417889 -200 45 -200 45 -200 45
1289450408.4014 -1.5852576 -3.9230695 -200 45 -200 45 -200 45
1290450525.0875 -1.5843688 -3.9243681 -200 45 -200 45 -200 45
1291450641.7736 -1.5829333 -3.9296763 -200 45 -200 45 -200 45
1292450758.4597 -1.5790701 -3.921355 -200 45 -200 45 -200 45
1293450875.1459 -1.5715244 -3.9164515 -200 45 -200 45 -200 45
1294450991.832 -1.5559604 -3.9164925 -200 45 -200 45 -200 45
1295451108.5181 -1.5486369 -3.9105372 -200 45 -200 45 -200 45
1296451225.2042 -1.5480239 -3.8996432 -200 45 -200 45 -200 45
1297451341.8903 -1.5547701 -3.8850799 -200 45 -200 45 -200 45
1298451458.5764 -1.554692 -3.8885639 -200 45 -200 45 -200 45
1299451575.2625 -1.5501914 -3.901299 -200 45 -200 45 -200 45
1300451691.9487 -1.5425485 -3.8813584 -200 45 -200 45 -200 45
1301451808.6348 -1.5452574 -3.8883188 -200 45 -200 45 -200 45
1302451925.3209 -1.5594435 -3.8924415 -200 45 -200 45 -200 45
1303452042.007 -1.5769929 -3.8860323 -200 45 -200 45 -200 45
1304452158.6931 -1.5959485 -3.8975403 -200 45 -200 45 -200 45
1305452275.3792 -1.5991645 -3.8977089 -200 45 -200 45 -200 45
1306452392.0653 -1.5989227 -3.8951976 -200 45 -200 45 -200 45
1307452508.7515 -1.5978448 -3.880482 -200 45 -200 45 -200 45
1308452625.4376 -1.5951463 -3.8881216 -200 45 -200 45 -200 45
1309452742.1237 -1.5900129 -3.8856404 -200 45 -200 45 -200 45
1310452858.8098 -1.5742402 -3.8849168 -200 45 -200 45 -200 45
1311452975.4959 -1.5639119 -3.8844745 -200 45 -200 45 -200 45
1312453092.182 -1.5627383 -3.8730621 -200 45 -200 45 -200 45
1313453208.8681 -1.5704721 -3.8588016 -200 45 -200 45 -200 45
1314453325.5543 -1.5736477 -3.8536949 -200 45 -200 45 -200 45
1315453442.2404 -1.5661768 -3.8488338 -200 45 -200 45 -200 45
1316453558.9265 -1.5586344 -3.852735 -200 45 -200 45 -200 45
1317453675.6126 -1.5597749 -3.8530061 -200 45 -200 45 -200 45
1318453792.2987 -1.5732915 -3.8459046 -200 45 -200 45 -200 45
1319453908.9848 -1.5919333 -3.8542929 -200 45 -200 45 -200 45
1320454025.6709 -1.6100889 -3.8576345 -200 45 -200 45 -200 45
1321454142.3571 -1.6165658 -3.8513982 -200 45 -200 45 -200 45
1322454259.0432 -1.6158046 -3.8453543 -200 45 -200 45 -200 45
1323454375.7293 -1.6140782 -3.8463366 -200 45 -200 45 -200 45
1324454492.4154 -1.6125027 -3.8476717 -200 45 -200 45 -200 45
1325454609.1015 -1.6055917 -3.8404584 -200 45 -200 45 -200 45
1326454725.7876 -1.5920796 -3.838367 -200 45 -200 45 -200 45
1327454842.4737 -1.5804079 -3.839684 -200 45 -200 45 -200 45
1328454959.1599 -1.5788348 -3.8258145 -200 45 -200 45 -200 45
1329455075.846 -1.5848371 -3.8152132 -200 45 -200 45 -200 45
1330455192.5321 -1.5880722 -3.8101993 -200 45 -200 45 -200 45
1331455309.2182 -1.5818939 -3.8044474 -200 45 -200 45 -200 45
1332455425.9043 -1.5759761 -3.8084981 -200 45 -200 45 -200 45
1333455542.5904 -1.5771495 -3.816921 -200 45 -200 45 -200 45
1334455659.2765 -1.586738 -3.8092201 -200 45 -200 45 -200 45
1335455775.9627 -1.6064681 -3.8156981 -200 45 -200 45 -200 45
1336455892.6488 -1.6226182 -3.8149083 -200 45 -200 45 -200 45
1337456009.3349 -1.6321728 -3.8036859 -200 45 -200 45 -200 45
1338456126.021 -1.6298974 -3.8005948 -200 45 -200 45 -200 45
1339456242.7071 -1.6299603 -3.8047163 -200 45 -200 45 -200 45
1340456359.3932 -1.6286291 -3.7928886 -200 45 -200 45 -200 45
1341456476.0793 -1.624132 -3.7955019 -200 45 -200 45 -200 45
1342456592.7655 -1.6087834 -3.800622 -200 45 -200 45 -200 45
1343456709.4516 -1.5981698 -3.789278 -200 45 -200 45 -200 45
1344456826.1377 -1.5937744 -3.7819839 -200 45 -200 45 -200 45
1345456942.8238 -1.5984085 -3.7622361 -200 45 -200 45 -200 45
1346457059.5099 -1.6053871 -3.7676883 -200 45 -200 45 -200 45
1347457176.196 -1.6005301 -3.7684801 -200 45 -200 45 -200 45
1348457292.8821 -1.5923545 -3.7638397 -200 45 -200 45 -200 45
1349457409.5683 -1.5925349 -3.7648473 -200 45 -200 45 -200 45
1350457526.2544 -1.6008071 -3.7639542 -200 45 -200 45 -200 45
1351457642.9405 -1.6223009 -3.7564251 -200 45 -200 45 -200 45
1352457759.6266 -1.6386853 -3.7672331 -200 45 -200 45 -200 45
1353457876.3127 -1.6470129 -3.7613988 -200 45 -200 45 -200 45
1354457992.9988 -1.6465088 -3.7540565 -200 45 -200 45 -200 45
1355458109.6849 -1.6464717 -3.7450948 -200 45 -200 45 -200 45
1356458226.3711 -1.645611 -3.7416315 -200 45 -200 45 -200 45
1357458343.0572 -1.6407466 -3.7416894 -200 45 -200 45 -200 45
1358458459.7433 -1.6271796 -3.7443831 -200 45 -200 45 -200 45
1359458576.4294 -1.6134697 -3.7467504 -200 45 -200 45 -200 45
1360458693.1155 -1.6101062 -3.7265525 -200 45 -200 45 -200 45
1361458809.8016 -1.6146713 -3.7163458 -200 45 -200 45 -200 45
1362458926.4877 -1.6207298 -3.7102227 -200 45 -200 45 -200 45
1363459043.1739 -1.6159792 -3.7126532 -200 45 -200 45 -200 45
1364459159.86 -1.6105293 -3.7142756 -200 45 -200 45 -200 45
1365459276.5461 -1.6069672 -3.7107098 -200 45 -200 45 -200 45
1366459393.2322 -1.6151061 -3.716907 -200 45 -200 45 -200 45
1367459509.9183 -1.6349036 -3.7082932 -200 45 -200 45 -200 45
1368459626.6044 -1.6503685 -3.7011189 -200 45 -200 45 -200 45
1369459743.2905 -1.6624631 -3.692771 -200 45 -200 45 -200 45
1370459859.9767 -1.6627877 -3.6928225 -200 45 -200 45 -200 45
1371459976.6628 -1.6619735 -3.6831434 -200 45 -200 45 -200 45
1372460093.3489 -1.6588312 -3.6848819 -200 45 -200 45 -200 45
1373460210.035 -1.6556003 -3.687844 -200 45 -200 45 -200 45
1374460326.7211 -1.6456159 -3.688458 -200 45 -200 45 -200 45
1375460443.4072 -1.6308284 -3.6856427 -200 45 -200 45 -200 45
1376460560.0933 -1.6248357 -3.66853 -200 45 -200 45 -200 45
1377460676.7795 -1.6297011 -3.6582072 -200 45 -200 45 -200 45
1378460793.4656 -1.6378661 -3.6555822 -200 45 -200 45 -200 45
1379460910.1517 -1.6322222 -3.6685002 -200 45 -200 45 -200 45
1380461026.8378 -1.624867 -3.648922 -200 45 -200 45 -200 45
1381461143.5239 -1.6220989 -3.6522698 -200 45 -200 45 -200 45
1382461260.21 -1.6294577 -3.6534626 -200 45 -200 45 -200 45
1383461376.8961 -1.6478058 -3.6546745 -200 45 -200 45 -200 45
1384461493.5823 -1.6651357 -3.6514406 -200 45 -200 45 -200 45
1385461610.2684 -1.6771387 -3.6532962 -200 45 -200 45 -200 45
1386461726.9545 -1.6792344 -3.6404529 -200 45 -200 45 -200 45
1387461843.6406 -1.6767895 -3.6408341 -200 45 -200 45 -200 45
1388461960.3267 -1.6761405 -3.6276045 -200 45 -200 45 -200 45
1389462077.0128 -1.67256 -3.63081 -200 45 -200 45 -200 45
1390462193.6989 -1.6621256 -3.6269906 -200 45 -200 45 -200 45
1391462310.3851 -1.6474422 -3.6305423 -200 45 -200 45 -200 45
1392462427.0712 -1.6407576 -3.6115241 -200 45 -200 45 -200 45
1393462543.7573 -1.6436154 -3.6121144 -200 45 -200 45 -200 45
1394462660.4434 -1.6507732 -3.597152 -200 45 -200 45 -200 45
1395462777.1295 -1.6493715 -3.6013837 -200 45 -200 45 -200 45
1396462893.8156 -1.6426212 -3.6010103 -200 45 -200 45 -200 45
1397463010.5018 -1.6364552 -3.6105137 -200 45 -200 45 -200 45
1398463127.1879 -1.6437111 -3.5992033 -200 45 -200 45 -200 45
1399463243.874 -1.6615776 -3.6002831 -200 45 -200 45 -200 45
1400463360.5601 -1.6789597 -3.5918252 -200 45 -200 45 -200 45
1401463477.2462 -1.6903843 -3.5869012 -200 45 -200 45 -200 45
1402463593.9323 -1.6930957 -3.5859339 -200 45 -200 45 -200 45
1403463710.6184 -1.692301 -3.5742857 -200 45 -200 45 -200 45
1404463827.3046 -1.6917208 -3.5877156 -200 45 -200 45 -200 45
1405463943.9907 -1.6886792 -3.5851989 -200 45 -200 45 -200 45
1406464060.6768 -1.6802355 -3.5716751 -200 45 -200 45 -200 45
1407464177.3629 -1.664287 -3.5763149 -200 45 -200 45 -200 45
1408464294.049 -1.6560581 -3.5692575 -200 45 -200 45 -200 45
1409464410.7351 -1.6588756 -3.5626884 -200 45 -200 45 -200 45
1410464527.4212 -1.6637087 -3.5379264 -200 45 -200 45 -200 45
1411464644.1074 -1.6639414 -3.5463529 -200 45 -200 45 -200 45
1412464760.7935 -1.656933 -3.5508885 -200 45 -200 45 -200 45
1413464877.4796 -1.6521722 -3.5525141 -200 45 -200 45 -200 45
1414464994.1657 -1.6568404 -3.5461984 -200 45 -200 45 -200 45
1415465110.8518 -1.6733967 -3.5533547 -200 45 -200 45 -200 45
1416465227.5379 -1.6891586 -3.5417583 -200 45 -200 45 -200 45
1417465344.224 -1.7035148 -3.5446649 -200 45 -200 45 -200 45
1418465460.9102 -1.7076403 -3.5262423 -200 45 -200 45 -200 45
1419465577.5963 -1.7052491 -3.5336189 -200 45 -200 45 -200 45
1420465694.2824 -1.7064253 -3.5376253 -200 45 -200 45 -200 45
1421465810.9685 -1.702527 -3.5300679 -200 45 -200 45 -200 45
1422465927.6546 -1.6958359 -3.5262599 -200 45 -200 45 -200 45
1423466044.3407 -1.6798944 -3.529134 -200 45 -200 45 -200 45
1424466161.0268 -1.6720563 -3.5271044 -200 45 -200 45 -200 45
1425466277.713 -1.6715325 -3.5046139 -200 45 -200 45 -200 45
1426466394.3991 -1.6786358 -3.496196 -200 45 -200 45 -200 45
1427466511.0852 -1.6812389 -3.4972491 -200 45 -200 45 -200 45
1428466627.7713 -1.6730554 -3.5025098 -200 45 -200 45 -200 45
1429466744.4574 -1.6658583 -3.5064995 -200 45 -200 45 -200 45
1430466861.1435 -1.671523 -3.4995606 -200 45 -200 45 -200 45
1431466977.8296 -1.686695 -3.4946868 -200 45 -200 45 -200 45
1432467094.5158 -1.701944 -3.4910884 -200 45 -200 45 -200 45
1433467211.2019 -1.7180024 -3.4914045 -200 45 -200 45 -200 45
1434467327.888 -1.7219301 -3.4842646 -200 45 -200 45 -200 45
1435467444.5741 -1.7220224 -3.4791059 -200 45 -200 45 -200 45
1436467561.2602 -1.7195392 -3.4813862 -200 45 -200 45 -200 45
1437467677.9463 -1.7173716 -3.4808457 -200 45 -200 45 -200 45
1438467794.6324 -1.7101713 -3.4793243 -200 45 -200 45 -200 45
1439467911.3186 -1.6960647 -3.4783192 -200 45 -200 45 -200 45
1440468028.0047 -1.6859393 -3.4703898 -200 45 -200 45 -200 45
1441468144.6908 -1.6847923 -3.4684274 -200 45 -200 45 -200 45
1442468261.3769 -1.6922563 -3.4523475 -200 45 -200 45 -200 45
1443468378.063 -1.6940082 -3.4436829 -200 45 -200 45 -200 45
1444468494.7491 -1.6891073 -3.4508369 -200 45 -200 45 -200 45
1445468611.4352 -1.6824006 -3.4598744 -200 45 -200 45 -200 45
1446468728.1214 -1.6853112 -3.4546716 -200 45 -200 45 -200 45
1447468844.8075 -1.6962081 -3.4524159 -200 45 -200 45 -200 45
1448468961.4936 -1.715171 -3.4471159 -200 45 -200 45 -200 45
1449469078.1797 -1.7305436 -3.4514215 -200 45 -200 45 -200 45
1450469194.8658 -1.7348392 -3.4377625 -200 45 -200 45 -200 45
1451469311.5519 -1.7350503 -3.4290681 -200 45 -200 45 -200 45
1452469428.238 -1.735292 -3.4228187 -200 45 -200 45 -200 45
1453469544.9242 -1.7336016 -3.4242158 -200 45 -200 45 -200 45
1454469661.6103 -1.7275722 -3.4296482 -200 45 -200 45 -200 45
1455469778.2964 -1.7116722 -3.4385262 -200 45 -200 45 -200 45
1456469894.9825 -1.7013664 -3.4325187 -200 45 -200 45 -200 45
1457470011.6686 -1.6990908 -3.4302888 -200 45 -200 45 -200 45
1458470128.3547 -1.704771 -3.4002333 -200 45 -200 45 -200 45
1459470245.0408 -1.7102715 -3.4033749 -200 45 -200 45 -200 45
1460470361.727 -1.7034186 -3.4113109 -200 45 -200 45 -200 45
1461470478.4131 -1.6966802 -3.4142253 -200 45 -200 45 -200 45
1462470595.0992 -1.7003301 -3.397373 -200 45 -200 45 -200 45
1463470711.7853 -1.7110368 -3.3982041 -200 45 -200 45 -200 45
1464470828.4714 -1.729848 -3.4034197 -200 45 -200 45 -200 45
1465470945.1575 -1.7445424 -3.4001493 -200 45 -200 45 -200 45
1466471061.8436 -1.7506562 -3.3854589 -200 45 -200 45 -200 45
1467471178.5298 -1.7495241 -3.3809478 -200 45 -200 45 -200 45
1468471295.2159 -1.749346 -3.3723423 -200 45 -200 45 -200 45
1469471411.902 -1.7477647 -3.3780637 -200 45 -200 45 -200 45
1470471528.5881 -1.7417876 -3.3774304 -200 45 -200 45 -200 45
1471471645.2742 -1.728793 -3.3860614 -200 45 -200 45 -200 45
1472471761.9603 -1.717289 -3.3788023 -200 45 -200 45 -200 45
1473471878.6464 -1.7125233 -3.3651199 -200 45 -200 45 -200 45
1474471995.3326 -1.7178806 -3.35151 -200 45 -200 45 -200 45
1475472112.0187 -1.7249057 -3.3496864 -200 45 -200 45 -200 45
1476472228.7048 -1.7189522 -3.3519981 -200 45 -200 45 -200 45
1477472345.3909 -1.7115593 -3.3560472 -200 45 -200 45 -200 45
1478472462.077 -1.7150208 -3.3434975 -200 45 -200 45 -200 45
1479472578.7631 -1.7216934 -3.3570247 -200 45 -200 45 -200 45
1480472695.4492 -1.7403795 -3.3466401 -200 45 -200 45 -200 45
1481472812.1354 -1.7558618 -3.3366592 -200 45 -200 45 -200 45
1482472928.8215 -1.7650253 -3.3346493 -200 45 -200 45 -200 45
1483473045.5076 -1.7640094 -3.3233774 -200 45 -200 45 -200 45
1484473162.1937 -1.7643471 -3.3254962 -200 45 -200 45 -200 45
1485473278.8798 -1.763387 -3.3257957 -200 45 -200 45 -200 45
1486473395.5659 -1.7581774 -3.3236673 -200 45 -200 45 -200 45
1487473512.252 -1.7461175 -3.323874 -200 45 -200 45 -200 45
1488473628.9382 -1.7316029 -3.3279614 -200 45 -200 45 -200 45
1489473745.6243 -1.7267892 -3.3198538 -200 45 -200 45 -200 45
1490473862.3104 -1.7335479 -3.3018801 -200 45 -200 45 -200 45
1491473978.9965 -1.7376302 -3.2956331 -200 45 -200 45 -200 45
1492474095.6826 -1.7341936 -3.2997515 -200 45 -200 45 -200 45
1493474212.3687 -1.7292809 -3.3023586 -200 45 -200 45 -200 45
1494474329.0548 -1.7276831 -3.3032196 -200 45 -200 45 -200 45
1495474445.741 -1.7337466 -3.2994561 -200 45 -200 45 -200 45
1496474562.4271 -1.7545786 -3.2811739 -200 45 -200 45 -200 45
1497474679.1132 -1.7692026 -3.2841091 -200 45 -200 45 -200 45
1498474795.7993 -1.7792749 -3.2823422 -200 45 -200 45 -200 45
1499474912.4854 -1.7778165 -3.2747302 -200 45 -200 45 -200 45
1500475029.1715 -1.7773982 -3.2626829 -200 45 -200 45 -200 45
1501475145.8576 -1.7767193 -3.2700915 -200 45 -200 45 -200 45
1502475262.5438 -1.7743151 -3.2683487 -200 45 -200 45 -200 45
1503475379.2299 -1.7625852 -3.2798455 -200 45 -200 45 -200 45
1504475495.916 -1.7474875 -3.2836826 -200 45 -200 45 -200 45
1505475612.6021 -1.7411017 -3.271095 -200 45 -200 45 -200 45
1506475729.2882 -1.746287 -3.2435825 -200 45 -200 45 -200 45
1507475845.9743 -1.7537206 -3.2454419 -200 45 -200 45 -200 45
1508475962.6604 -1.7508264 -3.2532976 -200 45 -200 45 -200 45
1509476079.3466 -1.7439475 -3.2540338 -200 45 -200 45 -200 45
1510476196.0327 -1.7406244 -3.2581995 -200 45 -200 45 -200 45
1511476312.7188 -1.7483307 -3.2479699 -200 45 -200 45 -200 45
1512476429.4049 -1.7683336 -3.2441564 -200 45 -200 45 -200 45
1513476546.091 -1.7808522 -3.2372248 -200 45 -200 45 -200 45
1514476662.7771 -1.7937927 -3.2357271 -200 45 -200 45 -200 45
1515476779.4632 -1.7921072 -3.2222407 -200 45 -200 45 -200 45
1516476896.1494 -1.7917717 -3.221108 -200 45 -200 45 -200 45
1517477012.8355 -1.7916751 -3.2206066 -200 45 -200 45 -200 45
1518477129.5216 -1.7885783 -3.2230053 -200 45 -200 45 -200 45
1519477246.2077 -1.7784239 -3.2344084 -200 45 -200 45 -200 45
1520477362.8938 -1.7641497 -3.2284904 -200 45 -200 45 -200 45
1521477479.5799 -1.757086 -3.2220986 -200 45 -200 45 -200 45
1522477596.266 -1.7611004 -3.2053244 -200 45 -200 45 -200 45
1523477712.9522 -1.7686237 -3.2032495 -200 45 -200 45 -200 45
1524477829.6383 -1.7667807 -3.2094586 -200 45 -200 45 -200 45
1525477946.3244 -1.7600459 -3.2042501 -200 45 -200 45 -200 45
1526478063.0105 -1.7581289 -3.1979828 -200 45 -200 45 -200 45
1527478179.6966 -1.7608814 -3.2014313 -200 45 -200 45 -200 45
1528478296.3827 -1.7802312 -3.1986723 -200 45 -200 45 -200 45
1529478413.0688 -1.7932833 -3.1911883 -200 45 -200 45 -200 45
1530478529.755 -1.8060892 -3.1829319 -200 45 -200 45 -200 45
1531478646.4411 -1.8085483 -3.1785269 -200 45 -200 45 -200 45
1532478763.1272 -1.8063956 -3.1793029 -200 45 -200 45 -200 45
1533478879.8133 -1.8077437 -3.1673703 -200 45 -200 45 -200 45
1534478996.4994 -1.8036863 -3.1809099 -200 45 -200 45 -200 45
1535479113.1855 -1.7941229 -3.1744025 -200 45 -200 45 -200 45
1536479229.8716 -1.7810972 -3.1833949 -200 45 -200 45 -200 45
1537479346.5578 -1.7729502 -3.1874154 -200 45 -200 45 -200 45
1538479463.2439 -1.7747447 -3.1720126 -200 45 -200 45 -200 45
1539479579.93 -1.7823901 -3.1600754 -200 45 -200 45 -200 45
1540479696.6161 -1.7830005 -3.1527085 -200 45 -200 45 -200 45
1541479813.3022 -1.7768413 -3.1595819 -200 45 -200 45 -200 45
1542479929.9883 -1.7700905 -3.1647933 -200 45 -200 45 -200 45
1543480046.6744 -1.7756785 -3.1518896 -200 45 -200 45 -200 45
1544480163.3606 -1.7903285 -3.1517422 -200 45 -200 45 -200 45
1545480280.0467 -1.8066746 -3.151684 -200 45 -200 45 -200 45
1546480396.7328 -1.8215383 -3.1485233 -200 45 -200 45 -200 45
1547480513.4189 -1.8240685 -3.1440892 -200 45 -200 45 -200 45
1548480630.105 -1.8216525 -3.1339335 -200 45 -200 45 -200 45
1549480746.7911 -1.8206273 -3.1276248 -200 45 -200 45 -200 45
1550480863.4772 -1.8170952 -3.1278548 -200 45 -200 45 -200 45
1551480980.1634 -1.8106228 -3.1446452 -200 45 -200 45 -200 45
1552481096.8495 -1.7975694 -3.1414387 -200 45 -200 45 -200 45
1553481213.5356 -1.787087 -3.1540196 -200 45 -200 45 -200 45
1554481330.2217 -1.7906976 -3.130285 -200 45 -200 45 -200 45
1555481446.9078 -1.7963384 -3.1290102 -200 45 -200 45 -200 45
1556481563.5939 -1.7974249 -3.1086159 -200 45 -200 45 -200 45
1557481680.28 -1.7937888 -3.1224778 -200 45 -200 45 -200 45
1558481796.9662 -1.7851826 -3.1311901 -200 45 -200 45 -200 45
1559481913.6523 -1.7908415 -3.1306667 -200 45 -200 45 -200 45
1560482030.3384 -1.8040302 -3.1273797 -200 45 -200 45 -200 45
1561482147.0245 -1.819759 -3.1229985 -200 45 -200 45 -200 45
1562482263.7106 -1.8353082 -3.1173036 -200 45 -200 45 -200 45
1563482380.3967 -1.8394617 -3.1120753 -200 45 -200 45 -200 45
1564482497.0828 -1.8386679 -3.111676 -200 45 -200 45 -200 45
1565482613.769 -1.8389627 -3.1174054 -200 45 -200 45 -200 45
1566482730.4551 -1.8344319 -3.1216781 -200 45 -200 45 -200 45
1567482847.1412 -1.8282281 -3.1321931 -200 45 -200 45 -200 45
1568482963.8273 -1.8151608 -3.1450977 -200 45 -200 45 -200 45
1569483080.5134 -1.8071655 -3.1444228 -200 45 -200 45 -200 45
1570483197.1995 -1.8073841 -3.1498177 -200 45 -200 45 -200 45
1571483313.8856 -1.8144052 -3.1382725 -200 45 -200 45 -200 45
1572483430.5718 -1.8171164 -3.1586173 -200 45 -200 45 -200 45
1573483547.2579 -1.8155079 -3.1813967 -200 45 -200 45 -200 45
1574483663.944 -1.8117187 -3.2007403 -200 45 -200 45 -200 45
1575483780.6301 -1.8200561 -3.2050762 -200 45 -200 45 -200 45
1576483897.3162 -1.8401588 -3.2220819 -200 45 -200 45 -200 45
1577484014.0023 -1.871973 -3.2119911 -200 45 -200 45 -200 45
1578484130.6884 -1.9067723 -3.1336474 -200 45 -200 45 -200 45
1579484247.3746 -1.9174925 -2.9419057 -200 45 -200 45 -200 45
1580484364.0607 -1.8984244 -2.7786415 -200 45 -200 45 -200 45
1581484480.7468 -1.8778044 -2.7783504 -200 45 -200 45 -200 45
1582484597.4329 -1.8672242 -2.7993193 -200 45 -200 45 -200 45
1583484714.119 -1.8572294 -2.8263032 -200 45 -200 45 -200 45
1584484830.8051 -1.8415624 -2.8415473 -200 45 -200 45 -200 45
1585484947.4912 -1.8291148 -2.851207 -200 45 -200 45 -200 45
1586485064.1774 -1.823127 -2.8379369 -200 45 -200 45 -200 45
1587485180.8635 -1.8246588 -2.8241282 -200 45 -200 45 -200 45
1588485297.5496 -1.8261945 -2.8505263 -200 45 -200 45 -200 45
1589485414.2357 -1.8203312 -2.8529549 -200 45 -200 45 -200 45
1590485530.9218 -1.8127667 -2.8696873 -200 45 -200 45 -200 45
1591485647.6079 -1.8130614 -2.8831677 -200 45 -200 45 -200 45
1592485764.294 -1.8215454 -2.885915 -200 45 -200 45 -200 45
1593485880.9802 -1.8388244 -2.9017785 -200 45 -200 45 -200 45
1594485997.6663 -1.856262 -2.8838522 -200 45 -200 45 -200 45
1595486114.3524 -1.860111 -2.877743 -200 45 -200 45 -200 45
1596486231.0385 -1.8601364 -2.8870487 -200 45 -200 45 -200 45
1597486347.7246 -1.8604693 -2.8890104 -200 45 -200 45 -200 45
1598486464.4107 -1.859247 -2.8878992 -200 45 -200 45 -200 45
1599486581.0968 -1.8537749 -2.8811321 -200 45 -200 45 -200 45
1600486697.783 -1.8395969 -2.8963361 -200 45 -200 45 -200 45
1601486814.4691 -1.8290883 -2.9019091 -200 45 -200 45 -200 45
1602486931.1552 -1.8260136 -2.9096062 -200 45 -200 45 -200 45
1603487047.8413 -1.8309639 -2.8882062 -200 45 -200 45 -200 45
1604487164.5274 -1.8378097 -2.8789129 -200 45 -200 45 -200 45
1605487281.2135 -1.8322307 -2.8843508 -200 45 -200 45 -200 45
1606487397.8997 -1.8260192 -2.8943417 -200 45 -200 45 -200 45
1607487514.5858 -1.8265055 -2.8887675 -200 45 -200 45 -200 45
1608487631.2719 -1.8310626 -2.8949564 -200 45 -200 45 -200 45
1609487747.958 -1.8513166 -2.8865476 -200 45 -200 45 -200 45
1610487864.6441 -1.8677996 -2.8710673 -200 45 -200 45 -200 45
1611487981.3302 -1.8762542 -2.8722825 -200 45 -200 45 -200 45
1612488098.0163 -1.8739501 -2.8659899 -200 45 -200 45 -200 45
1613488214.7025 -1.875767 -2.8589981 -200 45 -200 45 -200 45
1614488331.3886 -1.8737895 -2.8651347 -200 45 -200 45 -200 45
1615488448.0747 -1.8679074 -2.8619559 -200 45 -200 45 -200 45
1616488564.7608 -1.8585269 -2.8664832 -200 45 -200 45 -200 45
1617488681.4469 -1.8445096 -2.866986 -200 45 -200 45 -200 45
1618488798.133 -1.8398658 -2.8663883 -200 45 -200 45 -200 45
1619488914.8191 -1.8465281 -2.8577321 -200 45 -200 45 -200 45
1620489031.5053 -1.8514874 -2.8455763 -200 45 -200 45 -200 45
1621489148.1914 -1.8457642 -2.8479552 -200 45 -200 45 -200 45
1622489264.8775 -1.8410921 -2.8607316 -200 45 -200 45 -200 45
1623489381.5636 -1.8390821 -2.8621109 -200 45 -200 45 -200 45
1624489498.2497 -1.8449173 -2.8564837 -200 45 -200 45 -200 45
1625489614.9358 -1.8631614 -2.8460774 -200 45 -200 45 -200 45
1626489731.6219 -1.8792382 -2.8439255 -200 45 -200 45 -200 45
1627489848.3081 -1.8892955 -2.8390253 -200 45 -200 45 -200 45
1628489964.9942 -1.890489 -2.8190632 -200 45 -200 45 -200 45
1629490081.6803 -1.8873957 -2.8187897 -200 45 -200 45 -200 45
1630490198.3664 -1.8865875 -2.8107402 -200 45 -200 45 -200 45
1631490315.0525 -1.8838533 -2.8161697 -200 45 -200 45 -200 45
1632490431.7386 -1.8726583 -2.8192301 -200 45 -200 45 -200 45
1633490548.4247 -1.8593936 -2.8282704 -200 45 -200 45 -200 45
1634490665.1109 -1.8532196 -2.8230932 -200 45 -200 45 -200 45
1635490781.797 -1.8592914 -2.8083582 -200 45 -200 45 -200 45
1636490898.4831 -1.8651325 -2.7966592 -200 45 -200 45 -200 45
1637491015.1692 -1.8600621 -2.8030059 -200 45 -200 45 -200 45
1638491131.8553 -1.8555691 -2.797925 -200 45 -200 45 -200 45
1639491248.5414 -1.8516144 -2.8137438 -200 45 -200 45 -200 45
1640491365.2275 -1.8570106 -2.8084652 -200 45 -200 45 -200 45
1641491481.9137 -1.8753272 -2.8037162 -200 45 -200 45 -200 45
1642491598.5998 -1.890223 -2.7929609 -200 45 -200 45 -200 45
1643491715.2859 -1.9005804 -2.7889278 -200 45 -200 45 -200 45
1644491831.972 -1.9022492 -2.7838223 -200 45 -200 45 -200 45
1645491948.6581 -1.9017502 -2.7857115 -200 45 -200 45 -200 45
1646492065.3442 -1.900414 -2.7689655 -200 45 -200 45 -200 45
1647492182.0303 -1.8968669 -2.7824378 -200 45 -200 45 -200 45
1648492298.7165 -1.8887272 -2.7765827 -200 45 -200 45 -200 45
1649492415.4026 -1.8736719 -2.7908247 -200 45 -200 45 -200 45
1650492532.0887 -1.8679425 -2.7876556 -200 45 -200 45 -200 45
1651492648.7748 -1.8705719 -2.7826934 -200 45 -200 45 -200 45
1652492765.4609 -1.8770952 -2.7596858 -200 45 -200 45 -200 45
1653492882.147 -1.874577 -2.7692571 -200 45 -200 45 -200 45
1654492998.8331 -1.8689657 -2.7742605 -200 45 -200 45 -200 45
1655493115.5193 -1.8639379 -2.7922254 -200 45 -200 45 -200 45
1656493232.2054 -1.8694658 -2.78054 -200 45 -200 45 -200 45
1657493348.8915 -1.886833 -2.7643747 -200 45 -200 45 -200 45
1658493465.5776 -1.9019916 -2.7652524 -200 45 -200 45 -200 45
1659493582.2637 -1.9146885 -2.7476697 -200 45 -200 45 -200 45
1660493698.9498 -1.9158323 -2.7581313 -200 45 -200 45 -200 45
1661493815.6359 -1.9144386 -2.7382107 -200 45 -200 45 -200 45
1662493932.3221 -1.9148631 -2.7367036 -200 45 -200 45 -200 45
1663494049.0082 -1.9127024 -2.7403219 -200 45 -200 45 -200 45
1664494165.6943 -1.9043568 -2.7553194 -200 45 -200 45 -200 45
1665494282.3804 -1.8900998 -2.7557592 -200 45 -200 45 -200 45
1666494399.0665 -1.8823748 -2.750144 -200 45 -200 45 -200 45
1667494515.7526 -1.8831104 -2.7334747 -200 45 -200 45 -200 45
1668494632.4387 -1.8908418 -2.7184606 -200 45 -200 45 -200 45
1669494749.1249 -1.8902174 -2.730701 -200 45 -200 45 -200 45
1670494865.811 -1.8838989 -2.7396414 -200 45 -200 45 -200 45
1671494982.4971 -1.8761481 -2.7429078 -200 45 -200 45 -200 45
1672495099.1832 -1.8824495 -2.7491314 -200 45 -200 45 -200 45
1673495215.8693 -1.8984653 -2.7250781 -200 45 -200 45 -200 45
1674495332.5554 -1.9111333 -2.7332122 -200 45 -200 45 -200 45
1675495449.2415 -1.9259602 -2.716691 -200 45 -200 45 -200 45
1676495565.9277 -1.929425 -2.7083502 -200 45 -200 45 -200 45
1677495682.6138 -1.9281585 -2.7023244 -200 45 -200 45 -200 45
1678495799.2999 -1.9283514 -2.7009418 -200 45 -200 45 -200 45
1679495915.986 -1.9261167 -2.7130346 -200 45 -200 45 -200 45
1680496032.6721 -1.91944 -2.7105336 -200 45 -200 45 -200 45
1681496149.3582 -1.9047381 -2.7155223 -200 45 -200 45 -200 45
1682496266.0443 -1.8967091 -2.7112873 -200 45 -200 45 -200 45
1683496382.7305 -1.8960196 -2.7064085 -200 45 -200 45 -200 45
1684496499.4166 -1.9019122 -2.6997893 -200 45 -200 45 -200 45
1685496616.1027 -1.9044889 -2.7021873 -200 45 -200 45 -200 45
1686496732.7888 -1.897514 -2.7005057 -200 45 -200 45 -200 45
1687496849.4749 -1.8915725 -2.7036819 -200 45 -200 45 -200 45
1688496966.161 -1.8949987 -2.7004058 -200 45 -200 45 -200 45
1689497082.8471 -1.909312 -2.6944633 -200 45 -200 45 -200 45
1690497199.5333 -1.9238009 -2.6848536 -200 45 -200 45 -200 45
1691497316.2194 -1.9393743 -2.6728649 -200 45 -200 45 -200 45
1692497432.9055 -1.942338 -2.670054 -200 45 -200 45 -200 45
1693497549.5916 -1.9430871 -2.6741369 -200 45 -200 45 -200 45
1694497666.2777 -1.9408277 -2.661993 -200 45 -200 45 -200 45
1695497782.9638 -1.9407586 -2.6711669 -200 45 -200 45 -200 45
1696497899.6499 -1.9335639 -2.6746089 -200 45 -200 45 -200 45
1697498016.3361 -1.9215927 -2.6856358 -200 45 -200 45 -200 45
1698498133.0222 -1.9102635 -2.674895 -200 45 -200 45 -200 45
1699498249.7083 -1.9097664 -2.6689532 -200 45 -200 45 -200 45
1700498366.3944 -1.9157664 -2.6585677 -200 45 -200 45 -200 45
1701498483.0805 -1.917168 -2.6573131 -200 45 -200 45 -200 45
1702498599.7666 -1.9112548 -2.6579807 -200 45 -200 45 -200 45
1703498716.4527 -1.9046506 -2.6714587 -200 45 -200 45 -200 45
1704498833.1389 -1.9060483 -2.672981 -200 45 -200 45 -200 45
1705498949.825 -1.9199946 -2.6611445 -200 45 -200 45 -200 45
1706499066.5111 -1.9359076 -2.6532354 -200 45 -200 45 -200 45
1707499183.1972 -1.9513363 -2.6426055 -200 45 -200 45 -200 45
1708499299.8833 -1.9554751 -2.6408954 -200 45 -200 45 -200 45
1709499416.5694 -1.9567411 -2.6305082 -200 45 -200 45 -200 45
1710499533.2555 -1.9568857 -2.6209898 -200 45 -200 45 -200 45
1711499649.9417 -1.9540946 -2.6223643 -200 45 -200 45 -200 45
1712499766.6278 -1.9480214 -2.6415167 -200 45 -200 45 -200 45
1713499883.3139 -1.9354112 -2.6313055 -200 45 -200 45 -200 45
1714500000 -1.9261047 -2.6525812 -200 45 -200 45 -200 45
1715500116.6861 -1.923328 -2.6231096 -200 45 -200 45 -200 45
1716500233.3722 -1.928772 -2.6160192 -200 45 -200 45 -200 45
1717500350.0583 -1.9300785 -2.6189375 -200 45 -200 45 -200 45
1718500466.7445 -1.9267428 -2.6187568 -200 45 -200 45 -200 45
1719500583.4306 -1.9193603 -2.6275854 -200 45 -200 45 -200 45
1720500700.1167 -1.9213018 -2.6266611 -200 45 -200 45 -200 45
1721500816.8028 -1.9311949 -2.6145306 -200 45 -200 45 -200 45
1722500933.4889 -1.9483178 -2.6146126 -200 45 -200 45 -200 45
1723501050.175 -1.9638342 -2.5967982 -200 45 -200 45 -200 45
1724501166.8611 -1.9709141 -2.6019349 -200 45 -200 45 -200 45
1725501283.5473 -1.9691454 -2.5972106 -200 45 -200 45 -200 45
1726501400.2334 -1.9694371 -2.5969098 -200 45 -200 45 -200 45
1727501516.9195 -1.9692395 -2.5994196 -200 45 -200 45 -200 45
1728501633.6056 -1.9622782 -2.5920436 -200 45 -200 45 -200 45
1729501750.2917 -1.951316 -2.6008792 -200 45 -200 45 -200 45
1730501866.9778 -1.9414357 -2.6167364 -200 45 -200 45 -200 45
1731501983.6639 -1.9370418 -2.5990453 -200 45 -200 45 -200 45
1732502100.3501 -1.9414887 -2.5966828 -200 45 -200 45 -200 45
1733502217.0362 -1.9454901 -2.5816057 -200 45 -200 45 -200 45
1734502333.7223 -1.941239 -2.6004071 -200 45 -200 45 -200 45
1735502450.4084 -1.934988 -2.59885 -200 45 -200 45 -200 45
1736502567.0945 -1.93475 -2.6013732 -200 45 -200 45 -200 45
1737502683.7806 -1.9420449 -2.5958402 -200 45 -200 45 -200 45
1738502800.4667 -1.9607646 -2.5860851 -200 45 -200 45 -200 45
1739502917.1529 -1.9757321 -2.5705135 -200 45 -200 45 -200 45
1740503033.839 -1.9844565 -2.5735352 -200 45 -200 45 -200 45
1741503150.5251 -1.9839725 -2.5632827 -200 45 -200 45 -200 45
1742503267.2112 -1.9846208 -2.5630562 -200 45 -200 45 -200 45
1743503383.8973 -1.9828041 -2.5605202 -200 45 -200 45 -200 45
1744503500.5834 -1.9785706 -2.5637395 -200 45 -200 45 -200 45
1745503617.2695 -1.9680082 -2.5767837 -200 45 -200 45 -200 45
1746503733.9557 -1.9567451 -2.5733352 -200 45 -200 45 -200 45
1747503850.6418 -1.9523422 -2.582752 -200 45 -200 45 -200 45
1748503967.3279 -1.9557436 -2.5772173 -200 45 -200 45 -200 45
1749504084.014 -1.9608233 -2.5563748 -200 45 -200 45 -200 45
1750504200.7001 -1.9556895 -2.5778265 -200 45 -200 45 -200 45
1751504317.3862 -1.9502467 -2.5776312 -200 45 -200 45 -200 45
1752504434.0723 -1.9476124 -2.5702333 -200 45 -200 45 -200 45
1753504550.7585 -1.9560376 -2.5677087 -200 45 -200 45 -200 45
1754504667.4446 -1.9728364 -2.5615778 -200 45 -200 45 -200 45
1755504784.1307 -1.989723 -2.5370007 -200 45 -200 45 -200 45
1756504900.8168 -1.9994731 -2.5553784 -200 45 -200 45 -200 45
1757505017.5029 -1.9989152 -2.521713 -200 45 -200 45 -200 45
1758505134.189 -1.9978601 -2.5390141 -200 45 -200 45 -200 45
1759505250.8751 -1.9989402 -2.5367205 -200 45 -200 45 -200 45
1760505367.5613 -1.9931018 -2.5478508 -200 45 -200 45 -200 45
1761505484.2474 -1.985468 -2.5475831 -200 45 -200 45 -200 45
1762505600.9335 -1.9721466 -2.5525844 -200 45 -200 45 -200 45
1763505717.6196 -1.9660913 -2.5708828 -200 45 -200 45 -200 45
1764505834.3057 -1.9686627 -2.5434177 -200 45 -200 45 -200 45
1765505950.9918 -1.9737914 -2.5396898 -200 45 -200 45 -200 45
1766506067.6779 -1.9710612 -2.5430851 -200 45 -200 45 -200 45
1767506184.3641 -1.9655316 -2.5630887 -200 45 -200 45 -200 45
1768506301.0502 -1.9631137 -2.5626173 -200 45 -200 45 -200 45
1769506417.7363 -1.968637 -2.5655699 -200 45 -200 45 -200 45
1770506534.4224 -1.9883193 -2.5543609 -200 45 -200 45 -200 45
1771506651.1085 -2.0004847 -2.537668 -200 45 -200 45 -200 45
1772506767.7946 -2.0093775 -2.5347178 -200 45 -200 45 -200 45
1773506884.4807 -2.0119164 -2.5295491 -200 45 -200 45 -200 45
1774507001.1669 -2.0120184 -2.5354321 -200 45 -200 45 -200 45
1775507117.853 -2.0102954 -2.5381906 -200 45 -200 45 -200 45
1776507234.5391 -2.008976 -2.5369518 -200 45 -200 45 -200 45
1777507351.2252 -1.999947 -2.5373719 -200 45 -200 45 -200 45
1778507467.9113 -1.9872892 -2.5485518 -200 45 -200 45 -200 45
1779507584.5974 -1.981613 -2.5624514 -200 45 -200 45 -200 45
1780507701.2835 -1.9833415 -2.5512071 -200 45 -200 45 -200 45
1781507817.9697 -1.9889573 -2.5428135 -200 45 -200 45 -200 45
1782507934.6558 -1.9865828 -2.555851 -200 45 -200 45 -200 45
1783508051.3419 -1.9794275 -2.5571649 -200 45 -200 45 -200 45
1784508168.028 -1.977352 -2.5707808 -200 45 -200 45 -200 45
1785508284.7141 -1.9828064 -2.5630569 -200 45 -200 45 -200 45
1786508401.4002 -1.9985555 -2.5642328 -200 45 -200 45 -200 45
1787508518.0863 -2.0141585 -2.5425901 -200 45 -200 45 -200 45
1788508634.7725 -2.0262518 -2.5429018 -200 45 -200 45 -200 45
1789508751.4586 -2.0287015 -2.5400875 -200 45 -200 45 -200 45
1790508868.1447 -2.0285771 -2.5347145 -200 45 -200 45 -200 45
1791508984.8308 -2.0264282 -2.530885 -200 45 -200 45 -200 45
1792509101.5169 -2.0244193 -2.5528834 -200 45 -200 45 -200 45
1793509218.203 -2.0166519 -2.5526741 -200 45 -200 45 -200 45
1794509334.8891 -2.0052512 -2.5787506 -200 45 -200 45 -200 45
1795509451.5753 -1.9978625 -2.5703351 -200 45 -200 45 -200 45
1796509568.2614 -1.998508 -2.5790958 -200 45 -200 45 -200 45
1797509684.9475 -2.0049257 -2.5607104 -200 45 -200 45 -200 45
1798509801.6336 -2.0045447 -2.5741253 -200 45 -200 45 -200 45
1799509918.3197 -1.9990034 -2.5842581 -200 45 -200 45 -200 45
1800510035.0058 -1.9944185 -2.5922303 -200 45 -200 45 -200 45
1801510151.6919 -1.9979786 -2.5892372 -200 45 -200 45 -200 45
1802510268.3781 -2.0169189 -2.5875285 -200 45 -200 45 -200 45
1803510385.0642 -2.0328987 -2.5850708 -200 45 -200 45 -200 45
1804510501.7503 -2.0479434 -2.5504177 -200 45 -200 45 -200 45
1805510618.4364 -2.0497453 -2.5348153 -200 45 -200 45 -200 45
1806510735.1225 -2.0476007 -2.5201671 -200 45 -200 45 -200 45
1807510851.8086 -2.0460384 -2.5431607 -200 45 -200 45 -200 45
1808510968.4947 -2.0458078 -2.5437808 -200 45 -200 45 -200 45
1809511085.1809 -2.0355599 -2.5557158 -200 45 -200 45 -200 45
1810511201.867 -2.02279 -2.5756717 -200 45 -200 45 -200 45
1811511318.5531 -2.0137782 -2.5808311 -200 45 -200 45 -200 45
1812511435.2392 -2.0148971 -2.573391 -200 45 -200 45 -200 45
1813511551.9253 -2.0208285 -2.5594125 -200 45 -200 45 -200 45
1814511668.6114 -2.0197222 -2.5767372 -200 45 -200 45 -200 45
1815511785.2975 -2.0140412 -2.5836942 -200 45 -200 45 -200 45
1816511901.9837 -2.0092621 -2.6087036 -200 45 -200 45 -200 45
1817512018.6698 -2.0136111 -2.6116557 -200 45 -200 45 -200 45
1818512135.3559 -2.0265722 -2.607043 -200 45 -200 45 -200 45
1819512252.042 -2.0411322 -2.614341 -200 45 -200 45 -200 45
1820512368.7281 -2.0585494 -2.599339 -200 45 -200 45 -200 45
1821512485.4142 -2.0604544 -2.609385 -200 45 -200 45 -200 45
1822512602.1004 -2.0606146 -2.619801 -200 45 -200 45 -200 45
1823512718.7865 -2.0608642 -2.6289744 -200 45 -200 45 -200 45
1824512835.4726 -2.0577681 -2.6293986 -200 45 -200 45 -200 45
1825512952.1587 -2.0526791 -2.6490047 -200 45 -200 45 -200 45
1826513068.8448 -2.040905 -2.6602597 -200 45 -200 45 -200 45
1827513185.5309 -2.0354326 -2.6847064 -200 45 -200 45 -200 45
1828513302.217 -2.0321596 -2.690232 -200 45 -200 45 -200 45
1829513418.9032 -2.0385115 -2.6791985 -200 45 -200 45 -200 45
1830513535.5893 -2.0412898 -2.6838596 -200 45 -200 45 -200 45
1831513652.2754 -2.0363386 -2.7075727 -200 45 -200 45 -200 45
1832513768.9615 -2.0321326 -2.7202353 -200 45 -200 45 -200 45
1833513885.6476 -2.0343118 -2.734714 -200 45 -200 45 -200 45
1834514002.3337 -2.0455799 -2.7285118 -200 45 -200 45 -200 45
1835514119.0198 -2.0626974 -2.7421098 -200 45 -200 45 -200 45
1836514235.706 -2.0795624 -2.7497759 -200 45 -200 45 -200 45
1837514352.3921 -2.0842075 -2.7492747 -200 45 -200 45 -200 45
1838514469.0782 -2.0835142 -2.7490597 -200 45 -200 45 -200 45
1839514585.7643 -2.0845938 -2.7826934 -200 45 -200 45 -200 45
1840514702.4504 -2.083972 -2.8038213 -200 45 -200 45 -200 45
1841514819.1365 -2.0795548 -2.8294456 -200 45 -200 45 -200 45
1842514935.8226 -2.0684733 -2.8616405 -200 45 -200 45 -200 45
1843515052.5088 -2.0620914 -2.8992171 -200 45 -200 45 -200 45
1844515169.1949 -2.0594893 -2.9227293 -200 45 -200 45 -200 45
1845515285.881 -2.0658543 -2.9236722 -200 45 -200 45 -200 45
1846515402.5671 -2.069762 -2.9449558 -200 45 -200 45 -200 45
1847515519.2532 -2.0693734 -2.9949732 -200 45 -200 45 -200 45
1848515635.9393 -2.0627875 -3.0421302 -200 45 -200 45 -200 45
1849515752.6254 -2.0691307 -3.0674536 -200 45 -200 45 -200 45
1850515869.3116 -2.0805984 -3.098139 -200 45 -200 45 -200 45
1851515985.9977 -2.0989704 -3.1448197 -200 45 -200 45 -200 45
1852516102.6838 -2.1189494 -3.1798918 -200 45 -200 45 -200 45
1853516219.3699 -2.1273186 -3.228425 -200 45 -200 45 -200 45
1854516336.056 -2.1322985 -3.2920482 -200 45 -200 45 -200 45
1855516452.7421 -2.138027 -3.3562832 -200 45 -200 45 -200 45
1856516569.4282 -2.142421 -3.4452968 -200 45 -200 45 -200 45
1857516686.1144 -2.1450548 -3.5340476 -200 45 -200 45 -200 45
1858516802.8005 -2.1426253 -3.637758 -200 45 -200 45 -200 45
1859516919.4866 -2.1427662 -3.7741039 -200 45 -200 45 -200 45
1860517036.1727 -2.1539118 -3.922441 -200 45 -200 45 -200 45
1861517152.8588 -2.1789014 -4.0782166 -200 45 -200 45 -200 45
1862517269.5449 -2.2089889 -4.2865195 -200 45 -200 45 -200 45
1863517386.231 -2.2435255 -4.5385299 -200 45 -200 45 -200 45
1864517502.9172 -2.2959664 -4.8490224 -200 45 -200 45 -200 45
1865517619.6033 -2.3835583 -5.1581974 -200 45 -200 45 -200 45
1866517736.2894 -2.5325904 -5.4931526 -200 45 -200 45 -200 45
1867517852.9755 -2.7942507 -5.4539189 -200 45 -200 45 -200 45
1868517969.6616 -3.1293693 -3.8808427 -200 45 -200 45 -200 45
1869518086.3477 -3.163965 -0.62358636 -200 45 -200 45 -200 45
1870518203.0338 -2.8477309 1.2530438 -200 45 -200 45 -200 45
1871518319.72 -2.5712521 1.2867311 -200 45 -200 45 -200 45
1872518436.4061 -2.4259245 0.80837661 -200 45 -200 45 -200 45
1873518553.0922 -2.3544865 0.35274681 -200 45 -200 45 -200 45
1874518669.7783 -2.3151352 0.12189396 -200 45 -200 45 -200 45
1875518786.4644 -2.274945 -0.061476566 -200 45 -200 45 -200 45
1876518903.1505 -2.2757943 -0.24570245 -200 45 -200 45 -200 45
1877519019.8366 -2.3003082 0.01416736 -200 45 -200 45 -200 45
1878519136.5228 -2.2342083 0.47028223 -200 45 -200 45 -200 45
1879519253.2089 -2.1384311 0.33150917 -200 45 -200 45 -200 45
1880519369.895 -2.0809474 -0.0040217284 -200 45 -200 45 -200 45
1881519486.5811 -2.0562687 -0.30118522 -200 45 -200 45 -200 45
1882519603.2672 -2.0518758 -0.52828836 -200 45 -200 45 -200 45
1883519719.9533 -2.0661767 -0.70891184 -200 45 -200 45 -200 45
1884519836.6394 -2.0779059 -0.84488398 -200 45 -200 45 -200 45
1885519953.3256 -2.0870359 -0.95661122 -200 45 -200 45 -200 45
1886520070.0117 -2.0850735 -1.054368 -200 45 -200 45 -200 45
1887520186.6978 -2.0848811 -1.1528405 -200 45 -200 45 -200 45
1888520303.3839 -2.0847797 -1.2227492 -200 45 -200 45 -200 45
1889520420.07 -2.0830419 -1.3022379 -200 45 -200 45 -200 45
1890520536.7561 -2.0740173 -1.3803452 -200 45 -200 45 -200 45
1891520653.4422 -2.0639741 -1.4538876 -200 45 -200 45 -200 45
1892520770.1284 -2.0588119 -1.4978564 -200 45 -200 45 -200 45
1893520886.8145 -2.0638409 -1.5427539 -200 45 -200 45 -200 45
1894521003.5006 -2.070128 -1.5749309 -200 45 -200 45 -200 45
1895521120.1867 -2.0676515 -1.6257629 -200 45 -200 45 -200 45
1896521236.8728 -2.0655422 -1.668573 -200 45 -200 45 -200 45
1897521353.5589 -2.0661747 -1.7276603 -200 45 -200 45 -200 45
1898521470.245 -2.0741551 -1.7654276 -200 45 -200 45 -200 45
1899521586.9312 -2.0978529 -1.7873071 -200 45 -200 45 -200 45
1900521703.6173 -2.1169178 -1.7990725 -200 45 -200 45 -200 45
1901521820.3034 -2.1384389 -1.8054775 -200 45 -200 45 -200 45
1902521936.9895 -2.1453083 -1.7723144 -200 45 -200 45 -200 45
1903522053.6756 -2.1471167 -1.7178584 -200 45 -200 45 -200 45
1904522170.3617 -2.1471827 -1.6940073 -200 45 -200 45 -200 45
1905522287.0478 -2.1403632 -1.6608831 -200 45 -200 45 -200 45
1906522403.734 -2.1258776 -1.6574076 -200 45 -200 45 -200 45
1907522520.4201 -2.1063993 -1.6718014 -200 45 -200 45 -200 45
1908522637.1062 -2.0952601 -1.6918595 -200 45 -200 45 -200 45
1909522753.7923 -2.0935099 -1.7124258 -200 45 -200 45 -200 45
1910522870.4784 -2.0983648 -1.7279642 -200 45 -200 45 -200 45
1911522987.1645 -2.0941188 -1.756723 -200 45 -200 45 -200 45
1912523103.8506 -2.085484 -1.804885 -200 45 -200 45 -200 45
1913523220.5368 -2.0809014 -1.835982 -200 45 -200 45 -200 45
1914523337.2229 -2.0857506 -1.8587735 -200 45 -200 45 -200 45
1915523453.909 -2.1050565 -1.8586028 -200 45 -200 45 -200 45
1916523570.5951 -2.1212835 -1.8598384 -200 45 -200 45 -200 45
1917523687.2812 -2.1320245 -1.8694571 -200 45 -200 45 -200 45
1918523803.9673 -2.1318448 -1.8788935 -200 45 -200 45 -200 45
1919523920.6534 -2.1321537 -1.8915874 -200 45 -200 45 -200 45
1920524037.3396 -2.1316869 -1.9122112 -200 45 -200 45 -200 45
1921524154.0257 -2.1280084 -1.9271001 -200 45 -200 45 -200 45
1922524270.7118 -2.1219859 -1.955443 -200 45 -200 45 -200 45
1923524387.3979 -2.1064219 -1.9899725 -200 45 -200 45 -200 45
1924524504.084 -2.1004386 -2.0074546 -200 45 -200 45 -200 45
1925524620.7701 -2.1016593 -2.0108008 -200 45 -200 45 -200 45
1926524737.4562 -2.1074698 -2.025399 -200 45 -200 45 -200 45
1927524854.1424 -2.1062133 -2.0438585 -200 45 -200 45 -200 45
1928524970.8285 -2.1019704 -2.0750608 -200 45 -200 45 -200 45
1929525087.5146 -2.0969646 -2.095428 -200 45 -200 45 -200 45
1930525204.2007 -2.101383 -2.1180866 -200 45 -200 45 -200 45
1931525320.8868 -2.1182499 -2.1126323 -200 45 -200 45 -200 45
1932525437.5729 -2.1314447 -2.1191261 -200 45 -200 45 -200 45
1933525554.259 -2.1462598 -2.1306767 -200 45 -200 45 -200 45
1934525670.9452 -2.1499186 -2.1352901 -200 45 -200 45 -200 45
1935525787.6313 -2.1490526 -2.1503828 -200 45 -200 45 -200 45
1936525904.3174 -2.1510339 -2.1837881 -200 45 -200 45 -200 45
1937526021.0035 -2.1485615 -2.2201264 -200 45 -200 45 -200 45
1938526137.6896 -2.1425686 -2.2308629 -200 45 -200 45 -200 45
1939526254.3757 -2.1316633 -2.2667615 -200 45 -200 45 -200 45
1940526371.0618 -2.1250808 -2.2869828 -200 45 -200 45 -200 45
1941526487.748 -2.1238995 -2.2981827 -200 45 -200 45 -200 45
1942526604.4341 -2.1304848 -2.295485 -200 45 -200 45 -200 45
1943526721.1202 -2.1340165 -2.3269823 -200 45 -200 45 -200 45
1944526837.8063 -2.1286166 -2.3572428 -200 45 -200 45 -200 45
1945526954.4924 -2.1236413 -2.3947864 -200 45 -200 45 -200 45
1946527071.1785 -2.1272302 -2.4131024 -200 45 -200 45 -200 45
1947527187.8646 -2.1435773 -2.4213762 -200 45 -200 45 -200 45
1948527304.5508 -2.15855 -2.4140742 -200 45 -200 45 -200 45
1949527421.2369 -2.1733305 -2.4348392 -200 45 -200 45 -200 45
1950527537.923 -2.1782205 -2.4667368 -200 45 -200 45 -200 45
1951527654.6091 -2.1811028 -2.4783018 -200 45 -200 45 -200 45
1952527771.2952 -2.1799529 -2.5002265 -200 45 -200 45 -200 45
1953527887.9813 -2.1791942 -2.5413857 -200 45 -200 45 -200 45
1954528004.6674 -2.1756535 -2.5585234 -200 45 -200 45 -200 45
1955528121.3536 -2.1635227 -2.6078789 -200 45 -200 45 -200 45
1956528238.0397 -2.1576574 -2.6488531 -200 45 -200 45 -200 45
1957528354.7258 -2.1574175 -2.6690454 -200 45 -200 45 -200 45
1958528471.4119 -2.1613441 -2.6802218 -200 45 -200 45 -200 45
1959528588.098 -2.1657009 -2.7176793 -200 45 -200 45 -200 45
1960528704.7841 -2.1632564 -2.759784 -200 45 -200 45 -200 45
1961528821.4702 -2.1592405 -2.800735 -200 45 -200 45 -200 45
1962528938.1564 -2.1626191 -2.8434093 -200 45 -200 45 -200 45
1963529054.8425 -2.1759603 -2.8714466 -200 45 -200 45 -200 45
1964529171.5286 -2.1924915 -2.896605 -200 45 -200 45 -200 45
1965529288.2147 -2.2106531 -2.9231648 -200 45 -200 45 -200 45
1966529404.9008 -2.2173891 -2.9639983 -200 45 -200 45 -200 45
1967529521.5869 -2.2213349 -2.9915674 -200 45 -200 45 -200 45
1968529638.273 -2.2218957 -3.0491579 -200 45 -200 45 -200 45
1969529754.9592 -2.2251766 -3.1091139 -200 45 -200 45 -200 45
1970529871.6453 -2.2220049 -3.1594455 -200 45 -200 45 -200 45
1971529988.3314 -2.2130814 -3.2298369 -200 45 -200 45 -200 45
1972530105.0175 -2.2056303 -3.2946751 -200 45 -200 45 -200 45
1973530221.7036 -2.2069139 -3.3587079 -200 45 -200 45 -200 45
1974530338.3897 -2.2170353 -3.4041727 -200 45 -200 45 -200 45
1975530455.0758 -2.222147 -3.4646614 -200 45 -200 45 -200 45
1976530571.762 -2.2225883 -3.5463259 -200 45 -200 45 -200 45
1977530688.4481 -2.2216525 -3.6256599 -200 45 -200 45 -200 45
1978530805.1342 -2.2293844 -3.6992569 -200 45 -200 45 -200 45
1979530921.8203 -2.2447455 -3.7725475 -200 45 -200 45 -200 45
1980531038.5064 -2.2663951 -3.8603175 -200 45 -200 45 -200 45
1981531155.1925 -2.2889216 -3.937587 -200 45 -200 45 -200 45
1982531271.8786 -2.3015692 -4.0378871 -200 45 -200 45 -200 45
1983531388.5648 -2.3076494 -4.140265 -200 45 -200 45 -200 45
1984531505.2509 -2.3138628 -4.2598639 -200 45 -200 45 -200 45
1985531621.937 -2.3250277 -4.3974237 -200 45 -200 45 -200 45
1986531738.6231 -2.3288434 -4.5407286 -200 45 -200 45 -200 45
1987531855.3092 -2.330817 -4.7107987 -200 45 -200 45 -200 45
1988531971.9953 -2.3330543 -4.8413873 -200 45 -200 45 -200 45
1989532088.6814 -2.3414047 -5.0109525 -200 45 -200 45 -200 45
1990532205.3676 -2.359611 -5.18855 -200 45 -200 45 -200 45
1991532322.0537 -2.3793733 -5.4107327 -200 45 -200 45 -200 45
1992532438.7398 -2.3939283 -5.6639915 -200 45 -200 45 -200 45
1993532555.4259 -2.412786 -5.9698977 -200 45 -200 45 -200 45
1994532672.112 -2.4417741 -6.2579489 -200 45 -200 45 -200 45
1995532788.7981 -2.478411 -6.6031904 -200 45 -200 45 -200 45
1996532905.4842 -2.5331879 -6.9865675 -200 45 -200 45 -200 45
1997533022.1704 -2.5964398 -7.4324889 -200 45 -200 45 -200 45
1998533138.8565 -2.6626978 -7.9650626 -200 45 -200 45 -200 45
1999533255.5426 -2.7377915 -8.5986414 -200 45 -200 45 -200 45
2000533372.2287 -2.8376012 -9.3311167 -200 45 -200 45 -200 45
2001533488.9148 -2.9747624 -10.193423 -200 45 -200 45 -200 45
2002533605.6009 -3.1553593 -11.176799 -200 45 -200 45 -200 45
2003533722.287 -3.4096367 -12.366958 -200 45 -200 45 -200 45
2004533838.9732 -3.816081 -13.682678 -200 45 -200 45 -200 45
2005533955.6593 -4.4871674 -14.524787 -200 45 -200 45 -200 45
2006534072.3454 -5.5242796 -13.372048 -200 45 -200 45 -200 45
2007534189.0315 -6.7522488 -5.8541918 -200 45 -200 45 -200 45
2008534305.7176 -6.6424799 7.4765973 -200 45 -200 45 -200 45
2009534422.4037 -5.3318248 14.586909 -200 45 -200 45 -200 45
2010534539.0898 -4.1586757 14.754897 -200 45 -200 45 -200 45
2011534655.776 -3.5241487 12.79976 -200 45 -200 45 -200 45
2012534772.4621 -3.1739576 10.786579 -200 45 -200 45 -200 45
2013534889.1482 -3.0362315 9.0059118 -200 45 -200 45 -200 45
2014535005.8343 -2.964752 7.8920865 -200 45 -200 45 -200 45
2015535122.5204 -2.975976 6.8384104 -200 45 -200 45 -200 45
2016535239.2065 -3.0412774 6.9380102 -200 45 -200 45 -200 45
2017535355.8926 -2.9746439 7.1161776 -200 45 -200 45 -200 45
2018535472.5788 -3.0032301 7.0912828 -200 45 -200 45 -200 45
2019535589.2649 -2.9824841 8.5079508 -200 45 -200 45 -200 45
2020535705.951 -2.6784027 9.4930983 -200 45 -200 45 -200 45
2021535822.6371 -2.3926661 8.9122705 -200 45 -200 45 -200 45
2022535939.3232 -2.2394688 7.9216571 -200 45 -200 45 -200 45
2023536056.0093 -2.1627409 7.0250092 -200 45 -200 45 -200 45
2024536172.6954 -2.1180983 6.2601538 -200 45 -200 45 -200 45
2025536289.3816 -2.0881188 5.6478434 -200 45 -200 45 -200 45
2026536406.0677 -2.0707066 5.1359291 -200 45 -200 45 -200 45
2027536522.7538 -2.0673258 4.7165532 -200 45 -200 45 -200 45
2028536639.4399 -2.0797503 4.380928 -200 45 -200 45 -200 45
2029536756.126 -2.0880232 4.0767684 -200 45 -200 45 -200 45
2030536872.8121 -2.0972135 3.8069456 -200 45 -200 45 -200 45
2031536989.4982 -2.0955603 3.5664504 -200 45 -200 45 -200 45
2032537106.1844 -2.094902 3.3479359 -200 45 -200 45 -200 45
2033537222.8705 -2.093611 3.1577299 -200 45 -200 45 -200 45
2034537339.5566 -2.0899513 2.980875 -200 45 -200 45 -200 45
2035537456.2427 -2.0807798 2.7994859 -200 45 -200 45 -200 45
2036537572.9288 -2.0688865 2.632724 -200 45 -200 45 -200 45
2037537689.6149 -2.0637226 2.489861 -200 45 -200 45 -200 45
2038537806.3011 -2.0673833 2.3786435 -200 45 -200 45 -200 45
2039537922.9872 -2.0753586 2.2769058 -200 45 -200 45 -200 45
2040538039.6733 -2.0745645 2.1518538 -200 45 -200 45 -200 45
2041538156.3594 -2.0690808 2.0532861 -200 45 -200 45 -200 45
2042538273.0455 -2.0669966 1.9519522 -200 45 -200 45 -200 45
2043538389.7316 -2.0745482 1.8704319 -200 45 -200 45 -200 45
2044538506.4177 -2.0914917 1.8057206 -200 45 -200 45 -200 45
2045538623.1039 -2.1053991 1.7415907 -200 45 -200 45 -200 45
2046538739.79 -2.1193361 1.6928285 -200 45 -200 45 -200 45
2047538856.4761 -2.1204293 1.6124928 -200 45 -200 45 -200 45
2048538973.1622 -2.1189971 1.5553725 -200 45 -200 45 -200 45
2049539089.8483 -2.1220295 1.5081024 -200 45 -200 45 -200 45
2050539206.5344 -2.1191206 1.4433099 -200 45 -200 45 -200 45
2051539323.2205 -2.1121426 1.3699718 -200 45 -200 45 -200 45
2052539439.9067 -2.1008856 1.3037922 -200 45 -200 45 -200 45
2053539556.5928 -2.094408 1.2636932 -200 45 -200 45 -200 45
2054539673.2789 -2.0959601 1.2096848 -200 45 -200 45 -200 45
2055539789.965 -2.1003554 1.1841993 -200 45 -200 45 -200 45
2056539906.6511 -2.1017127 1.1367446 -200 45 -200 45 -200 45
2057540023.3372 -2.0990839 1.0866708 -200 45 -200 45 -200 45
2058540140.0233 -2.0952537 1.0438762 -200 45 -200 45 -200 45
2059540256.7095 -2.0991838 1.0109767 -200 45 -200 45 -200 45
2060540373.3956 -2.1147897 0.99758595 -200 45 -200 45 -200 45
2061540490.0817 -2.1299407 0.97182089 -200 45 -200 45 -200 45
2062540606.7678 -2.1446304 0.95147181 -200 45 -200 45 -200 45
2063540723.4539 -2.1475792 0.9264127 -200 45 -200 45 -200 45
2064540840.14 -2.1459119 0.90589726 -200 45 -200 45 -200 45
2065540956.8261 -2.1461673 0.87169987 -200 45 -200 45 -200 45
2066541073.5123 -2.143553 0.84387308 -200 45 -200 45 -200 45
2067541190.1984 -2.1367857 0.80170411 -200 45 -200 45 -200 45
2068541306.8845 -2.1253731 0.76410216 -200 45 -200 45 -200 45
2069541423.5706 -2.1201584 0.74195451 -200 45 -200 45 -200 45
2070541540.2567 -2.1211269 0.71775156 -200 45 -200 45 -200 45
2071541656.9428 -2.1254241 0.70593178 -200 45 -200 45 -200 45
2072541773.6289 -2.127131 0.68916589 -200 45 -200 45 -200 45
2073541890.3151 -2.1233208 0.65425158 -200 45 -200 45 -200 45
2074542007.0012 -2.1180859 0.62054992 -200 45 -200 45 -200 45
2075542123.6873 -2.1213076 0.60781109 -200 45 -200 45 -200 45
2076542240.3734 -2.1369932 0.61546606 -200 45 -200 45 -200 45
2077542357.0595 -2.1510687 0.59973741 -200 45 -200 45 -200 45
2078542473.7456 -2.1654472 0.59154153 -200 45 -200 45 -200 45
2079542590.4317 -2.1695135 0.59239835 -200 45 -200 45 -200 45
2080542707.1179 -2.1701345 0.5707292 -200 45 -200 45 -200 45
2081542823.804 -2.1692827 0.55459505 -200 45 -200 45 -200 45
2082542940.4901 -2.1682205 0.53681678 -200 45 -200 45 -200 45
2083543057.1762 -2.161694 0.51691216 -200 45 -200 45 -200 45
2084543173.8623 -2.149153 0.48616791 -200 45 -200 45 -200 45
2085543290.5484 -2.1404006 0.46801162 -200 45 -200 45 -200 45
2086543407.2345 -2.1398184 0.46010026 -200 45 -200 45 -200 45
2087543523.9207 -2.1469259 0.46702197 -200 45 -200 45 -200 45
2088543640.6068 -2.1477103 0.46055567 -200 45 -200 45 -200 45
2089543757.2929 -2.1433296 0.43580097 -200 45 -200 45 -200 45
2090543873.979 -2.1359248 0.39682725 -200 45 -200 45 -200 45
2091543990.6651 -2.1397161 0.3990562 -200 45 -200 45 -200 45
2092544107.3512 -2.1519656 0.39789549 -200 45 -200 45 -200 45
2093544224.0373 -2.1664281 0.39656448 -200 45 -200 45 -200 45
2094544340.7235 -2.1829879 0.39802161 -200 45 -200 45 -200 45
2095544457.4096 -2.1871622 0.4039745 -200 45 -200 45 -200 45
2096544574.0957 -2.1870139 0.39244908 -200 45 -200 45 -200 45
2097544690.7818 -2.1848278 0.37837744 -200 45 -200 45 -200 45
2098544807.4679 -2.1835389 0.36710387 -200 45 -200 45 -200 45
2099544924.154 -2.1795752 0.35896328 -200 45 -200 45 -200 45
2100545040.8401 -2.1689038 0.31844541 -200 45 -200 45 -200 45
2101545157.5263 -2.1589463 0.30344874 -200 45 -200 45 -200 45
2102545274.2124 -2.1559951 0.31515348 -200 45 -200 45 -200 45
2103545390.8985 -2.1602721 0.31681526 -200 45 -200 45 -200 45
2104545507.5846 -2.1621277 0.30945373 -200 45 -200 45 -200 45
2105545624.2707 -2.1599793 0.30351001 -200 45 -200 45 -200 45
2106545740.9568 -2.154047 0.26537198 -200 45 -200 45 -200 45
2107545857.6429 -2.1576753 0.27821347 -200 45 -200 45 -200 45
2108545974.3291 -2.1651733 0.26937217 -200 45 -200 45 -200 45
2109546091.0152 -2.1806087 0.27381083 -200 45 -200 45 -200 45
2110546207.7013 -2.1962814 0.27107966 -200 45 -200 45 -200 45
2111546324.3874 -2.2021492 0.28247404 -200 45 -200 45 -200 45
2112546441.0735 -2.2028291 0.27297816 -200 45 -200 45 -200 45
2113546557.7596 -2.2012703 0.2761097 -200 45 -200 45 -200 45
2114546674.4457 -2.2001548 0.25844717 -200 45 -200 45 -200 45
2115546791.1319 -2.1952763 0.25467661 -200 45 -200 45 -200 45
2116546907.818 -2.1852045 0.23430212 -200 45 -200 45 -200 45
2117547024.5041 -2.1730347 0.21289 -200 45 -200 45 -200 45
2118547141.1902 -2.1709983 0.21194118 -200 45 -200 45 -200 45
2119547257.8763 -2.173825 0.21592273 -200 45 -200 45 -200 45
2120547374.5624 -2.1784132 0.23196088 -200 45 -200 45 -200 45
2121547491.2485 -2.1743238 0.20947596 -200 45 -200 45 -200 45
2122547607.9347 -2.1689584 0.18948349 -200 45 -200 45 -200 45
2123547724.6208 -2.1721351 0.17620137 -200 45 -200 45 -200 45
2124547841.3069 -2.1761611 0.17755544 -200 45 -200 45 -200 45
2125547957.993 -2.1933448 0.19149993 -200 45 -200 45 -200 45
2126548074.6791 -2.209311 0.1989321 -200 45 -200 45 -200 45
2127548191.3652 -2.2149377 0.19916016 -200 45 -200 45 -200 45
2128548308.0513 -2.2151809 0.20588894 -200 45 -200 45 -200 45
2129548424.7375 -2.2157235 0.19990982 -200 45 -200 45 -200 45
2130548541.4236 -2.2153924 0.19458696 -200 45 -200 45 -200 45
2131548658.1097 -2.2115636 0.18396354 -200 45 -200 45 -200 45
2132548774.7958 -2.2008469 0.17416902 -200 45 -200 45 -200 45
2133548891.4819 -2.1879849 0.14412494 -200 45 -200 45 -200 45
2134549008.168 -2.1847777 0.14755554 -200 45 -200 45 -200 45
2135549124.8541 -2.1888161 0.15963696 -200 45 -200 45 -200 45
2136549241.5403 -2.1945596 0.16161227 -200 45 -200 45 -200 45
2137549358.2264 -2.1898441 0.14837056 -200 45 -200 45 -200 45
2138549474.9125 -2.1863072 0.13316481 -200 45 -200 45 -200 45
2139549591.5986 -2.1847098 0.1407547 -200 45 -200 45 -200 45
2140549708.2847 -2.1911919 0.13961172 -200 45 -200 45 -200 45
2141549824.9708 -2.2065969 0.15344344 -200 45 -200 45 -200 45
2142549941.6569 -2.2209744 0.16214088 -200 45 -200 45 -200 45
2143550058.3431 -2.2289288 0.17457192 -200 45 -200 45 -200 45
2144550175.0292 -2.2293522 0.1774807 -200 45 -200 45 -200 45
2145550291.7153 -2.2285912 0.1831173 -200 45 -200 45 -200 45
2146550408.4014 -2.2259486 0.16939552 -200 45 -200 45 -200 45
2147550525.0875 -2.2209527 0.15035218 -200 45 -200 45 -200 45
2148550641.7736 -2.2131495 0.13979216 -200 45 -200 45 -200 45
2149550758.4597 -2.2020218 0.12293518 -200 45 -200 45 -200 45
2150550875.1459 -2.1963561 0.12387966 -200 45 -200 45 -200 45
2151550991.832 -2.1997674 0.12630399 -200 45 -200 45 -200 45
2152551108.5181 -2.204457 0.13602747 -200 45 -200 45 -200 45
2153551225.2042 -2.2014129 0.1337841 -200 45 -200 45 -200 45
2154551341.8903 -2.1961617 0.12177267 -200 45 -200 45 -200 45
2155551458.5764 -2.1960723 0.1209007 -200 45 -200 45 -200 45
2156551575.2625 -2.1980445 0.12193542 -200 45 -200 45 -200 45
2157551691.9487 -2.2151282 0.13073862 -200 45 -200 45 -200 45
2158551808.6348 -2.2290866 0.13855246 -200 45 -200 45 -200 45
2159551925.3209 -2.2385521 0.14803441 -200 45 -200 45 -200 45
2160552042.007 -2.2412918 0.15739062 -200 45 -200 45 -200 45
2161552158.6931 -2.2390535 0.14316843 -200 45 -200 45 -200 45
2162552275.3792 -2.2377784 0.13677236 -200 45 -200 45 -200 45
2163552392.0653 -2.2353666 0.13531086 -200 45 -200 45 -200 45
2164552508.7515 -2.2271206 0.13145547 -200 45 -200 45 -200 45
2165552625.4376 -2.2157779 0.11301041 -200 45 -200 45 -200 45
2166552742.1237 -2.2077811 0.1045261 -200 45 -200 45 -200 45
2167552858.8098 -2.2126436 0.11866152 -200 45 -200 45 -200 45
2168552975.4959 -2.2162113 0.12840155 -200 45 -200 45 -200 45
2169553092.182 -2.2145703 0.12290991 -200 45 -200 45 -200 45
2170553208.8681 -2.2084939 0.11141121 -200 45 -200 45 -200 45
2171553325.5543 -2.2087114 0.094937302 -200 45 -200 45 -200 45
2172553442.2404 -2.2113585 0.090886973 -200 45 -200 45 -200 45
2173553558.9265 -2.2287538 0.10679989 -200 45 -200 45 -200 45
2174553675.6126 -2.2406418 0.12199894 -200 45 -200 45 -200 45
2175553792.2987 -2.2516692 0.14360444 -200 45 -200 45 -200 45
2176553908.9848 -2.2540019 0.14773573 -200 45 -200 45 -200 45
2177554025.6709 -2.2531672 0.13941295 -200 45 -200 45 -200 45
2178554142.3571 -2.2506757 0.14329816 -200 45 -200 45 -200 45
2179554259.0432 -2.2493432 0.14522964 -200 45 -200 45 -200 45
2180554375.7293 -2.241569 0.11902694 -200 45 -200 45 -200 45
2181554492.4154 -2.2303216 0.10994601 -200 45 -200 45 -200 45
2182554609.1015 -2.2228971 0.10547183 -200 45 -200 45 -200 45
2183554725.7876 -2.2248466 0.1135498 -200 45 -200 45 -200 45
2184554842.4737 -2.2297463 0.13143781 -200 45 -200 45 -200 45
2185554959.1599 -2.2273529 0.12003274 -200 45 -200 45 -200 45
2186555075.846 -2.2240083 0.10886688 -200 45 -200 45 -200 45
2187555192.5321 -2.2196925 0.10717026 -200 45 -200 45 -200 45
2188555309.2182 -2.2228687 0.094606943 -200 45 -200 45 -200 45
2189555425.9043 -2.2386544 0.11125133 -200 45 -200 45 -200 45
2190555542.5904 -2.250175 0.12982908 -200 45 -200 45 -200 45
2191555659.2765 -2.2628517 0.12945147 -200 45 -200 45 -200 45
2192555775.9627 -2.2661879 0.14209691 -200 45 -200 45 -200 45
2193555892.6488 -2.2650809 0.14528912 -200 45 -200 45 -200 45
2194556009.3349 -2.2626626 0.13740958 -200 45 -200 45 -200 45
2195556126.021 -2.2618911 0.1333425 -200 45 -200 45 -200 45
2196556242.7071 -2.255475 0.13046262 -200 45 -200 45 -200 45
2197556359.3932 -2.2444439 0.10917565 -200 45 -200 45 -200 45
2198556476.0793 -2.2366016 0.10096184 -200 45 -200 45 -200 45
2199556592.7655 -2.2353442 0.10183016 -200 45 -200 45 -200 45
2200556709.4516 -2.2407033 0.12258657 -200 45 -200 45 -200 45
2201556826.1377 -2.2423029 0.12448586 -200 45 -200 45 -200 45
2202556942.8238 -2.2364895 0.10824586 -200 45 -200 45 -200 45
2203557059.5099 -2.2331147 0.094824605 -200 45 -200 45 -200 45
2204557176.196 -2.2344015 0.10926666 -200 45 -200 45 -200 45
2205557292.8821 -2.247648 0.10485268 -200 45 -200 45 -200 45
2206557409.5683 -2.2607296 0.12500055 -200 45 -200 45 -200 45
2207557526.2544 -2.2743816 0.12978981 -200 45 -200 45 -200 45
2208557642.9405 -2.2780883 0.13831751 -200 45 -200 45 -200 45
2209557759.6266 -2.277319 0.13309406 -200 45 -200 45 -200 45
2210557876.3127 -2.2752964 0.14101562 -200 45 -200 45 -200 45
2211557992.9988 -2.2741687 0.13721013 -200 45 -200 45 -200 45
2212558109.6849 -2.2687347 0.13235284 -200 45 -200 45 -200 45
2213558226.3711 -2.2585037 0.11344364 -200 45 -200 45 -200 45
2214558343.0572 -2.249789 0.094307706 -200 45 -200 45 -200 45
2215558459.7433 -2.2461121 0.10331487 -200 45 -200 45 -200 45
2216558576.4294 -2.2497773 0.10850007 -200 45 -200 45 -200 45
2217558693.1155 -2.2537358 0.13193856 -200 45 -200 45 -200 45
2218558809.8016 -2.2488735 0.10309774 -200 45 -200 45 -200 45
2219558926.4877 -2.2426262 0.082028709 -200 45 -200 45 -200 45
2220559043.1739 -2.2468402 0.095195733 -200 45 -200 45 -200 45
2221559159.86 -2.25704 0.099608749 -200 45 -200 45 -200 45
2222559276.5461 -2.2688031 0.11980427 -200 45 -200 45 -200 45
2223559393.2322 -2.2850494 0.13726495 -200 45 -200 45 -200 45
2224559509.9183 -2.2892895 0.14014536 -200 45 -200 45 -200 45
2225559626.6044 -2.2887397 0.13961776 -200 45 -200 45 -200 45
2226559743.2905 -2.2885668 0.14571638 -200 45 -200 45 -200 45
2227559859.9767 -2.286824 0.13806786 -200 45 -200 45 -200 45
2228559976.6628 -2.2810762 0.11686514 -200 45 -200 45 -200 45
2229560093.3489 -2.2688687 0.097950734 -200 45 -200 45 -200 45
2230560210.035 -2.2610402 0.10068474 -200 45 -200 45 -200 45
2231560326.7211 -2.2589586 0.11185388 -200 45 -200 45 -200 45
2232560443.4072 -2.2615035 0.11372431 -200 45 -200 45 -200 45
2233560560.0933 -2.265306 0.10793401 -200 45 -200 45 -200 45
2234560676.7795 -2.2605524 0.10443486 -200 45 -200 45 -200 45
2235560793.4656 -2.2550733 0.098159455 -200 45 -200 45 -200 45
2236560910.1517 -2.2573829 0.08823435 -200 45 -200 45 -200 45
2237561026.8378 -2.2654154 0.087305315 -200 45 -200 45 -200 45
2238561143.5239 -2.2814269 0.10570978 -200 45 -200 45 -200 45
2239561260.21 -2.2953286 0.12188542 -200 45 -200 45 -200 45
2240561376.8961 -2.2997332 0.12440604 -200 45 -200 45 -200 45
2241561493.5823 -2.2986121 0.12444561 -200 45 -200 45 -200 45
2242561610.2684 -2.2999148 0.11381223 -200 45 -200 45 -200 45
2243561726.9545 -2.2987702 0.11943515 -200 45 -200 45 -200 45
2244561843.6406 -2.2926672 0.1026028 -200 45 -200 45 -200 45
2245561960.3267 -2.2828681 0.090068191 -200 45 -200 45 -200 45
2246562077.0128 -2.2735968 0.083882406 -200 45 -200 45 -200 45
2247562193.6989 -2.2698917 0.08686579 -200 45 -200 45 -200 45
2248562310.3851 -2.2738345 0.090451546 -200 45 -200 45 -200 45
2249562427.0712 -2.2794917 0.095146894 -200 45 -200 45 -200 45
2250562543.7573 -2.2753153 0.090319417 -200 45 -200 45 -200 45
2251562660.4434 -2.2685077 0.059136253 -200 45 -200 45 -200 45
2252562777.1295 -2.2700896 0.080419905 -200 45 -200 45 -200 45
2253562893.8156 -2.2773466 0.080227777 -200 45 -200 45 -200 45
2254563010.5018 -2.2923505 0.090783805 -200 45 -200 45 -200 45
2255563127.1879 -2.3062396 0.097598694 -200 45 -200 45 -200 45
2256563243.874 -2.312923 0.10204287 -200 45 -200 45 -200 45
2257563360.5601 -2.3136168 0.11642455 -200 45 -200 45 -200 45
2258563477.2462 -2.3128543 0.11625054 -200 45 -200 45 -200 45
2259563593.9323 -2.3108895 0.10825018 -200 45 -200 45 -200 45
2260563710.6184 -2.3083127 0.095159099 -200 45 -200 45 -200 45
2261563827.3046 -2.2980046 0.085557848 -200 45 -200 45 -200 45
2262563943.9907 -2.2893071 0.068999164 -200 45 -200 45 -200 45
2263564060.6768 -2.2813749 0.069229282 -200 45 -200 45 -200 45
2264564177.3629 -2.2870843 0.076140523 -200 45 -200 45 -200 45
2265564294.049 -2.2906747 0.083360642 -200 45 -200 45 -200 45
2266564410.7351 -2.2894316 0.083242029 -200 45 -200 45 -200 45
2267564527.4212 -2.2837019 0.052079126 -200 45 -200 45 -200 45
2268564644.1074 -2.2834275 0.058891445 -200 45 -200 45 -200 45
2269564760.7935 -2.2886243 0.046623997 -200 45 -200 45 -200 45
2270564877.4796 -2.3058231 0.060243685 -200 45 -200 45 -200 45
2271564994.1657 -2.3197229 0.079373367 -200 45 -200 45 -200 45
2272565110.8518 -2.3299041 0.084541835 -200 45 -200 45 -200 45
2273565227.5379 -2.329004 0.079623446 -200 45 -200 45 -200 45
2274565344.224 -2.330183 0.07009279 -200 45 -200 45 -200 45
2275565460.9102 -2.3285973 0.068872184 -200 45 -200 45 -200 45
2276565577.5963 -2.3262591 0.067822471 -200 45 -200 45 -200 45
2277565694.2824 -2.3187091 0.046373211 -200 45 -200 45 -200 45
2278565810.9685 -2.3087971 0.035995983 -200 45 -200 45 -200 45
2279565927.6546 -2.3052094 0.022889532 -200 45 -200 45 -200 45
2280566044.3407 -2.3083532 0.036347177 -200 45 -200 45 -200 45
2281566161.0268 -2.316391 0.045331679 -200 45 -200 45 -200 45
2282566277.713 -2.3190296 0.029808851 -200 45 -200 45 -200 45
2283566394.3991 -2.3185308 0.026178749 -200 45 -200 45 -200 45
2284566511.0852 -2.3158174 0.026980914 -200 45 -200 45 -200 45
2285566627.7713 -2.3255048 0.056013901 -200 45 -200 45 -200 45
2286566744.4574 -2.3434761 0.11644528 -200 45 -200 45 -200 45
2287566861.1435 -2.3554063 0.16155475 -200 45 -200 45 -200 45
2288566977.8296 -2.3626163 0.20113184 -200 45 -200 45 -200 45
2289567094.5158 -2.3611879 0.21800686 -200 45 -200 45 -200 45
2290567211.2019 -2.3562505 0.24447709 -200 45 -200 45 -200 45
2291567327.888 -2.3546503 0.23465982 -200 45 -200 45 -200 45
2292567444.5741 -2.3504684 0.2311672 -200 45 -200 45 -200 45
2293567561.2602 -2.3392513 0.21246104 -200 45 -200 45 -200 45
2294567677.9463 -2.3265564 0.19934101 -200 45 -200 45 -200 45
2295567794.6324 -2.3182902 0.18479292 -200 45 -200 45 -200 45
2296567911.3186 -2.3208535 0.19965182 -200 45 -200 45 -200 45
2297568028.0047 -2.3261106 0.22458065 -200 45 -200 45 -200 45
2298568144.6908 -2.3226898 0.20865841 -200 45 -200 45 -200 45
2299568261.3769 -2.3160279 0.19045638 -200 45 -200 45 -200 45
2300568378.063 -2.3122671 0.17432515 -200 45 -200 45 -200 45
2301568494.7491 -2.3148565 0.16620772 -200 45 -200 45 -200 45
2302568611.4352 -2.3319895 0.19297314 -200 45 -200 45 -200 45
2303568728.1214 -2.3435142 0.18645526 -200 45 -200 45 -200 45
2304568844.8075 -2.3539588 0.20591348 -200 45 -200 45 -200 45
2305568961.4936 -2.3548937 0.20601289 -200 45 -200 45 -200 45
2306569078.1797 -2.3524306 0.21478729 -200 45 -200 45 -200 45
2307569194.8658 -2.353497 0.19214287 -200 45 -200 45 -200 45
2308569311.5519 -2.348392 0.18722291 -200 45 -200 45 -200 45
2309569428.238 -2.3422139 0.15940557 -200 45 -200 45 -200 45
2310569544.9242 -2.3311765 0.14075331 -200 45 -200 45 -200 45
2311569661.6103 -2.324291 0.13364317 -200 45 -200 45 -200 45
2312569778.2964 -2.3233345 0.15065643 -200 45 -200 45 -200 45
2313569894.9825 -2.3305876 0.14755353 -200 45 -200 45 -200 45
2314570011.6686 -2.3276951 0.13680373 -200 45 -200 45 -200 45
2315570128.3547 -2.3256428 0.11723644 -200 45 -200 45 -200 45
2316570245.0408 -2.3221135 0.10565396 -200 45 -200 45 -200 45
2317570361.727 -2.3249149 0.094608076 -200 45 -200 45 -200 45
2318570478.4131 -2.3390491 0.10389426 -200 45 -200 45 -200 45
2319570595.0992 -2.3531075 0.1208608 -200 45 -200 45 -200 45
2320570711.7853 -2.366271 0.1333721 -200 45 -200 45 -200 45
2321570828.4714 -2.3656983 0.1362063 -200 45 -200 45 -200 45
2322570945.1575 -2.3661575 0.11904917 -200 45 -200 45 -200 45
2323571061.8436 -2.3662527 0.12236454 -200 45 -200 45 -200 45
2324571178.5298 -2.3651297 0.11975028 -200 45 -200 45 -200 45
2325571295.2159 -2.3587196 0.094433725 -200 45 -200 45 -200 45
2326571411.902 -2.3486435 0.070154645 -200 45 -200 45 -200 45
2327571528.5881 -2.3425996 0.068325855 -200 45 -200 45 -200 45
2328571645.2742 -2.3407204 0.053041406 -200 45 -200 45 -200 45
2329571761.9603 -2.3458397 0.068179101 -200 45 -200 45 -200 45
2330571878.6464 -2.3463542 0.073652916 -200 45 -200 45 -200 45
2331571995.3326 -2.3443532 0.060558487 -200 45 -200 45 -200 45
2332572112.0187 -2.3393373 0.035599701 -200 45 -200 45 -200 45
2333572228.7048 -2.3416111 0.050673433 -200 45 -200 45 -200 45
2334572345.3909 -2.3536937 0.036202673 -200 45 -200 45 -200 45
2335572462.077 -2.368732 0.045341291 -200 45 -200 45 -200 45
2336572578.7631 -2.3822563 0.056077816 -200 45 -200 45 -200 45
2337572695.4492 -2.3852563 0.063238695 -200 45 -200 45 -200 45
2338572812.1354 -2.3861086 0.053070683 -200 45 -200 45 -200 45
2339572928.8215 -2.3849351 0.038033076 -200 45 -200 45 -200 45
2340573045.5076 -2.3843019 0.030682273 -200 45 -200 45 -200 45
2341573162.1937 -2.3794467 0.017098498 -200 45 -200 45 -200 45
2342573278.8798 -2.3673179 -0.007196846 -200 45 -200 45 -200 45
2343573395.5659 -2.3621945 -0.023059806 -200 45 -200 45 -200 45
2344573512.252 -2.3609407 -0.019518118 -200 45 -200 45 -200 45
2345573628.9382 -2.3622398 -0.019229678 -200 45 -200 45 -200 45
2346573745.6243 -2.3678076 -0.022527505 -200 45 -200 45 -200 45
2347573862.3104 -2.3650124 -0.040940013 -200 45 -200 45 -200 45
2348573978.9965 -2.3592768 -0.064487077 -200 45 -200 45 -200 45
2349574095.6826 -2.3619928 -0.063476317 -200 45 -200 45 -200 45
2350574212.3687 -2.3727067 -0.062771536 -200 45 -200 45 -200 45
2351574329.0548 -2.386688 -0.064681925 -200 45 -200 45 -200 45
2352574445.741 -2.401479 -0.053217866 -200 45 -200 45 -200 45
2353574562.4271 -2.4061255 -0.050421618 -200 45 -200 45 -200 45
2354574679.1132 -2.4061425 -0.073584989 -200 45 -200 45 -200 45
2355574795.7993 -2.4051616 -0.089142509 -200 45 -200 45 -200 45
2356574912.4854 -2.4070904 -0.094454192 -200 45 -200 45 -200 45
2357575029.1715 -2.402415 -0.10584608 -200 45 -200 45 -200 45
2358575145.8576 -2.3937898 -0.14443715 -200 45 -200 45 -200 45
2359575262.5438 -2.3843219 -0.16470218 -200 45 -200 45 -200 45
2360575379.2299 -2.3827014 -0.17976804 -200 45 -200 45 -200 45
2361575495.916 -2.3875315 -0.17592883 -200 45 -200 45 -200 45
2362575612.6021 -2.3930919 -0.1812664 -200 45 -200 45 -200 45
2363575729.2882 -2.3908877 -0.21722674 -200 45 -200 45 -200 45
2364575845.9743 -2.3863811 -0.24481872 -200 45 -200 45 -200 45
2365575962.6604 -2.3880801 -0.25506037 -200 45 -200 45 -200 45
2366576079.3466 -2.3979826 -0.28163952 -200 45 -200 45 -200 45
2367576196.0327 -2.4159534 -0.27806711 -200 45 -200 45 -200 45
2368576312.7188 -2.4299374 -0.2976751 -200 45 -200 45 -200 45
2369576429.4049 -2.4363849 -0.29712531 -200 45 -200 45 -200 45
2370576546.091 -2.4392533 -0.32905912 -200 45 -200 45 -200 45
2371576662.7771 -2.4403012 -0.33935806 -200 45 -200 45 -200 45
2372576779.4632 -2.4402294 -0.37208906 -200 45 -200 45 -200 45
2373576896.1494 -2.4396284 -0.41489747 -200 45 -200 45 -200 45
2374577012.8355 -2.432296 -0.44857332 -200 45 -200 45 -200 45
2375577129.5216 -2.4264657 -0.49403608 -200 45 -200 45 -200 45
2376577246.2077 -2.4257765 -0.53266335 -200 45 -200 45 -200 45
2377577362.8938 -2.4307387 -0.54143929 -200 45 -200 45 -200 45
2378577479.5799 -2.4403541 -0.57393175 -200 45 -200 45 -200 45
2379577596.266 -2.4397554 -0.6170516 -200 45 -200 45 -200 45
2380577712.9522 -2.4374623 -0.67346674 -200 45 -200 45 -200 45
2381577829.6383 -2.4433761 -0.72234356 -200 45 -200 45 -200 45
2382577946.3244 -2.4546175 -0.76766914 -200 45 -200 45 -200 45
2383578063.0105 -2.4779284 -0.80713916 -200 45 -200 45 -200 45
2384578179.6966 -2.4963276 -0.85402685 -200 45 -200 45 -200 45
2385578296.3827 -2.5106328 -0.91241914 -200 45 -200 45 -200 45
2386578413.0688 -2.5194497 -0.96560967 -200 45 -200 45 -200 45
2387578529.755 -2.5283499 -1.0478032 -200 45 -200 45 -200 45
2388578646.4411 -2.5392802 -1.1318287 -200 45 -200 45 -200 45
2389578763.1272 -2.5486655 -1.2346275 -200 45 -200 45 -200 45
2390578879.8133 -2.5539877 -1.3613265 -200 45 -200 45 -200 45
2391578996.4994 -2.5626366 -1.4837821 -200 45 -200 45 -200 45
2392579113.1855 -2.5805967 -1.6190617 -200 45 -200 45 -200 45
2393579229.8716 -2.6098108 -1.7411802 -200 45 -200 45 -200 45
2394579346.5578 -2.6514499 -1.8928096 -200 45 -200 45 -200 45
2395579463.2439 -2.6929777 -2.0715299 -200 45 -200 45 -200 45
2396579579.93 -2.7428746 -2.2639656 -200 45 -200 45 -200 45
2397579696.6161 -2.8182678 -2.4358294 -200 45 -200 45 -200 45
2398579813.3022 -2.927108 -2.5424054 -200 45 -200 45 -200 45
2399579929.9883 -3.078299 -2.4895692 -200 45 -200 45 -200 45
2400580046.6744 -3.2664371 -2.0687082 -200 45 -200 45 -200 45
2401580163.3606 -3.4522791 -1.0029628 -200 45 -200 45 -200 45
2402580280.0467 -3.5444703 0.79450917 -200 45 -200 45 -200 45
2403580396.7328 -3.4770446 2.6900265 -200 45 -200 45 -200 45
2404580513.4189 -3.2909586 3.9262259 -200 45 -200 45 -200 45
2405580630.105 -3.0973763 4.3658595 -200 45 -200 45 -200 45
2406580746.7911 -2.9346838 4.3461528 -200 45 -200 45 -200 45
2407580863.4772 -2.8127034 4.1321921 -200 45 -200 45 -200 45
2408580980.1634 -2.7356453 3.883152 -200 45 -200 45 -200 45
2409581096.8495 -2.6853499 3.6658194 -200 45 -200 45 -200 45
2410581213.5356 -2.6501079 3.4951136 -200 45 -200 45 -200 45
2411581330.2217 -2.6167119 3.2705557 -200 45 -200 45 -200 45
2412581446.9078 -2.5948112 3.0442026 -200 45 -200 45 -200 45
2413581563.5939 -2.5899072 2.9057722 -200 45 -200 45 -200 45
2414581680.28 -2.5924866 2.8200474 -200 45 -200 45 -200 45
2415581796.9662 -2.6112051 2.8407719 -200 45 -200 45 -200 45
2416581913.6523 -2.6212027 2.8897696 -200 45 -200 45 -200 45
2417582030.3384 -2.6199422 2.9981093 -200 45 -200 45 -200 45
2418582147.0245 -2.6010704 3.0580065 -200 45 -200 45 -200 45
2419582263.7106 -2.5786581 3.0969365 -200 45 -200 45 -200 45
2420582380.3967 -2.5536587 3.1058543 -200 45 -200 45 -200 45
2421582497.0828 -2.5293534 3.1147203 -200 45 -200 45 -200 45
2422582613.769 -2.4936278 3.0999281 -200 45 -200 45 -200 45
2423582730.4551 -2.4521418 2.9997094 -200 45 -200 45 -200 45
2424582847.1412 -2.4241626 2.8854299 -200 45 -200 45 -200 45
2425582963.8273 -2.4073956 2.7805631 -200 45 -200 45 -200 45
2426583080.5134 -2.398571 2.672631 -200 45 -200 45 -200 45
2427583197.1995 -2.3904953 2.5423305 -200 45 -200 45 -200 45
2428583313.8856 -2.3803771 2.4275553 -200 45 -200 45 -200 45
2429583430.5718 -2.3714814 2.3248994 -200 45 -200 45 -200 45
2430583547.2579 -2.3745563 2.2310703 -200 45 -200 45 -200 45
2431583663.944 -2.3890095 2.1907463 -200 45 -200 45 -200 45
2432583780.6301 -2.3995492 2.1174591 -200 45 -200 45 -200 45
2433583897.3162 -2.4084888 2.0702548 -200 45 -200 45 -200 45
2434584014.0023 -2.4085505 2.0343642 -200 45 -200 45 -200 45
2435584130.6884 -2.408674 1.9796872 -200 45 -200 45 -200 45
2436584247.3746 -2.4098182 1.9276851 -200 45 -200 45 -200 45
2437584364.0607 -2.4062579 1.8845135 -200 45 -200 45 -200 45
2438584480.7468 -2.3994615 1.844804 -200 45 -200 45 -200 45
2439584597.4329 -2.3856134 1.7938137 -200 45 -200 45 -200 45
2440584714.119 -2.3816357 1.737558 -200 45 -200 45 -200 45
2441584830.8051 -2.3787766 1.721995 -200 45 -200 45 -200 45
2442584947.4912 -2.3853552 1.7101818 -200 45 -200 45 -200 45
2443585064.1774 -2.3881624 1.6785103 -200 45 -200 45 -200 45
2444585180.8635 -2.3823996 1.6341102 -200 45 -200 45 -200 45
2445585297.5496 -2.3769634 1.600553 -200 45 -200 45 -200 45
2446585414.2357 -2.3835771 1.5839288 -200 45 -200 45 -200 45
2447585530.9218 -2.3938878 1.554099 -200 45 -200 45 -200 45
2448585647.6079 -2.4075663 1.5525597 -200 45 -200 45 -200 45
2449585764.294 -2.4212143 1.551126 -200 45 -200 45 -200 45
2450585880.9802 -2.4235625 1.5374808 -200 45 -200 45 -200 45
2451585997.6663 -2.4228747 1.51533 -200 45 -200 45 -200 45
2452586114.3524 -2.4237533 1.4939015 -200 45 -200 45 -200 45
2453586231.0385 -2.4211488 1.4723574 -200 45 -200 45 -200 45
2454586347.7246 -2.4170277 1.4509577 -200 45 -200 45 -200 45
2455586464.4107 -2.4058588 1.4098996 -200 45 -200 45 -200 45
2456586581.0968 -2.399189 1.4007549 -200 45 -200 45 -200 45
2457586697.783 -2.3977234 1.3757946 -200 45 -200 45 -200 45
2458586814.4691 -2.4028211 1.3819801 -200 45 -200 45 -200 45
2459586931.1552 -2.4055994 1.3681027 -200 45 -200 45 -200 45
2460587047.8413 -2.4033864 1.3541198 -200 45 -200 45 -200 45
2461587164.5274 -2.3976948 1.3369194 -200 45 -200 45 -200 45
2462587281.2135 -2.4000769 1.3151463 -200 45 -200 45 -200 45
2463587397.8997 -2.4097655 1.3148515 -200 45 -200 45 -200 45
2464587514.5858 -2.4238796 1.3028114 -200 45 -200 45 -200 45
2465587631.2719 -2.4395201 1.3022174 -200 45 -200 45 -200 45
2466587747.958 -2.4422684 1.2995071 -200 45 -200 45 -200 45
2467587864.6441 -2.4444125 1.2991943 -200 45 -200 45 -200 45
2468587981.3302 -2.4445479 1.2812363 -200 45 -200 45 -200 45
2469588098.0163 -2.4435041 1.2726599 -200 45 -200 45 -200 45
2470588214.7025 -2.4390826 1.261839 -200 45 -200 45 -200 45
2471588331.3886 -2.4279618 1.2341624 -200 45 -200 45 -200 45
2472588448.0747 -2.4198904 1.2265642 -200 45 -200 45 -200 45
2473588564.7608 -2.4181554 1.207191 -200 45 -200 45 -200 45
2474588681.4469 -2.4217958 1.2203913 -200 45 -200 45 -200 45
2475588798.133 -2.4238999 1.209525 -200 45 -200 45 -200 45
2476588914.8191 -2.4204419 1.192938 -200 45 -200 45 -200 45
2477589031.5053 -2.4175081 1.1738485 -200 45 -200 45 -200 45
2478589148.1914 -2.4212799 1.1575847 -200 45 -200 45 -200 45
2479589264.8775 -2.4301283 1.1458952 -200 45 -200 45 -200 45
2480589381.5636 -2.4439099 1.1494086 -200 45 -200 45 -200 45
2481589498.2497 -2.459949 1.1595383 -200 45 -200 45 -200 45
2482589614.9358 -2.4651322 1.1465366 -200 45 -200 45 -200 45
2483589731.6219 -2.4668028 1.1427706 -200 45 -200 45 -200 45
2484589848.3081 -2.4676471 1.12494 -200 45 -200 45 -200 45
2485589964.9942 -2.4679506 1.1130065 -200 45 -200 45 -200 45
2486590081.6803 -2.4649124 1.0860578 -200 45 -200 45 -200 45
2487590198.3664 -2.4560566 1.0585889 -200 45 -200 45 -200 45
2488590315.0525 -2.45049 1.0246044 -200 45 -200 45 -200 45
2489590431.7386 -2.4502938 1.0118735 -200 45 -200 45 -200 45
2490590548.4247 -2.4605293 1.0006341 -200 45 -200 45 -200 45
2491590665.1109 -2.4684851 0.99416274 -200 45 -200 45 -200 45
2492590781.797 -2.4717526 0.96357185 -200 45 -200 45 -200 45
2493590898.4831 -2.4757597 0.93648726 -200 45 -200 45 -200 45
2494591015.1692 -2.4907453 0.94723159 -200 45 -200 45 -200 45
2495591131.8553 -2.5111334 0.96536046 -200 45 -200 45 -200 45
2496591248.5414 -2.5448408 1.0566899 -200 45 -200 45 -200 45
2497591365.2275 -2.5706706 1.1846024 -200 45 -200 45 -200 45
2498591481.9137 -2.5773194 1.3559185 -200 45 -200 45 -200 45
2499591598.5998 -2.5679483 1.5345074 -200 45 -200 45 -200 45
2500591715.2859 -2.5508945 1.6161236 -200 45 -200 45 -200 45
2501591831.972 -2.5298576 1.6555818 -200 45 -200 45 -200 45
2502591948.6581 -2.5091646 1.6480496 -200 45 -200 45 -200 45
2503592065.3442 -2.4883068 1.6126531 -200 45 -200 45 -200 45
2504592182.0303 -2.4751492 1.5554454 -200 45 -200 45 -200 45
2505592298.7165 -2.4716432 1.5535541 -200 45 -200 45 -200 45
2506592415.4026 -2.4717329 1.551219 -200 45 -200 45 -200 45
2507592532.0887 -2.4712052 1.5422028 -200 45 -200 45 -200 45
2508592648.7748 -2.4650815 1.5285277 -200 45 -200 45 -200 45
2509592765.4609 -2.4606926 1.5108037 -200 45 -200 45 -200 45
2510592882.147 -2.4605799 1.5196301 -200 45 -200 45 -200 45
2511592998.8331 -2.4729459 1.5398723 -200 45 -200 45 -200 45
2512593115.5193 -2.481961 1.5467255 -200 45 -200 45 -200 45
2513593232.2054 -2.4873109 1.5763769 -200 45 -200 45 -200 45
2514593348.8915 -2.4863691 1.5695604 -200 45 -200 45 -200 45
2515593465.5776 -2.4812109 1.5467079 -200 45 -200 45 -200 45
2516593582.2637 -2.4787524 1.5255727 -200 45 -200 45 -200 45
2517593698.9498 -2.4741383 1.4882777 -200 45 -200 45 -200 45
2518593815.6359 -2.4667664 1.4732572 -200 45 -200 45 -200 45
2519593932.3221 -2.4562886 1.4300678 -200 45 -200 45 -200 45
2520594049.0082 -2.4463172 1.4097078 -200 45 -200 45 -200 45
2521594165.6943 -2.4455361 1.3995063 -200 45 -200 45 -200 45
2522594282.3804 -2.4517388 1.4152205 -200 45 -200 45 -200 45
2523594399.0665 -2.4517648 1.3966507 -200 45 -200 45 -200 45
2524594515.7526 -2.4478765 1.3776208 -200 45 -200 45 -200 45
2525594632.4387 -2.4452302 1.3614863 -200 45 -200 45 -200 45
2526594749.1249 -2.4474545 1.3596708 -200 45 -200 45 -200 45
2527594865.811 -2.4651539 1.3643526 -200 45 -200 45 -200 45
2528594982.4971 -2.4746056 1.357733 -200 45 -200 45 -200 45
2529595099.1832 -2.4862199 1.3889223 -200 45 -200 45 -200 45
2530595215.8693 -2.4873447 1.3710774 -200 45 -200 45 -200 45
2531595332.5554 -2.4881837 1.3728386 -200 45 -200 45 -200 45
2532595449.2415 -2.4866714 1.3656245 -200 45 -200 45 -200 45
2533595565.9277 -2.4837179 1.3498192 -200 45 -200 45 -200 45
2534595682.6138 -2.4768252 1.3453772 -200 45 -200 45 -200 45
2535595799.2999 -2.4681506 1.3043628 -200 45 -200 45 -200 45
2536595915.986 -2.4602182 1.3027995 -200 45 -200 45 -200 45
2537596032.6721 -2.4604285 1.3200427 -200 45 -200 45 -200 45
2538596149.3582 -2.4678829 1.3261292 -200 45 -200 45 -200 45
2539596266.0443 -2.4678321 1.320073 -200 45 -200 45 -200 45
2540596382.7305 -2.4637227 1.3046249 -200 45 -200 45 -200 45
2541596499.4166 -2.4591949 1.2873576 -200 45 -200 45 -200 45
2542596616.1027 -2.4622991 1.290876 -200 45 -200 45 -200 45
2543596732.7888 -2.477571 1.2997594 -200 45 -200 45 -200 45
2544596849.4749 -2.4906287 1.3082415 -200 45 -200 45 -200 45
2545596966.161 -2.500766 1.327736 -200 45 -200 45 -200 45
2546597082.8471 -2.5042601 1.3233415 -200 45 -200 45 -200 45
2547597199.5333 -2.5018914 1.3278307 -200 45 -200 45 -200 45
2548597316.2194 -2.5018218 1.3141217 -200 45 -200 45 -200 45
2549597432.9055 -2.4986036 1.2951797 -200 45 -200 45 -200 45
2550597549.5916 -2.4923611 1.2975601 -200 45 -200 45 -200 45
2551597666.2777 -2.4818666 1.2692027 -200 45 -200 45 -200 45
2552597782.9638 -2.4762249 1.2730439 -200 45 -200 45 -200 45
2553597899.6499 -2.4767468 1.2727774 -200 45 -200 45 -200 45
2554598016.3361 -2.4835367 1.290018 -200 45 -200 45 -200 45
2555598133.0222 -2.4831603 1.2837813 -200 45 -200 45 -200 45
2556598249.7083 -2.478219 1.2726955 -200 45 -200 45 -200 45
2557598366.3944 -2.4763622 1.2673265 -200 45 -200 45 -200 45
2558598483.0805 -2.4801776 1.2535307 -200 45 -200 45 -200 45
2559598599.7666 -2.4948566 1.2694637 -200 45 -200 45 -200 45
2560598716.4527 -2.5084751 1.2814735 -200 45 -200 45 -200 45
2561598833.1389 -2.5168376 1.2966526 -200 45 -200 45 -200 45
2562598949.825 -2.5189357 1.3055679 -200 45 -200 45 -200 45
2563599066.5111 -2.5180078 1.2955561 -200 45 -200 45 -200 45
2564599183.1972 -2.5170484 1.2948515 -200 45 -200 45 -200 45
2565599299.8833 -2.5160091 1.2842891 -200 45 -200 45 -200 45
2566599416.5694 -2.5077245 1.276109 -200 45 -200 45 -200 45
2567599533.2555 -2.4973383 1.2609073 -200 45 -200 45 -200 45
2568599649.9417 -2.4921138 1.2453128 -200 45 -200 45 -200 45
2569599766.6278 -2.4926598 1.2586111 -200 45 -200 45 -200 45
2570599883.3139 -2.4980009 1.2658707 -200 45 -200 45 -200 45
2571600000 -2.4992552 1.2597913 -200 45 -200 45 -200 45
2572600116.6861 -2.4941559 1.2481323 -200 45 -200 45 -200 45
2573600233.3722 -2.4896595 1.2364259 -200 45 -200 45 -200 45
2574600350.0583 -2.4949224 1.2279906 -200 45 -200 45 -200 45
2575600466.7445 -2.5093768 1.2646611 -200 45 -200 45 -200 45
2576600583.4306 -2.5245457 1.2724931 -200 45 -200 45 -200 45
2577600700.1167 -2.5330524 1.2837473 -200 45 -200 45 -200 45
2578600816.8028 -2.5334573 1.2839878 -200 45 -200 45 -200 45
2579600933.4889 -2.5319047 1.2783449 -200 45 -200 45 -200 45
2580601050.175 -2.5339987 1.279776 -200 45 -200 45 -200 45
2581601166.8611 -2.5316398 1.2590472 -200 45 -200 45 -200 45
2582601283.5473 -2.5242822 1.247655 -200 45 -200 45 -200 45
2583601400.2334 -2.5124922 1.2462316 -200 45 -200 45 -200 45
2584601516.9195 -2.5066471 1.2376273 -200 45 -200 45 -200 45
2585601633.6056 -2.509583 1.2488602 -200 45 -200 45 -200 45
2586601750.2917 -2.5143392 1.2677293 -200 45 -200 45 -200 45
2587601866.9778 -2.515276 1.2506353 -200 45 -200 45 -200 45
2588601983.6639 -2.5099506 1.2398837 -200 45 -200 45 -200 45
2589602100.3501 -2.5070467 1.2352362 -200 45 -200 45 -200 45
2590602217.0362 -2.508945 1.2508091 -200 45 -200 45 -200 45
2591602333.7223 -2.5279329 1.2455142 -200 45 -200 45 -200 45
2592602450.4084 -2.5403993 1.2603159 -200 45 -200 45 -200 45
2593602567.0945 -2.5479944 1.2777807 -200 45 -200 45 -200 45
2594602683.7806 -2.54933 1.2719365 -200 45 -200 45 -200 45
2595602800.4667 -2.5499263 1.2656751 -200 45 -200 45 -200 45
2596602917.1529 -2.5478625 1.2640278 -200 45 -200 45 -200 45
2597603033.839 -2.546247 1.2523831 -200 45 -200 45 -200 45
2598603150.5251 -2.5383856 1.2365681 -200 45 -200 45 -200 45
2599603267.2112 -2.5275671 1.2201848 -200 45 -200 45 -200 45
2600603383.8973 -2.5203691 1.2112293 -200 45 -200 45 -200 45
2601603500.5834 -2.5241923 1.2317791 -200 45 -200 45 -200 45
2602603617.2695 -2.5299973 1.2399194 -200 45 -200 45 -200 45
2603603733.9557 -2.5286117 1.2255586 -200 45 -200 45 -200 45
2604603850.6418 -2.5246952 1.2209679 -200 45 -200 45 -200 45
2605603967.3279 -2.5247788 1.2020768 -200 45 -200 45 -200 45
2606604084.014 -2.5296917 1.2101753 -200 45 -200 45 -200 45
2607604200.7001 -2.5447156 1.2211165 -200 45 -200 45 -200 45
2608604317.3862 -2.5576215 1.2303288 -200 45 -200 45 -200 45
2609604434.0723 -2.5653882 1.2383462 -200 45 -200 45 -200 45
2610604550.7585 -2.5680943 1.2403115 -200 45 -200 45 -200 45
2611604667.4446 -2.568126 1.2343246 -200 45 -200 45 -200 45
2612604784.1307 -2.5671184 1.2331578 -200 45 -200 45 -200 45
2613604900.8168 -2.5659204 1.2073168 -200 45 -200 45 -200 45
2614605017.5029 -2.5585876 1.1991804 -200 45 -200 45 -200 45
2615605134.189 -2.5514395 1.1690651 -200 45 -200 45 -200 45
2616605250.8751 -2.5485418 1.1798587 -200 45 -200 45 -200 45
2617605367.5613 -2.553998 1.1872083 -200 45 -200 45 -200 45
2618605484.2474 -2.5617876 1.2188193 -200 45 -200 45 -200 45
2619605600.9335 -2.5641038 1.223677 -200 45 -200 45 -200 45
2620605717.6196 -2.5627315 1.2366012 -200 45 -200 45 -200 45
2621605834.3057 -2.5634675 1.2849795 -200 45 -200 45 -200 45
2622605950.9918 -2.565048 1.3200346 -200 45 -200 45 -200 45
2623606067.6779 -2.5779648 1.3657882 -200 45 -200 45 -200 45
2624606184.3641 -2.584686 1.3895699 -200 45 -200 45 -200 45
2625606301.0502 -2.5887048 1.3921859 -200 45 -200 45 -200 45
2626606417.7363 -2.5868568 1.3907654 -200 45 -200 45 -200 45
2627606534.4224 -2.5823691 1.3922457 -200 45 -200 45 -200 45
2628606651.1085 -2.5828037 1.3690752 -200 45 -200 45 -200 45
2629606767.7946 -2.577508 1.3687402 -200 45 -200 45 -200 45
2630606884.4807 -2.5697017 1.3292437 -200 45 -200 45 -200 45
2631607001.1669 -2.557322 1.3157077 -200 45 -200 45 -200 45
2632607117.853 -2.5525784 1.3210502 -200 45 -200 45 -200 45
2633607234.5391 -2.5541191 1.3221142 -200 45 -200 45 -200 45
2634607351.2252 -2.5604711 1.325171 -200 45 -200 45 -200 45
2635607467.9113 -2.5568762 1.3162384 -200 45 -200 45 -200 45
2636607584.5974 -2.5540824 1.3097692 -200 45 -200 45 -200 45
2637607701.2835 -2.5547471 1.305833 -200 45 -200 45 -200 45
2638607817.9697 -2.5588989 1.2944782 -200 45 -200 45 -200 45
2639607934.6558 -2.5733602 1.3206021 -200 45 -200 45 -200 45
2640608051.3419 -2.5891292 1.3257406 -200 45 -200 45 -200 45
2641608168.028 -2.5971901 1.3473214 -200 45 -200 45 -200 45
2642608284.7141 -2.5952752 1.3546212 -200 45 -200 45 -200 45
2643608401.4002 -2.5932231 1.3599348 -200 45 -200 45 -200 45
2644608518.0863 -2.5922089 1.3624165 -200 45 -200 45 -200 45
2645608634.7725 -2.5888975 1.3513303 -200 45 -200 45 -200 45
2646608751.4586 -2.5805593 1.3118351 -200 45 -200 45 -200 45
2647608868.1447 -2.5690982 1.2967169 -200 45 -200 45 -200 45
2648608984.8308 -2.5616224 1.2926466 -200 45 -200 45 -200 45
2649609101.5169 -2.5669844 1.3179194 -200 45 -200 45 -200 45
2650609218.203 -2.5728724 1.3086102 -200 45 -200 45 -200 45
2651609334.8891 -2.5697892 1.2942271 -200 45 -200 45 -200 45
2652609451.5753 -2.5631256 1.2748522 -200 45 -200 45 -200 45
2653609568.2614 -2.5651162 1.2568378 -200 45 -200 45 -200 45
2654609684.9475 -2.5707862 1.2766852 -200 45 -200 45 -200 45
2655609801.6336 -2.5849061 1.2815056 -200 45 -200 45 -200 45
2656609918.3197 -2.5990684 1.3090191 -200 45 -200 45 -200 45
2657610035.0058 -2.6083035 1.3049318 -200 45 -200 45 -200 45
2658610151.6919 -2.6076448 1.2917794 -200 45 -200 45 -200 45
2659610268.3781 -2.6077108 1.2848238 -200 45 -200 45 -200 45
2660610385.0642 -2.6065562 1.2819242 -200 45 -200 45 -200 45
2661610501.7503 -2.6037161 1.2762359 -200 45 -200 45 -200 45
2662610618.4364 -2.5953004 1.2490664 -200 45 -200 45 -200 45
2663610735.1225 -2.5863225 1.2285267 -200 45 -200 45 -200 45
2664610851.8086 -2.5816336 1.2324686 -200 45 -200 45 -200 45
2665610968.4947 -2.5862887 1.243651 -200 45 -200 45 -200 45
2666611085.1809 -2.5903373 1.2564422 -200 45 -200 45 -200 45
2667611201.867 -2.5905926 1.2356462 -200 45 -200 45 -200 45
2668611318.5531 -2.5837131 1.2204975 -200 45 -200 45 -200 45
2669611435.2392 -2.5840316 1.2238194 -200 45 -200 45 -200 45
2670611551.9253 -2.5913761 1.2199776 -200 45 -200 45 -200 45
2671611668.6114 -2.6056685 1.2362646 -200 45 -200 45 -200 45
2672611785.2975 -2.6198685 1.2309282 -200 45 -200 45 -200 45
2673611901.9837 -2.6254454 1.2298125 -200 45 -200 45 -200 45
2674612018.6698 -2.6262131 1.2355552 -200 45 -200 45 -200 45
2675612135.3559 -2.6264279 1.242655 -200 45 -200 45 -200 45
2676612252.042 -2.6272771 1.234558 -200 45 -200 45 -200 45
2677612368.7281 -2.6220913 1.21264 -200 45 -200 45 -200 45
2678612485.4142 -2.6146719 1.2012737 -200 45 -200 45 -200 45
2679612602.1004 -2.6041944 1.1824545 -200 45 -200 45 -200 45
2680612718.7865 -2.6020136 1.1760311 -200 45 -200 45 -200 45
2681612835.4726 -2.6056893 1.1897993 -200 45 -200 45 -200 45
2682612952.1587 -2.6092923 1.1988592 -200 45 -200 45 -200 45
2683613068.8448 -2.6074936 1.1788176 -200 45 -200 45 -200 45
2684613185.5309 -2.6034913 1.1643672 -200 45 -200 45 -200 45
2685613302.217 -2.6040711 1.1729596 -200 45 -200 45 -200 45
2686613418.9032 -2.6100783 1.1705282 -200 45 -200 45 -200 45
2687613535.5893 -2.6271715 1.17235 -200 45 -200 45 -200 45
2688613652.2754 -2.6387606 1.1794465 -200 45 -200 45 -200 45
2689613768.9615 -2.6449106 1.1858957 -200 45 -200 45 -200 45
2690613885.6476 -2.6458261 1.1681867 -200 45 -200 45 -200 45
2691614002.3337 -2.6450887 1.1750097 -200 45 -200 45 -200 45
2692614119.0198 -2.6444995 1.1516291 -200 45 -200 45 -200 45
2693614235.706 -2.6415513 1.139717 -200 45 -200 45 -200 45
2694614352.3921 -2.6336639 1.1030397 -200 45 -200 45 -200 45
2695614469.0782 -2.624198 1.0874035 -200 45 -200 45 -200 45
2696614585.7643 -2.6216495 1.0929809 -200 45 -200 45 -200 45
2697614702.4504 -2.6244504 1.0882 -200 45 -200 45 -200 45
2698614819.1365 -2.6283357 1.0811263 -200 45 -200 45 -200 45
2699614935.8226 -2.6277313 1.0734634 -200 45 -200 45 -200 45
2700615052.5088 -2.6239948 1.0538249 -200 45 -200 45 -200 45
2701615169.1949 -2.6254416 1.0422744 -200 45 -200 45 -200 45
2702615285.881 -2.6345916 1.0463382 -200 45 -200 45 -200 45
2703615402.5671 -2.6498499 1.0537958 -200 45 -200 45 -200 45
2704615519.2532 -2.6630137 1.058193 -200 45 -200 45 -200 45
2705615635.9393 -2.6702232 1.0590496 -200 45 -200 45 -200 45
2706615752.6254 -2.6718309 1.0498099 -200 45 -200 45 -200 45
2707615869.3116 -2.6696472 1.0335417 -200 45 -200 45 -200 45
2708615985.9977 -2.6703231 1.0086427 -200 45 -200 45 -200 45
2709616102.6838 -2.6664989 0.99300677 -200 45 -200 45 -200 45
2710616219.3699 -2.6604323 0.96964449 -200 45 -200 45 -200 45
2711616336.056 -2.6525159 0.94802076 -200 45 -200 45 -200 45
2712616452.7421 -2.6478572 0.94026017 -200 45 -200 45 -200 45
2713616569.4282 -2.6532538 0.94584656 -200 45 -200 45 -200 45
2714616686.1144 -2.6567693 0.94023991 -200 45 -200 45 -200 45
2715616802.8005 -2.6577148 0.91374016 -200 45 -200 45 -200 45
2716616919.4866 -2.6533377 0.89510292 -200 45 -200 45 -200 45
2717617036.1727 -2.6555023 0.88699806 -200 45 -200 45 -200 45
2718617152.8588 -2.6644864 0.86536431 -200 45 -200 45 -200 45
2719617269.5449 -2.6815002 0.86123604 -200 45 -200 45 -200 45
2720617386.231 -2.6942511 0.85927135 -200 45 -200 45 -200 45
2721617502.9172 -2.7017605 0.86105412 -200 45 -200 45 -200 45
2722617619.6033 -2.7034509 0.85729814 -200 45 -200 45 -200 45
2723617736.2894 -2.7026067 0.8335548 -200 45 -200 45 -200 45
2724617852.9755 -2.7063897 0.80152351 -200 45 -200 45 -200 45
2725617969.6616 -2.7015116 0.7955147 -200 45 -200 45 -200 45
2726618086.3477 -2.692981 0.7478137 -200 45 -200 45 -200 45
2727618203.0338 -2.6877799 0.71104854 -200 45 -200 45 -200 45
2728618319.72 -2.6867774 0.70631295 -200 45 -200 45 -200 45
2729618436.4061 -2.6916385 0.70753485 -200 45 -200 45 -200 45
2730618553.0922 -2.696523 0.69136435 -200 45 -200 45 -200 45
2731618669.7783 -2.6932538 0.65838373 -200 45 -200 45 -200 45
2732618786.4644 -2.6927962 0.62572485 -200 45 -200 45 -200 45
2733618903.1505 -2.6975412 0.62102443 -200 45 -200 45 -200 45
2734619019.8366 -2.7077396 0.59901118 -200 45 -200 45 -200 45
2735619136.5228 -2.7233803 0.58343399 -200 45 -200 45 -200 45
2736619253.2089 -2.7400351 0.57127607 -200 45 -200 45 -200 45
2737619369.895 -2.7459767 0.54916894 -200 45 -200 45 -200 45
2738619486.5811 -2.7471256 0.5259046 -200 45 -200 45 -200 45
2739619603.2672 -2.7506158 0.48624325 -200 45 -200 45 -200 45
2740619719.9533 -2.7494528 0.45537671 -200 45 -200 45 -200 45
2741619836.6394 -2.7494359 0.39739993 -200 45 -200 45 -200 45
2742619953.3256 -2.7428441 0.34113508 -200 45 -200 45 -200 45
2743620070.0117 -2.7392588 0.28728619 -200 45 -200 45 -200 45
2744620186.6978 -2.7404819 0.24482462 -200 45 -200 45 -200 45
2745620303.3839 -2.748167 0.21551636 -200 45 -200 45 -200 45
2746620420.07 -2.7585874 0.16581501 -200 45 -200 45 -200 45
2747620536.7561 -2.7598543 0.097491793 -200 45 -200 45 -200 45
2748620653.4422 -2.7625945 0.037478328 -200 45 -200 45 -200 45
2749620770.1284 -2.773452 -0.028299585 -200 45 -200 45 -200 45
2750620886.8145 -2.7901275 -0.077476062 -200 45 -200 45 -200 45
2751621003.5006 -2.8117304 -0.11402645 -200 45 -200 45 -200 45
2752621120.1867 -2.8342686 -0.16472694 -200 45 -200 45 -200 45
2753621236.8728 -2.8493011 -0.22212242 -200 45 -200 45 -200 45
2754621353.5589 -2.8581989 -0.29328206 -200 45 -200 45 -200 45
2755621470.245 -2.86849 -0.36907712 -200 45 -200 45 -200 45
2756621586.9312 -2.8798172 -0.43062481 -200 45 -200 45 -200 45
2757621703.6173 -2.8864384 -0.51845211 -200 45 -200 45 -200 45
2758621820.3034 -2.8917565 -0.64332432 -200 45 -200 45 -200 45
2759621936.9895 -2.8982022 -0.75259799 -200 45 -200 45 -200 45
2760622053.6756 -2.917119 -0.84388077 -200 45 -200 45 -200 45
2761622170.3617 -2.9395874 -0.95031261 -200 45 -200 45 -200 45
2762622287.0478 -2.9672375 -1.0614334 -200 45 -200 45 -200 45
2763622403.734 -2.9906974 -1.2009571 -200 45 -200 45 -200 45
2764622520.4201 -3.0181377 -1.3748723 -200 45 -200 45 -200 45
2765622637.1062 -3.0588684 -1.511927 -200 45 -200 45 -200 45
2766622753.7923 -3.1145368 -1.6591785 -200 45 -200 45 -200 45
2767622870.4784 -3.182348 -1.7769929 -200 45 -200 45 -200 45
2768622987.1645 -3.2590504 -1.885529 -200 45 -200 45 -200 45
2769623103.8506 -3.3374584 -1.9375857 -200 45 -200 45 -200 45
2770623220.5368 -3.4230449 -1.9499863 -200 45 -200 45 -200 45
2771623337.2229 -3.5164566 -1.9068913 -200 45 -200 45 -200 45
2772623453.909 -3.615835 -1.7455443 -200 45 -200 45 -200 45
2773623570.5951 -3.7193809 -1.492673 -200 45 -200 45 -200 45
2774623687.2812 -3.8272693 -1.1371969 -200 45 -200 45 -200 45
2775623803.9673 -3.9460571 -0.56808275 -200 45 -200 45 -200 45
2776623920.6534 -4.0710464 0.33923179 -200 45 -200 45 -200 45
2777624037.3396 -4.1769161 1.6138625 -200 45 -200 45 -200 45
2778624154.0257 -4.2168965 3.1821387 -200 45 -200 45 -200 45
2779624270.7118 -4.1661634 4.7685709 -200 45 -200 45 -200 45
2780624387.3979 -4.0448613 6.0575666 -200 45 -200 45 -200 45
2781624504.084 -3.8935859 7.0019979 -200 45 -200 45 -200 45
2782624620.7701 -3.7404389 7.5917144 -200 45 -200 45 -200 45
2783624737.4562 -3.6001873 7.8825779 -200 45 -200 45 -200 45
2784624854.1424 -3.471559 7.9622421 -200 45 -200 45 -200 45
2785624970.8285 -3.3550222 7.8379827 -200 45 -200 45 -200 45
2786625087.5146 -3.2588987 7.6484008 -200 45 -200 45 -200 45
2787625204.2007 -3.1848278 7.3884959 -200 45 -200 45 -200 45
2788625320.8868 -3.129915 7.1356134 -200 45 -200 45 -200 45
2789625437.5729 -3.0833068 6.8948417 -200 45 -200 45 -200 45
2790625554.259 -3.0373502 6.6886449 -200 45 -200 45 -200 45
2791625670.9452 -3.0021391 6.5222068 -200 45 -200 45 -200 45
2792625787.6313 -2.9752836 6.3846331 -200 45 -200 45 -200 45
2793625904.3174 -2.9625318 6.2479224 -200 45 -200 45 -200 45
2794626021.0035 -2.9548469 6.1467032 -200 45 -200 45 -200 45
2795626137.6896 -2.9452753 6.0765686 -200 45 -200 45 -200 45
2796626254.3757 -2.9328308 6.0563459 -200 45 -200 45 -200 45
2797626371.0618 -2.9226465 6.0897579 -200 45 -200 45 -200 45
2798626487.748 -2.914727 6.1452551 -200 45 -200 45 -200 45
2799626604.4341 -2.9070075 6.1769733 -200 45 -200 45 -200 45
2800626721.1202 -2.8954639 6.232542 -200 45 -200 45 -200 45
2801626837.8063 -2.8750587 6.2684951 -200 45 -200 45 -200 45
2802626954.4924 -2.8412392 6.3004308 -200 45 -200 45 -200 45
2803627071.1785 -2.8009274 6.2937145 -200 45 -200 45 -200 45
2804627187.8646 -2.7602146 6.2030168 -200 45 -200 45 -200 45
2805627304.5508 -2.7180023 6.0677662 -200 45 -200 45 -200 45
2806627421.2369 -2.6772077 5.8656812 -200 45 -200 45 -200 45
2807627537.923 -2.6487837 5.6638441 -200 45 -200 45 -200 45
2808627654.6091 -2.6293225 5.4813766 -200 45 -200 45 -200 45
2809627771.2952 -2.6238911 5.3195825 -200 45 -200 45 -200 45
2810627887.9813 -2.6180148 5.1614475 -200 45 -200 45 -200 45
2811628004.6674 -2.6091135 5.0005331 -200 45 -200 45 -200 45
2812628121.3536 -2.5997627 4.8437085 -200 45 -200 45 -200 45
2813628238.0397 -2.6035645 4.7205524 -200 45 -200 45 -200 45
2814628354.7258 -2.6116033 4.6225624 -200 45 -200 45 -200 45
2815628471.4119 -2.6235814 4.533793 -200 45 -200 45 -200 45
2816628588.098 -2.6353524 4.4487433 -200 45 -200 45 -200 45
2817628704.7841 -2.6392734 4.3612704 -200 45 -200 45 -200 45
2818628821.4702 -2.640259 4.2817454 -200 45 -200 45 -200 45
2819628938.1564 -2.6394393 4.2037225 -200 45 -200 45 -200 45
2820629054.8425 -2.6389079 4.1381702 -200 45 -200 45 -200 45
2821629171.5286 -2.6355803 4.0547495 -200 45 -200 45 -200 45
2822629288.2147 -2.6261961 3.9612186 -200 45 -200 45 -200 45
2823629404.9008 -2.6202054 3.8954532 -200 45 -200 45 -200 45
2824629521.5869 -2.6192789 3.8479621 -200 45 -200 45 -200 45
2825629638.273 -2.6269031 3.7946923 -200 45 -200 45 -200 45
2826629754.9592 -2.6285059 3.7503514 -200 45 -200 45 -200 45
2827629871.6453 -2.626687 3.6720796 -200 45 -200 45 -200 45
2828629988.3314 -2.6251967 3.6126719 -200 45 -200 45 -200 45
2829630105.0175 -2.6304462 3.5740438 -200 45 -200 45 -200 45
2830630221.7036 -2.6446157 3.5253103 -200 45 -200 45 -200 45
2831630338.3897 -2.660439 3.4915237 -200 45 -200 45 -200 45
2832630455.0758 -2.6765699 3.4688673 -200 45 -200 45 -200 45
2833630571.762 -2.6815813 3.4242327 -200 45 -200 45 -200 45
2834630688.4481 -2.6860278 3.3674526 -200 45 -200 45 -200 45
2835630805.1342 -2.6880655 3.3275044 -200 45 -200 45 -200 45
2836630921.8203 -2.6900017 3.2795792 -200 45 -200 45 -200 45
2837631038.5064 -2.6913695 3.2224448 -200 45 -200 45 -200 45
2838631155.1925 -2.6874411 3.1484988 -200 45 -200 45 -200 45
2839631271.8786 -2.6889341 3.0880892 -200 45 -200 45 -200 45
2840631388.5648 -2.697866 3.0478175 -200 45 -200 45 -200 45
2841631505.2509 -2.7151484 3.0278683 -200 45 -200 45 -200 45
2842631621.937 -2.7318985 2.9988008 -200 45 -200 45 -200 45
2843631738.6231 -2.7473595 2.9736826 -200 45 -200 45 -200 45
2844631855.3092 -2.7668285 3.0039394 -200 45 -200 45 -200 45
2845631971.9953 -2.7917759 3.0918298 -200 45 -200 45 -200 45
2846632088.6814 -2.8223746 3.2625732 -200 45 -200 45 -200 45
2847632205.3676 -2.8434682 3.4780393 -200 45 -200 45 -200 45
2848632322.0537 -2.8504238 3.698112 -200 45 -200 45 -200 45
2849632438.7398 -2.8342955 3.8772573 -200 45 -200 45 -200 45
2850632555.4259 -2.8115554 3.9745028 -200 45 -200 45 -200 45
2851632672.112 -2.7898362 4.0118213 -200 45 -200 45 -200 45
2852632788.7981 -2.7686086 3.9951684 -200 45 -200 45 -200 45
2853632905.4842 -2.7492838 3.9635007 -200 45 -200 45 -200 45
2854633022.1704 -2.7281797 3.9040072 -200 45 -200 45 -200 45
2855633138.8565 -2.712899 3.8606372 -200 45 -200 45 -200 45
2856633255.5426 -2.708606 3.8379803 -200 45 -200 45 -200 45
2857633372.2287 -2.7066021 3.8414884 -200 45 -200 45 -200 45
2858633488.9148 -2.7048752 3.8251219 -200 45 -200 45 -200 45
2859633605.6009 -2.6964753 3.8219194 -200 45 -200 45 -200 45
2860633722.287 -2.6886616 3.8165014 -200 45 -200 45 -200 45
2861633838.9732 -2.6842287 3.8005283 -200 45 -200 45 -200 45
2862633955.6593 -2.6900263 3.7957194 -200 45 -200 45 -200 45
2863634072.3454 -2.694721 3.7753611 -200 45 -200 45 -200 45
2864634189.0315 -2.6979232 3.7550788 -200 45 -200 45 -200 45
2865634305.7176 -2.6984696 3.7070212 -200 45 -200 45 -200 45
2866634422.4037 -2.6919489 3.6634169 -200 45 -200 45 -200 45
2867634539.0898 -2.6892669 3.6282289 -200 45 -200 45 -200 45
2868634655.776 -2.6847289 3.5800431 -200 45 -200 45 -200 45
2869634772.4621 -2.679574 3.538147 -200 45 -200 45 -200 45
2870634889.1482 -2.6675224 3.4703145 -200 45 -200 45 -200 45
2871635005.8343 -2.6616199 3.4350202 -200 45 -200 45 -200 45
2872635122.5204 -2.661092 3.4166481 -200 45 -200 45 -200 45
2873635239.2065 -2.6639042 3.3939095 -200 45 -200 45 -200 45
2874635355.8926 -2.6660132 3.374944 -200 45 -200 45 -200 45
2875635472.5788 -2.6620264 3.3392491 -200 45 -200 45 -200 45
2876635589.2649 -2.6613131 3.3104298 -200 45 -200 45 -200 45
2877635705.951 -2.6651735 3.2803767 -200 45 -200 45 -200 45
2878635822.6371 -2.678298 3.2858124 -200 45 -200 45 -200 45
2879635939.3232 -2.6896968 3.2617826 -200 45 -200 45 -200 45
2880636056.0093 -2.70158 3.2555492 -200 45 -200 45 -200 45
2881636172.6954 -2.7051942 3.2346363 -200 45 -200 45 -200 45
2882636289.3816 -2.7049794 3.2269509 -200 45 -200 45 -200 45
2883636406.0677 -2.7056677 3.2005193 -200 45 -200 45 -200 45
2884636522.7538 -2.7038181 3.1797647 -200 45 -200 45 -200 45
2885636639.4399 -2.6997211 3.152189 -200 45 -200 45 -200 45
2886636756.126 -2.6867976 3.1061783 -200 45 -200 45 -200 45
2887636872.8121 -2.6849685 3.0877056 -200 45 -200 45 -200 45
2888636989.4983 -2.6819687 3.0847147 -200 45 -200 45 -200 45
2889637106.1844 -2.6888537 3.0931551 -200 45 -200 45 -200 45
2890637222.8705 -2.6916587 3.0428176 -200 45 -200 45 -200 45
2891637339.5566 -2.6892972 3.0469561 -200 45 -200 45 -200 45
2892637456.2427 -2.6875505 3.0148759 -200 45 -200 45 -200 45
2893637572.9288 -2.6903667 2.9982667 -200 45 -200 45 -200 45
2894637689.6149 -2.707617 3.0024977 -200 45 -200 45 -200 45
2895637806.3011 -2.7165751 2.9953241 -200 45 -200 45 -200 45
2896637922.9872 -2.7302616 3.0008202 -200 45 -200 45 -200 45
2897638039.6733 -2.7352469 2.9944315 -200 45 -200 45 -200 45
2898638156.3594 -2.7331898 2.9884424 -200 45 -200 45 -200 45
2899638273.0455 -2.7349951 2.9582441 -200 45 -200 45 -200 45
2900638389.7316 -2.7333827 2.9519446 -200 45 -200 45 -200 45
2901638506.4177 -2.7269499 2.9289534 -200 45 -200 45 -200 45
2902638623.1039 -2.715131 2.9007368 -200 45 -200 45 -200 45
2903638739.79 -2.7104456 2.8713169 -200 45 -200 45 -200 45
2904638856.4761 -2.712137 2.8667486 -200 45 -200 45 -200 45
2905638973.1622 -2.7168176 2.8595912 -200 45 -200 45 -200 45
2906639089.8483 -2.7183542 2.8454967 -200 45 -200 45 -200 45
2907639206.5344 -2.7155051 2.8050268 -200 45 -200 45 -200 45
2908639323.2205 -2.7143495 2.792522 -200 45 -200 45 -200 45
2909639439.9067 -2.7213023 2.7799599 -200 45 -200 45 -200 45
2910639556.5928 -2.735713 2.7788966 -200 45 -200 45 -200 45
2911639673.2789 -2.7489367 2.760875 -200 45 -200 45 -200 45
2912639789.965 -2.7614155 2.7616837 -200 45 -200 45 -200 45
2913639906.6511 -2.7655749 2.747143 -200 45 -200 45 -200 45
2914640023.3372 -2.7638087 2.7252865 -200 45 -200 45 -200 45
2915640140.0233 -2.7668555 2.7152193 -200 45 -200 45 -200 45
2916640256.7095 -2.7647462 2.6929548 -200 45 -200 45 -200 45
2917640373.3956 -2.760169 2.6582015 -200 45 -200 45 -200 45
2918640490.0817 -2.7509027 2.6247928 -200 45 -200 45 -200 45
2919640606.7678 -2.7450922 2.5934961 -200 45 -200 45 -200 45
2920640723.4539 -2.7485516 2.6011961 -200 45 -200 45 -200 45
2921640840.14 -2.7555363 2.5724733 -200 45 -200 45 -200 45
2922640956.8261 -2.7565892 2.5357907 -200 45 -200 45 -200 45
2923641073.5123 -2.7567508 2.5154207 -200 45 -200 45 -200 45
2924641190.1984 -2.7569349 2.4722424 -200 45 -200 45 -200 45
2925641306.8845 -2.7624071 2.4481285 -200 45 -200 45 -200 45
2926641423.5706 -2.7804847 2.4415894 -200 45 -200 45 -200 45
2927641540.2567 -2.7951725 2.4082999 -200 45 -200 45 -200 45
2928641656.9428 -2.8094492 2.3988776 -200 45 -200 45 -200 45
2929641773.6289 -2.8146133 2.3783853 -200 45 -200 45 -200 45
2930641890.3151 -2.816241 2.3564892 -200 45 -200 45 -200 45
2931642007.0012 -2.8198779 2.3138835 -200 45 -200 45 -200 45
2932642123.6873 -2.819829 2.2830119 -200 45 -200 45 -200 45
2933642240.3734 -2.819499 2.2176178 -200 45 -200 45 -200 45
2934642357.0595 -2.8133624 2.1625345 -200 45 -200 45 -200 45
2935642473.7456 -2.8157845 2.1164634 -200 45 -200 45 -200 45
2936642590.4317 -2.8224568 2.078738 -200 45 -200 45 -200 45
2937642707.1179 -2.8356304 2.0550234 -200 45 -200 45 -200 45
2938642823.804 -2.8420584 2.0170193 -200 45 -200 45 -200 45
2939642940.4901 -2.8454616 1.9571927 -200 45 -200 45 -200 45
2940643057.1762 -2.850302 1.9057982 -200 45 -200 45 -200 45
2941643173.8623 -2.8627758 1.8609654 -200 45 -200 45 -200 45
2942643290.5484 -2.886209 1.814925 -200 45 -200 45 -200 45
2943643407.2345 -2.9083524 1.7515936 -200 45 -200 45 -200 45
2944643523.9207 -2.9315546 1.6919909 -200 45 -200 45 -200 45
2945643640.6068 -2.9463115 1.6055487 -200 45 -200 45 -200 45
2946643757.2929 -2.9625239 1.522915 -200 45 -200 45 -200 45
2947643873.979 -2.9837174 1.425475 -200 45 -200 45 -200 45
2948643990.6651 -3.0092554 1.3130244 -200 45 -200 45 -200 45
2949644107.3512 -3.0320108 1.1869359 -200 45 -200 45 -200 45
2950644224.0373 -3.059927 1.0799103 -200 45 -200 45 -200 45
2951644340.7235 -3.1001127 1.0033236 -200 45 -200 45 -200 45
2952644457.4096 -3.1547236 0.94668365 -200 45 -200 45 -200 45
2953644574.0957 -3.2250617 0.95615923 -200 45 -200 45 -200 45
2954644690.7818 -3.2981176 1.0086499 -200 45 -200 45 -200 45
2955644807.4679 -3.3830831 1.2018452 -200 45 -200 45 -200 45
2956644924.154 -3.478339 1.5408432 -200 45 -200 45 -200 45
2957645040.8401 -3.5747674 2.1554205 -200 45 -200 45 -200 45
2958645157.5263 -3.6531816 3.042181 -200 45 -200 45 -200 45
2959645274.2124 -3.6876204 4.0921779 -200 45 -200 45 -200 45
2960645390.8985 -3.6583681 5.1159039 -200 45 -200 45 -200 45
2961645507.5846 -3.5737832 5.9669671 -200 45 -200 45 -200 45
2962645624.2707 -3.4645867 6.500989 -200 45 -200 45 -200 45
2963645740.9568 -3.3559234 6.7557921 -200 45 -200 45 -200 45
2964645857.6429 -3.2590261 6.8249383 -200 45 -200 45 -200 45
2965645974.3291 -3.1727638 6.7545686 -200 45 -200 45 -200 45
2966646091.0152 -3.1023698 6.6371636 -200 45 -200 45 -200 45
2967646207.7013 -3.045136 6.4865508 -200 45 -200 45 -200 45
2968646324.3874 -3.0107305 6.3667674 -200 45 -200 45 -200 45
2969646441.0735 -2.9825401 6.2543154 -200 45 -200 45 -200 45
2970646557.7596 -2.9570858 6.1147046 -200 45 -200 45 -200 45
2971646674.4457 -2.9368997 5.9754372 -200 45 -200 45 -200 45
2972646791.1319 -2.9258959 5.8538189 -200 45 -200 45 -200 45
2973646907.818 -2.9244952 5.7850089 -200 45 -200 45 -200 45
2974647024.5041 -2.9379816 5.7620344 -200 45 -200 45 -200 45
2975647141.1902 -2.9457855 5.7425694 -200 45 -200 45 -200 45
2976647257.8763 -2.9512377 5.7943211 -200 45 -200 45 -200 45
2977647374.5624 -2.9459665 5.8614345 -200 45 -200 45 -200 45
2978647491.2485 -2.9300032 5.9345803 -200 45 -200 45 -200 45
2979647607.9347 -2.9106956 5.9953923 -200 45 -200 45 -200 45
2980647724.6208 -2.8814487 6.0356216 -200 45 -200 45 -200 45
2981647841.3069 -2.8453414 6.0232611 -200 45 -200 45 -200 45
2982647957.993 -2.8048084 5.9518743 -200 45 -200 45 -200 45
2983648074.6791 -2.7753811 5.8661404 -200 45 -200 45 -200 45
2984648191.3652 -2.7562432 5.7680421 -200 45 -200 45 -200 45
2985648308.0513 -2.7486184 5.6614523 -200 45 -200 45 -200 45
2986648424.7375 -2.7360945 5.5463986 -200 45 -200 45 -200 45
2987648541.4236 -2.7263005 5.4348783 -200 45 -200 45 -200 45
2988648658.1097 -2.7169714 5.3268695 -200 45 -200 45 -200 45
2989648774.7958 -2.7181969 5.2435522 -200 45 -200 45 -200 45
2990648891.4819 -2.730597 5.1952038 -200 45 -200 45 -200 45
2991649008.168 -2.7378232 5.1382513 -200 45 -200 45 -200 45
2992649124.8541 -2.7421937 5.0832248 -200 45 -200 45 -200 45
2993649241.5403 -2.7426825 5.0190439 -200 45 -200 45 -200 45
2994649358.2264 -2.7398512 4.9574709 -200 45 -200 45 -200 45
2995649474.9125 -2.7381554 4.8912554 -200 45 -200 45 -200 45
2996649591.5986 -2.7342119 4.8420935 -200 45 -200 45 -200 45
2997649708.2847 -2.7274399 4.7723379 -200 45 -200 45 -200 45
2998649824.9708 -2.717608 4.723702 -200 45 -200 45 -200 45
2999649941.6569 -2.7083056 4.6859574 -200 45 -200 45 -200 45
3000650058.3431 -2.7110815 4.668107 -200 45 -200 45 -200 45
3001650175.0292 -2.7188132 4.6389742 -200 45 -200 45 -200 45
3002650291.7153 -2.7156618 4.5806856 -200 45 -200 45 -200 45
3003650408.4014 -2.7098367 4.5568528 -200 45 -200 45 -200 45
3004650525.0875 -2.7115779 4.533998 -200 45 -200 45 -200 45
3005650641.7736 -2.7145748 4.4987493 -200 45 -200 45 -200 45
3006650758.4597 -2.7298398 4.4766846 -200 45 -200 45 -200 45
3007650875.1459 -2.7429278 4.4826107 -200 45 -200 45 -200 45
3008650991.832 -2.7496996 4.46737 -200 45 -200 45 -200 45
3009651108.5181 -2.7507594 4.447711 -200 45 -200 45 -200 45
3010651225.2042 -2.7492692 4.4222107 -200 45 -200 45 -200 45
3011651341.8903 -2.7484467 4.3895292 -200 45 -200 45 -200 45
3012651458.5764 -2.7454 4.3729382 -200 45 -200 45 -200 45
3013651575.2625 -2.7401631 4.3319721 -200 45 -200 45 -200 45
3014651691.9487 -2.7276587 4.2843542 -200 45 -200 45 -200 45
3015651808.6348 -2.7229276 4.2844768 -200 45 -200 45 -200 45
3016651925.3209 -2.7274773 4.2771797 -200 45 -200 45 -200 45
3017652042.007 -2.7298319 4.2713666 -200 45 -200 45 -200 45
3018652158.6931 -2.7291622 4.2489076 -200 45 -200 45 -200 45
3019652275.3792 -2.725481 4.2238016 -200 45 -200 45 -200 45
3020652392.0653 -2.7254229 4.2071462 -200 45 -200 45 -200 45
3021652508.7515 -2.7320826 4.1916127 -200 45 -200 45 -200 45
3022652625.4376 -2.7468624 4.1922917 -200 45 -200 45 -200 45
3023652742.1237 -2.758328 4.1969237 -200 45 -200 45 -200 45
3024652858.8098 -2.7664294 4.1805158 -200 45 -200 45 -200 45
3025652975.4959 -2.7673008 4.1787853 -200 45 -200 45 -200 45
3026653092.182 -2.765949 4.1730008 -200 45 -200 45 -200 45
3027653208.8681 -2.7673798 4.1495066 -200 45 -200 45 -200 45
3028653325.5543 -2.7639115 4.1397004 -200 45 -200 45 -200 45
3029653442.2404 -2.7570505 4.1086936 -200 45 -200 45 -200 45
3030653558.9265 -2.7466714 4.0897932 -200 45 -200 45 -200 45
3031653675.6126 -2.7404006 4.0689292 -200 45 -200 45 -200 45
3032653792.2987 -2.7426891 4.0814199 -200 45 -200 45 -200 45
3033653908.9848 -2.7488708 4.0845604 -200 45 -200 45 -200 45
3034654025.6709 -2.7453513 4.0787606 -200 45 -200 45 -200 45
3035654142.3571 -2.7421563 4.0500364 -200 45 -200 45 -200 45
3036654259.0432 -2.743768 4.0349259 -200 45 -200 45 -200 45
3037654375.7293 -2.7495003 4.0272431 -200 45 -200 45 -200 45
3038654492.4154 -2.7629123 4.0299125 -200 45 -200 45 -200 45
3039654609.1015 -2.7781539 4.0429058 -200 45 -200 45 -200 45
3040654725.7876 -2.7832448 4.0430937 -200 45 -200 45 -200 45
3041654842.4737 -2.7836487 4.0363975 -200 45 -200 45 -200 45
3042654959.1599 -2.782692 4.0249209 -200 45 -200 45 -200 45
3043655075.846 -2.7828448 4.0144739 -200 45 -200 45 -200 45
3044655192.5321 -2.7800944 4.0061731 -200 45 -200 45 -200 45
3045655309.2182 -2.7711818 3.9726622 -200 45 -200 45 -200 45
3046655425.9043 -2.7613094 3.9552956 -200 45 -200 45 -200 45
3047655542.5904 -2.7575107 3.9421589 -200 45 -200 45 -200 45
3048655659.2765 -2.7599018 3.9571354 -200 45 -200 45 -200 45
3049655775.9627 -2.7659268 3.9728658 -200 45 -200 45 -200 45
3050655892.6488 -2.7632439 3.9552879 -200 45 -200 45 -200 45
3051656009.3349 -2.7611027 3.9331491 -200 45 -200 45 -200 45
3052656126.021 -2.7604632 3.915987 -200 45 -200 45 -200 45
3053656242.7071 -2.7655094 3.9052329 -200 45 -200 45 -200 45
3054656359.3932 -2.7809925 3.932276 -200 45 -200 45 -200 45
3055656476.0793 -2.793102 3.9369779 -200 45 -200 45 -200 45
3056656592.7655 -2.8008115 3.94279 -200 45 -200 45 -200 45
3057656709.4516 -2.8015733 3.9319642 -200 45 -200 45 -200 45
3058656826.1377 -2.8002717 3.9257848 -200 45 -200 45 -200 45
3059656942.8238 -2.8006926 3.9138722 -200 45 -200 45 -200 45
3060657059.5099 -2.7949448 3.8985956 -200 45 -200 45 -200 45
3061657176.196 -2.7878389 3.8856852 -200 45 -200 45 -200 45
3062657292.8821 -2.7796254 3.8646717 -200 45 -200 45 -200 45
3063657409.5683 -2.7740731 3.8604481 -200 45 -200 45 -200 45
3064657526.2544 -2.7762589 3.8738871 -200 45 -200 45 -200 45
3065657642.9405 -2.7811065 3.8824012 -200 45 -200 45 -200 45
3066657759.6266 -2.7799156 3.8542557 -200 45 -200 45 -200 45
3067657876.3127 -2.77652 3.8582129 -200 45 -200 45 -200 45
3068657992.9988 -2.7770209 3.844285 -200 45 -200 45 -200 45
3069658109.6849 -2.7831681 3.8441296 -200 45 -200 45 -200 45
3070658226.3711 -2.7981231 3.8367529 -200 45 -200 45 -200 45
3071658343.0572 -2.8100967 3.8598988 -200 45 -200 45 -200 45
3072658459.7433 -2.8172858 3.8701074 -200 45 -200 45 -200 45
3073658576.4294 -2.8166504 3.8686819 -200 45 -200 45 -200 45
3074658693.1155 -2.8164849 3.8661194 -200 45 -200 45 -200 45
3075658809.8016 -2.816381 3.8567247 -200 45 -200 45 -200 45
3076658926.4877 -2.8134115 3.8419442 -200 45 -200 45 -200 45
3077659043.1739 -2.8035691 3.8159077 -200 45 -200 45 -200 45
3078659159.86 -2.7935867 3.8042407 -200 45 -200 45 -200 45
3079659276.5461 -2.7904692 3.8036022 -200 45 -200 45 -200 45
3080659393.2322 -2.7941132 3.8120914 -200 45 -200 45 -200 45
3081659509.9183 -2.8001277 3.823102 -200 45 -200 45 -200 45
3082659626.6044 -2.7952833 3.8175845 -200 45 -200 45 -200 45
3083659743.2905 -2.7892232 3.7951229 -200 45 -200 45 -200 45
3084659859.9767 -2.7941751 3.7974169 -200 45 -200 45 -200 45
3085659976.6628 -2.8000884 3.7902567 -200 45 -200 45 -200 45
3086660093.3489 -2.8140645 3.7963173 -200 45 -200 45 -200 45
3087660210.035 -2.8250453 3.8157938 -200 45 -200 45 -200 45
3088660326.7211 -2.8307438 3.815733 -200 45 -200 45 -200 45
3089660443.4072 -2.8330085 3.8143797 -200 45 -200 45 -200 45
3090660560.0933 -2.8332648 3.8230438 -200 45 -200 45 -200 45
3091660676.7795 -2.8324687 3.8070006 -200 45 -200 45 -200 45
3092660793.4656 -2.8293376 3.7939434 -200 45 -200 45 -200 45
3093660910.1517 -2.8184402 3.7796371 -200 45 -200 45 -200 45
3094661026.8378 -2.8114357 3.7520983 -200 45 -200 45 -200 45
3095661143.5239 -2.8073201 3.7543628 -200 45 -200 45 -200 45
3096661260.21 -2.8102119 3.7639492 -200 45 -200 45 -200 45
3097661376.8961 -2.813777 3.7730205 -200 45 -200 45 -200 45
3098661493.5823 -2.8123922 3.753037 -200 45 -200 45 -200 45
3099661610.2684 -2.8066907 3.7380705 -200 45 -200 45 -200 45
3100661726.9545 -2.8094347 3.7469907 -200 45 -200 45 -200 45
3101661843.6406 -2.8166459 3.7369366 -200 45 -200 45 -200 45
3102661960.3267 -2.8300443 3.7462111 -200 45 -200 45 -200 45
3103662077.0128 -2.8453698 3.7627273 -200 45 -200 45 -200 45
3104662193.6989 -2.84834 3.7615159 -200 45 -200 45 -200 45
3105662310.3851 -2.8484437 3.744941 -200 45 -200 45 -200 45
3106662427.0712 -2.8510799 3.748436 -200 45 -200 45 -200 45
3107662543.7573 -2.8486197 3.7422638 -200 45 -200 45 -200 45
3108662660.4434 -2.8452632 3.7232265 -200 45 -200 45 -200 45
3109662777.1295 -2.8359079 3.7055762 -200 45 -200 45 -200 45
3110662893.8156 -2.8285089 3.6967213 -200 45 -200 45 -200 45
3111663010.5018 -2.826709 3.6847808 -200 45 -200 45 -200 45
3112663127.1879 -2.8290949 3.6897981 -200 45 -200 45 -200 45
3113663243.874 -2.8311038 3.694299 -200 45 -200 45 -200 45
3114663360.5601 -2.8301542 3.6836009 -200 45 -200 45 -200 45
3115663477.2462 -2.8243542 3.6648195 -200 45 -200 45 -200 45
3116663593.9323 -2.82972 3.6545806 -200 45 -200 45 -200 45
3117663710.6184 -2.8370059 3.6663435 -200 45 -200 45 -200 45
3118663827.3046 -2.8522711 3.665792 -200 45 -200 45 -200 45
3119663943.9907 -2.864723 3.6792009 -200 45 -200 45 -200 45
3120664060.6768 -2.8704004 3.6863129 -200 45 -200 45 -200 45
3121664177.3629 -2.8678386 3.6828725 -200 45 -200 45 -200 45
3122664294.049 -2.8710001 3.6742039 -200 45 -200 45 -200 45
3123664410.7351 -2.8708587 3.6619995 -200 45 -200 45 -200 45
3124664527.4212 -2.8657212 3.6552172 -200 45 -200 45 -200 45
3125664644.1074 -2.8572176 3.6259682 -200 45 -200 45 -200 45
3126664760.7935 -2.8497577 3.6059318 -200 45 -200 45 -200 45
3127664877.4796 -2.8458862 3.5964758 -200 45 -200 45 -200 45
3128664994.1657 -2.8508785 3.6037226 -200 45 -200 45 -200 45
3129665110.8518 -2.8566024 3.5979934 -200 45 -200 45 -200 45
3130665227.5379 -2.8528612 3.5762174 -200 45 -200 45 -200 45
3131665344.224 -2.8480132 3.5586431 -200 45 -200 45 -200 45
3132665460.9102 -2.8534315 3.5615773 -200 45 -200 45 -200 45
3133665577.5963 -2.863405 3.5501614 -200 45 -200 45 -200 45
3134665694.2824 -2.8751872 3.554337 -200 45 -200 45 -200 45
3135665810.9685 -2.8892131 3.5607257 -200 45 -200 45 -200 45
3136665927.6546 -2.8952477 3.5617378 -200 45 -200 45 -200 45
3137666044.3407 -2.8957059 3.5526006 -200 45 -200 45 -200 45
3138666161.0268 -2.8962197 3.5456445 -200 45 -200 45 -200 45
3139666277.713 -2.8965299 3.52158 -200 45 -200 45 -200 45
3140666394.3991 -2.8919091 3.5109763 -200 45 -200 45 -200 45
3141666511.0852 -2.8825898 3.4749448 -200 45 -200 45 -200 45
3142666627.7713 -2.876832 3.4551301 -200 45 -200 45 -200 45
3143666744.4574 -2.8753045 3.4399529 -200 45 -200 45 -200 45
3144666861.1435 -2.8814523 3.4521949 -200 45 -200 45 -200 45
3145666977.8296 -2.8856938 3.4367845 -200 45 -200 45 -200 45
3146667094.5158 -2.8834114 3.401288 -200 45 -200 45 -200 45
3147667211.2019 -2.880295 3.367084 -200 45 -200 45 -200 45
3148667327.888 -2.8859372 3.3767624 -200 45 -200 45 -200 45
3149667444.5741 -2.8951886 3.3502009 -200 45 -200 45 -200 45
3150667561.2602 -2.9120529 3.3387022 -200 45 -200 45 -200 45
3151667677.9463 -2.9258583 3.3438871 -200 45 -200 45 -200 45
3152667794.6324 -2.932431 3.33618 -200 45 -200 45 -200 45
3153667911.3186 -2.9357648 3.3113811 -200 45 -200 45 -200 45
3154668028.0047 -2.9350028 3.2764134 -200 45 -200 45 -200 45
3155668144.6908 -2.9393513 3.2502363 -200 45 -200 45 -200 45
3156668261.3769 -2.9374104 3.211503 -200 45 -200 45 -200 45
3157668378.063 -2.9331553 3.16169 -200 45 -200 45 -200 45
3158668494.7491 -2.9291482 3.1325278 -200 45 -200 45 -200 45
3159668611.4352 -2.9309683 3.113914 -200 45 -200 45 -200 45
3160668728.1214 -2.9382973 3.0926101 -200 45 -200 45 -200 45
3161668844.8075 -2.946595 3.065587 -200 45 -200 45 -200 45
3162668961.4936 -2.9526551 3.0170445 -200 45 -200 45 -200 45
3163669078.1797 -2.9556556 2.9627025 -200 45 -200 45 -200 45
3164669194.8658 -2.967319 2.9328747 -200 45 -200 45 -200 45
3165669311.5519 -2.9872081 2.9007413 -200 45 -200 45 -200 45
3166669428.238 -3.0136006 2.8763392 -200 45 -200 45 -200 45
3167669544.9242 -3.0433404 2.8692868 -200 45 -200 45 -200 45
3168669661.6103 -3.0629134 2.8433084 -200 45 -200 45 -200 45
3169669778.2964 -3.0816612 2.8589141 -200 45 -200 45 -200 45
3170669894.9825 -3.1025949 2.9026184 -200 45 -200 45 -200 45
3171670011.6686 -3.1245828 2.9674952 -200 45 -200 45 -200 45
3172670128.3547 -3.1375673 3.0869951 -200 45 -200 45 -200 45
3173670245.0408 -3.139719 3.2281477 -200 45 -200 45 -200 45
3174670361.727 -3.1325538 3.3590934 -200 45 -200 45 -200 45
3175670478.4131 -3.1206794 3.5131688 -200 45 -200 45 -200 45
3176670595.0992 -3.1120205 3.5984161 -200 45 -200 45 -200 45
3177670711.7853 -3.1060421 3.6335707 -200 45 -200 45 -200 45
3178670828.4714 -3.093363 3.6149349 -200 45 -200 45 -200 45
3179670945.1575 -3.0851839 3.5609384 -200 45 -200 45 -200 45
3180671061.8436 -3.0851312 3.5068014 -200 45 -200 45 -200 45
3181671178.5298 -3.092577 3.453053 -200 45 -200 45 -200 45
3182671295.2159 -3.1128004 3.3903854 -200 45 -200 45 -200 45
3183671411.902 -3.1324117 3.3082111 -200 45 -200 45 -200 45
3184671528.5881 -3.149641 3.22241 -200 45 -200 45 -200 45
3185671645.2742 -3.1696427 3.1383259 -200 45 -200 45 -200 45
3186671761.9603 -3.1933801 3.0486264 -200 45 -200 45 -200 45
3187671878.6464 -3.2275257 2.956486 -200 45 -200 45 -200 45
3188671995.3326 -3.2632129 2.9177072 -200 45 -200 45 -200 45
3189672112.0187 -3.3093095 2.8991416 -200 45 -200 45 -200 45
3190672228.7048 -3.3656831 2.9905279 -200 45 -200 45 -200 45
3191672345.3909 -3.4373577 3.2532699 -200 45 -200 45 -200 45
3192672462.077 -3.5080242 3.7333674 -200 45 -200 45 -200 45
3193672578.7631 -3.5500145 4.4018979 -200 45 -200 45 -200 45
3194672695.4492 -3.5488386 5.1697512 -200 45 -200 45 -200 45
3195672812.1354 -3.5004346 5.834156 -200 45 -200 45 -200 45
3196672928.8215 -3.4384031 6.308743 -200 45 -200 45 -200 45
3197673045.5076 -3.3800383 6.6042295 -200 45 -200 45 -200 45
3198673162.1937 -3.3266978 6.7451406 -200 45 -200 45 -200 45
3199673278.8798 -3.2828898 6.8339815 -200 45 -200 45 -200 45
3200673395.5659 -3.2376468 6.8814936 -200 45 -200 45 -200 45
3201673512.252 -3.1924665 6.8712177 -200 45 -200 45 -200 45
3202673628.9382 -3.152529 6.828229 -200 45 -200 45 -200 45
3203673745.6243 -3.1120481 6.7500911 -200 45 -200 45 -200 45
3204673862.3104 -3.0756536 6.6431313 -200 45 -200 45 -200 45
3205673978.9965 -3.0375133 6.5070009 -200 45 -200 45 -200 45
3206674095.6826 -3.0117929 6.3742104 -200 45 -200 45 -200 45
3207674212.3687 -2.9970598 6.2667017 -200 45 -200 45 -200 45
3208674329.0548 -2.9925268 6.1713228 -200 45 -200 45 -200 45
3209674445.741 -2.9863389 6.0974827 -200 45 -200 45 -200 45
3210674562.4271 -2.9776206 6.0111322 -200 45 -200 45 -200 45
3211674679.1132 -2.9685023 5.9495416 -200 45 -200 45 -200 45
3212674795.7993 -2.9648042 5.8974204 -200 45 -200 45 -200 45
3213674912.4854 -2.9743044 5.8582826 -200 45 -200 45 -200 45
3214675029.1715 -2.9808471 5.8104157 -200 45 -200 45 -200 45
3215675145.8576 -2.9911015 5.7805963 -200 45 -200 45 -200 45
3216675262.5438 -2.9946258 5.7344232 -200 45 -200 45 -200 45
3217675379.2299 -2.9953744 5.7135415 -200 45 -200 45 -200 45
3218675495.916 -2.9953666 5.6901264 -200 45 -200 45 -200 45
3219675612.6021 -2.9956319 5.682426 -200 45 -200 45 -200 45
3220675729.2882 -2.989763 5.6984005 -200 45 -200 45 -200 45
3221675845.9743 -2.9782679 5.6872745 -200 45 -200 45 -200 45
3222675962.6604 -2.9669762 5.6854634 -200 45 -200 45 -200 45
3223676079.3466 -2.9648495 5.7089906 -200 45 -200 45 -200 45
3224676196.0327 -2.9658322 5.7319589 -200 45 -200 45 -200 45
3225676312.7188 -2.9649758 5.7704105 -200 45 -200 45 -200 45
3226676429.4049 -2.9569569 5.8067956 -200 45 -200 45 -200 45
3227676546.091 -2.944773 5.827909 -200 45 -200 45 -200 45
3228676662.7771 -2.9356182 5.8501315 -200 45 -200 45 -200 45
3229676779.4632 -2.9329426 5.8730731 -200 45 -200 45 -200 45
3230676896.1494 -2.9319897 5.8795619 -200 45 -200 45 -200 45
3231677012.8355 -2.9292347 5.8396068 -200 45 -200 45 -200 45
3232677129.5216 -2.9195111 5.794951 -200 45 -200 45 -200 45
3233677246.2077 -2.9119074 5.7287931 -200 45 -200 45 -200 45
3234677362.8938 -2.9050686 5.6666551 -200 45 -200 45 -200 45
3235677479.5799 -2.9001081 5.5969691 -200 45 -200 45 -200 45
3236677596.266 -2.8912411 5.5305653 -200 45 -200 45 -200 45
3237677712.9522 -2.8793399 5.4625721 -200 45 -200 45 -200 45
3238677829.6383 -2.8707922 5.3989553 -200 45 -200 45 -200 45
3239677946.3244 -2.8692145 5.3724961 -200 45 -200 45 -200 45
3240678063.0105 -2.8722703 5.3465285 -200 45 -200 45 -200 45
3241678179.6966 -2.8749664 5.3002009 -200 45 -200 45 -200 45
3242678296.3827 -2.8746526 5.2689514 -200 45 -200 45 -200 45
3243678413.0688 -2.8720496 5.2135105 -200 45 -200 45 -200 45
3244678529.755 -2.8746557 5.1790013 -200 45 -200 45 -200 45
3245678646.4411 -2.8878212 5.183866 -200 45 -200 45 -200 45
3246678763.1272 -2.9009187 5.157321 -200 45 -200 45 -200 45
3247678879.8133 -2.9146678 5.1585002 -200 45 -200 45 -200 45
3248678996.4994 -2.9160511 5.1347599 -200 45 -200 45 -200 45
3249679113.1855 -2.9166133 5.1213684 -200 45 -200 45 -200 45
3250679229.8716 -2.9181397 5.092802 -200 45 -200 45 -200 45
3251679346.5578 -2.9161458 5.0798335 -200 45 -200 45 -200 45
3252679463.2439 -2.914449 5.0453863 -200 45 -200 45 -200 45
3253679579.93 -2.9037943 5.0066028 -200 45 -200 45 -200 45
3254679696.6161 -2.9014752 4.9806805 -200 45 -200 45 -200 45
3255679813.3022 -2.9028974 4.9793696 -200 45 -200 45 -200 45
3256679929.9883 -2.9102528 4.9695687 -200 45 -200 45 -200 45
3257680046.6744 -2.9139254 4.9698286 -200 45 -200 45 -200 45
3258680163.3606 -2.916045 4.9620123 -200 45 -200 45 -200 45
3259680280.0467 -2.915962 4.9597802 -200 45 -200 45 -200 45
3260680396.7328 -2.9259255 4.9840984 -200 45 -200 45 -200 45
3261680513.4189 -2.9370849 5.0179224 -200 45 -200 45 -200 45
3262680630.105 -2.9496241 5.0533657 -200 45 -200 45 -200 45
3263680746.7911 -2.9597695 5.0959163 -200 45 -200 45 -200 45
3264680863.4772 -2.9596124 5.1362867 -200 45 -200 45 -200 45
3265680980.1634 -2.9571452 5.1538763 -200 45 -200 45 -200 45
3266681096.8495 -2.9532781 5.1733665 -200 45 -200 45 -200 45
3267681213.5356 -2.946718 5.1649437 -200 45 -200 45 -200 45
3268681330.2217 -2.9373374 5.1591182 -200 45 -200 45 -200 45
3269681446.9078 -2.9227769 5.1133218 -200 45 -200 45 -200 45
3270681563.5939 -2.9176042 5.1063209 -200 45 -200 45 -200 45
3271681680.28 -2.9128337 5.1100502 -200 45 -200 45 -200 45
3272681796.9662 -2.9148881 5.1168661 -200 45 -200 45 -200 45
3273681913.6523 -2.9137912 5.109961 -200 45 -200 45 -200 45
3274682030.3384 -2.9098172 5.0789161 -200 45 -200 45 -200 45
3275682147.0245 -2.90604 5.0671229 -200 45 -200 45 -200 45
3276682263.7106 -2.9074717 5.0661407 -200 45 -200 45 -200 45
3277682380.3967 -2.9194953 5.0833316 -200 45 -200 45 -200 45
3278682497.0828 -2.9270806 5.0671573 -200 45 -200 45 -200 45
3279682613.769 -2.937366 5.0685453 -200 45 -200 45 -200 45
3280682730.4551 -2.9402139 5.0525866 -200 45 -200 45 -200 45
3281682847.1412 -2.9388232 5.0489511 -200 45 -200 45 -200 45
3282682963.8273 -2.9385839 5.0343223 -200 45 -200 45 -200 45
3283683080.5134 -2.9364004 5.0198236 -200 45 -200 45 -200 45
3284683197.1995 -2.9273696 5.0041146 -200 45 -200 45 -200 45
3285683313.8856 -2.9192393 4.96101 -200 45 -200 45 -200 45
3286683430.5718 -2.9145133 4.9400101 -200 45 -200 45 -200 45
3287683547.2579 -2.9120128 4.9564214 -200 45 -200 45 -200 45
3288683663.944 -2.9166799 4.9645567 -200 45 -200 45 -200 45
3289683780.6301 -2.9175444 4.9500561 -200 45 -200 45 -200 45
3290683897.3162 -2.9148338 4.9312725 -200 45 -200 45 -200 45
3291684014.0023 -2.9120426 4.9046955 -200 45 -200 45 -200 45
3292684130.6884 -2.9161098 4.9208708 -200 45 -200 45 -200 45
3293684247.3746 -2.9302552 4.9152513 -200 45 -200 45 -200 45
3294684364.0607 -2.9405103 4.9333277 -200 45 -200 45 -200 45
3295684480.7468 -2.9502985 4.9443998 -200 45 -200 45 -200 45
3296684597.4329 -2.9519124 4.9370093 -200 45 -200 45 -200 45
3297684714.119 -2.9532809 4.9368501 -200 45 -200 45 -200 45
3298684830.8051 -2.9529152 4.9299841 -200 45 -200 45 -200 45
3299684947.4912 -2.9497027 4.9082732 -200 45 -200 45 -200 45
3300685064.1774 -2.9439082 4.9133186 -200 45 -200 45 -200 45
3301685180.8635 -2.9335973 4.8855743 -200 45 -200 45 -200 45
3302685297.5496 -2.9274621 4.8730407 -200 45 -200 45 -200 45
3303685414.2357 -2.9292936 4.8743472 -200 45 -200 45 -200 45
3304685530.9218 -2.9335566 4.8931427 -200 45 -200 45 -200 45
3305685647.6079 -2.9320445 4.8975587 -200 45 -200 45 -200 45
3306685764.294 -2.9289043 4.8696828 -200 45 -200 45 -200 45
3307685880.9802 -2.9290192 4.8578706 -200 45 -200 45 -200 45
3308685997.6663 -2.9311092 4.8627405 -200 45 -200 45 -200 45
3309686114.3524 -2.943609 4.8841734 -200 45 -200 45 -200 45
3310686231.0385 -2.9567862 4.8812323 -200 45 -200 45 -200 45
3311686347.7246 -2.9675338 4.8950739 -200 45 -200 45 -200 45
3312686464.4107 -2.9685023 4.8985128 -200 45 -200 45 -200 45
3313686581.0968 -2.9670346 4.8939948 -200 45 -200 45 -200 45
3314686697.783 -2.9658158 4.8933949 -200 45 -200 45 -200 45
3315686814.4691 -2.9653106 4.8738313 -200 45 -200 45 -200 45
3316686931.1552 -2.9576902 4.8585744 -200 45 -200 45 -200 45
3317687047.8413 -2.9484279 4.8443599 -200 45 -200 45 -200 45
3318687164.5274 -2.9439235 4.8497295 -200 45 -200 45 -200 45
3319687281.2135 -2.9429538 4.8471599 -200 45 -200 45 -200 45
3320687397.8997 -2.9466898 4.8565884 -200 45 -200 45 -200 45
3321687514.5858 -2.946794 4.8456106 -200 45 -200 45 -200 45
3322687631.2719 -2.9451296 4.833849 -200 45 -200 45 -200 45
3323687747.958 -2.943927 4.8389335 -200 45 -200 45 -200 45
3324687864.6441 -2.9468365 4.8300877 -200 45 -200 45 -200 45
3325687981.3302 -2.9610434 4.8531446 -200 45 -200 45 -200 45
3326688098.0163 -2.9721296 4.8622122 -200 45 -200 45 -200 45
3327688214.7025 -2.9827151 4.860507 -200 45 -200 45 -200 45
3328688331.3886 -2.9812472 4.8793073 -200 45 -200 45 -200 45
3329688448.0747 -2.9832385 4.8684473 -200 45 -200 45 -200 45
3330688564.7608 -2.9834061 4.8575716 -200 45 -200 45 -200 45
3331688681.4469 -2.9807699 4.852303 -200 45 -200 45 -200 45
3332688798.133 -2.9740124 4.8448772 -200 45 -200 45 -200 45
3333688914.8191 -2.9627872 4.8389511 -200 45 -200 45 -200 45
3334689031.5053 -2.9584801 4.8067451 -200 45 -200 45 -200 45
3335689148.1914 -2.9581001 4.8364992 -200 45 -200 45 -200 45
3336689264.8775 -2.9621389 4.8333206 -200 45 -200 45 -200 45
3337689381.5636 -2.9619424 4.8372216 -200 45 -200 45 -200 45
3338689498.2497 -2.960489 4.8158064 -200 45 -200 45 -200 45
3339689614.9358 -2.9590869 4.8177557 -200 45 -200 45 -200 45
3340689731.6219 -2.9632337 4.8128042 -200 45 -200 45 -200 45
3341689848.3081 -2.9773955 4.8227549 -200 45 -200 45 -200 45
3342689964.9942 -2.9876587 4.8284311 -200 45 -200 45 -200 45
3343690081.6803 -2.9982331 4.8352475 -200 45 -200 45 -200 45
3344690198.3664 -3.0005286 4.8428993 -200 45 -200 45 -200 45
3345690315.0525 -2.999897 4.8388705 -200 45 -200 45 -200 45
3346690431.7386 -2.9986024 4.8460965 -200 45 -200 45 -200 45
3347690548.4247 -2.9963779 4.8353791 -200 45 -200 45 -200 45
3348690665.1109 -2.9881551 4.8184962 -200 45 -200 45 -200 45
3349690781.797 -2.9798985 4.8001275 -200 45 -200 45 -200 45
3350690898.4831 -2.9736879 4.8066382 -200 45 -200 45 -200 45
3351691015.1692 -2.9759314 4.8170772 -200 45 -200 45 -200 45
3352691131.8553 -2.9834056 4.8276505 -200 45 -200 45 -200 45
3353691248.5414 -2.9805093 4.8150554 -200 45 -200 45 -200 45
3354691365.2275 -2.9787557 4.8121252 -200 45 -200 45 -200 45
3355691481.9137 -2.9773912 4.8014479 -200 45 -200 45 -200 45
3356691598.5998 -2.9800589 4.799521 -200 45 -200 45 -200 45
3357691715.2859 -2.9976575 4.8158989 -200 45 -200 45 -200 45
3358691831.972 -3.0106175 4.8297257 -200 45 -200 45 -200 45
3359691948.6581 -3.0193808 4.8300748 -200 45 -200 45 -200 45
3360692065.3442 -3.0233567 4.8244495 -200 45 -200 45 -200 45
3361692182.0303 -3.0218914 4.8132892 -200 45 -200 45 -200 45
3362692298.7165 -3.0231714 4.814919 -200 45 -200 45 -200 45
3363692415.4026 -3.0203459 4.8204823 -200 45 -200 45 -200 45
3364692532.0887 -3.0158868 4.8017783 -200 45 -200 45 -200 45
3365692648.7748 -3.0081649 4.791419 -200 45 -200 45 -200 45
3366692765.4609 -3.004694 4.7896285 -200 45 -200 45 -200 45
3367692882.147 -3.0099804 4.8118348 -200 45 -200 45 -200 45
3368692998.8331 -3.0147326 4.8370838 -200 45 -200 45 -200 45
3369693115.5193 -3.0164931 4.8279958 -200 45 -200 45 -200 45
3370693232.2054 -3.0177078 4.854743 -200 45 -200 45 -200 45
3371693348.8915 -3.0171204 4.8747439 -200 45 -200 45 -200 45
3372693465.5776 -3.0217187 4.9039478 -200 45 -200 45 -200 45
3373693582.2637 -3.0364864 4.9415216 -200 45 -200 45 -200 45
3374693698.9498 -3.0463109 4.997324 -200 45 -200 45 -200 45
3375693815.6359 -3.0522254 5.0157304 -200 45 -200 45 -200 45
3376693932.3221 -3.0493832 5.0380607 -200 45 -200 45 -200 45
3377694049.0082 -3.0464997 5.0392156 -200 45 -200 45 -200 45
3378694165.6943 -3.0421977 5.0409794 -200 45 -200 45 -200 45
3379694282.3804 -3.0373464 5.0366278 -200 45 -200 45 -200 45
3380694399.0665 -3.0276425 5.015696 -200 45 -200 45 -200 45
3381694515.7526 -3.0153117 5.0128245 -200 45 -200 45 -200 45
3382694632.4387 -3.0085676 4.9984221 -200 45 -200 45 -200 45
3383694749.1249 -3.0098748 5.0203257 -200 45 -200 45 -200 45
3384694865.811 -3.0133088 5.0386949 -200 45 -200 45 -200 45
3385694982.4971 -3.0110643 5.0174246 -200 45 -200 45 -200 45
3386695099.1832 -3.0066168 4.9982276 -200 45 -200 45 -200 45
3387695215.8693 -3.0058131 5.0068302 -200 45 -200 45 -200 45
3388695332.5554 -3.0097175 4.9906216 -200 45 -200 45 -200 45
3389695449.2415 -3.0234797 5.0190077 -200 45 -200 45 -200 45
3390695565.9277 -3.033428 5.0236955 -200 45 -200 45 -200 45
3391695682.6138 -3.0404701 5.0195508 -200 45 -200 45 -200 45
3392695799.2999 -3.0424802 5.0268044 -200 45 -200 45 -200 45
3393695915.986 -3.0401216 5.0319052 -200 45 -200 45 -200 45
3394696032.6721 -3.0402148 5.0209908 -200 45 -200 45 -200 45
3395696149.3582 -3.0364981 5.0140104 -200 45 -200 45 -200 45
3396696266.0443 -3.0272095 4.997438 -200 45 -200 45 -200 45
3397696382.7305 -3.0197532 4.982698 -200 45 -200 45 -200 45
3398696499.4166 -3.0136368 5.0011826 -200 45 -200 45 -200 45
3399696616.1027 -3.0177939 4.9933305 -200 45 -200 45 -200 45
3400696732.7888 -3.0201018 5.0078416 -200 45 -200 45 -200 45
3401696849.4749 -3.0166125 4.9976163 -200 45 -200 45 -200 45
3402696966.161 -3.012162 4.9973044 -200 45 -200 45 -200 45
3403697082.8471 -3.0125697 4.9838052 -200 45 -200 45 -200 45
3404697199.5333 -3.0178235 4.9722838 -200 45 -200 45 -200 45
3405697316.2194 -3.0306714 5.0111375 -200 45 -200 45 -200 45
3406697432.9055 -3.0438449 5.0109658 -200 45 -200 45 -200 45
3407697549.5916 -3.0509171 5.0232463 -200 45 -200 45 -200 45
3408697666.2777 -3.0507636 5.0154829 -200 45 -200 45 -200 45
3409697782.9638 -3.0478745 5.0035443 -200 45 -200 45 -200 45
3410697899.6499 -3.0485563 5.0063434 -200 45 -200 45 -200 45
3411698016.3361 -3.0476801 5.0071692 -200 45 -200 45 -200 45
3412698133.0222 -3.037919 4.9805279 -200 45 -200 45 -200 45
3413698249.7083 -3.028697 4.9726057 -200 45 -200 45 -200 45
3414698366.3944 -3.0225594 4.9648657 -200 45 -200 45 -200 45
3415698483.0805 -3.0240343 4.9821787 -200 45 -200 45 -200 45
3416698599.7666 -3.0293713 5.0032444 -200 45 -200 45 -200 45
3417698716.4527 -3.0278122 4.9887943 -200 45 -200 45 -200 45
3418698833.1389 -3.0249701 4.9832878 -200 45 -200 45 -200 45
3419698949.825 -3.0245881 4.9669709 -200 45 -200 45 -200 45
3420699066.5111 -3.0303953 4.9638376 -200 45 -200 45 -200 45
3421699183.1972 -3.0450113 4.9836416 -200 45 -200 45 -200 45
3422699299.8833 -3.055896 4.9978018 -200 45 -200 45 -200 45
3423699416.5694 -3.0622129 5.0109143 -200 45 -200 45 -200 45
3424699533.2555 -3.0628676 5.0197248 -200 45 -200 45 -200 45
3425699649.9417 -3.0608299 5.00455 -200 45 -200 45 -200 45
3426699766.6278 -3.0626192 5.0034814 -200 45 -200 45 -200 45
3427699883.3139 -3.0590801 4.9858704 -200 45 -200 45 -200 45
3428700000 -3.0499425 4.9655156 -200 45 -200 45 -200 45
3429700116.6861 -3.0424113 4.9600711 -200 45 -200 45 -200 45
3430700233.3722 -3.0389464 4.950007 -200 45 -200 45 -200 45
3431700350.0583 -3.0406027 4.9811339 -200 45 -200 45 -200 45
3432700466.7445 -3.0441582 4.9748759 -200 45 -200 45 -200 45
3433700583.4306 -3.0455718 4.9710612 -200 45 -200 45 -200 45
3434700700.1167 -3.0400076 4.9603786 -200 45 -200 45 -200 45
3435700816.8028 -3.0429492 4.9621139 -200 45 -200 45 -200 45
3436700933.4889 -3.0509508 4.9561753 -200 45 -200 45 -200 45
3437701050.175 -3.0642416 4.9846115 -200 45 -200 45 -200 45
3438701166.8611 -3.0772524 5.0033932 -200 45 -200 45 -200 45
3439701283.5473 -3.0833652 5.0155883 -200 45 -200 45 -200 45
3440701400.2334 -3.0845053 5.0320477 -200 45 -200 45 -200 45
3441701516.9195 -3.0811465 5.0331769 -200 45 -200 45 -200 45
3442701633.6056 -3.0812209 5.0428839 -200 45 -200 45 -200 45
3443701750.2917 -3.0794744 5.0384483 -200 45 -200 45 -200 45
3444701866.9778 -3.0677967 5.0136504 -200 45 -200 45 -200 45
3445701983.6639 -3.0578794 5.0096521 -200 45 -200 45 -200 45
3446702100.3501 -3.0545952 5.0123305 -200 45 -200 45 -200 45
3447702217.0362 -3.0569003 5.0342937 -200 45 -200 45 -200 45
3448702333.7223 -3.0600324 5.039681 -200 45 -200 45 -200 45
3449702450.4084 -3.0583019 5.0267825 -200 45 -200 45 -200 45
3450702567.0945 -3.052835 5.0167694 -200 45 -200 45 -200 45
3451702683.7806 -3.054879 5.0189881 -200 45 -200 45 -200 45
3452702800.4667 -3.0607865 5.0088277 -200 45 -200 45 -200 45
3453702917.1529 -3.0744975 5.0371432 -200 45 -200 45 -200 45
3454703033.839 -3.086694 5.0538201 -200 45 -200 45 -200 45
3455703150.5251 -3.0937846 5.047318 -200 45 -200 45 -200 45
3456703267.2112 -3.0930469 5.0509877 -200 45 -200 45 -200 45
3457703383.8973 -3.0913417 5.0486693 -200 45 -200 45 -200 45
3458703500.5834 -3.0921533 5.0413518 -200 45 -200 45 -200 45
3459703617.2695 -3.0880222 5.0440102 -200 45 -200 45 -200 45
3460703733.9557 -3.0767472 5.0338264 -200 45 -200 45 -200 45
3461703850.6418 -3.0687587 5.0126381 -200 45 -200 45 -200 45
3462703967.3279 -3.0663226 5.0249767 -200 45 -200 45 -200 45
3463704084.014 -3.068135 5.0194955 -200 45 -200 45 -200 45
3464704200.7001 -3.0726509 5.0563445 -200 45 -200 45 -200 45
3465704317.3862 -3.0704043 5.0365257 -200 45 -200 45 -200 45
3466704434.0723 -3.0642512 5.0066643 -200 45 -200 45 -200 45
3467704550.7585 -3.0691962 5.008183 -200 45 -200 45 -200 45
3468704667.4446 -3.0730026 5.0407324 -200 45 -200 45 -200 45
3469704784.1307 -3.0885813 5.0363159 -200 45 -200 45 -200 45
3470704900.8168 -3.0999312 5.0512686 -200 45 -200 45 -200 45
3471705017.5029 -3.1072078 5.0672822 -200 45 -200 45 -200 45
3472705134.189 -3.1050382 5.0625825 -200 45 -200 45 -200 45
3473705250.8751 -3.1027799 5.0645366 -200 45 -200 45 -200 45
3474705367.5613 -3.1041713 5.0618443 -200 45 -200 45 -200 45
3475705484.2474 -3.0988979 5.0407472 -200 45 -200 45 -200 45
3476705600.9335 -3.0930648 5.0419445 -200 45 -200 45 -200 45
3477705717.6196 -3.083504 5.0304728 -200 45 -200 45 -200 45
3478705834.3057 -3.0803316 5.0284815 -200 45 -200 45 -200 45
3479705950.9918 -3.0826275 5.0368781 -200 45 -200 45 -200 45
3480706067.6779 -3.0866492 5.0555673 -200 45 -200 45 -200 45
3481706184.3641 -3.0839789 5.0388279 -200 45 -200 45 -200 45
3482706301.0502 -3.0794156 5.0316925 -200 45 -200 45 -200 45
3483706417.7363 -3.0836146 5.0410619 -200 45 -200 45 -200 45
3484706534.4224 -3.0903559 5.0317264 -200 45 -200 45 -200 45
3485706651.1085 -3.1037407 5.0433245 -200 45 -200 45 -200 45
3486706767.7946 -3.1148655 5.064868 -200 45 -200 45 -200 45
3487706884.4807 -3.1195912 5.0732646 -200 45 -200 45 -200 45
3488707001.1669 -3.1187263 5.0812292 -200 45 -200 45 -200 45
3489707117.853 -3.1184003 5.0692344 -200 45 -200 45 -200 45
3490707234.5391 -3.120199 5.073905 -200 45 -200 45 -200 45
3491707351.2252 -3.1150143 5.0605145 -200 45 -200 45 -200 45
3492707467.9113 -3.1063983 5.0460639 -200 45 -200 45 -200 45
3493707584.5974 -3.0987194 5.0313272 -200 45 -200 45 -200 45
3494707701.2835 -3.0948749 5.0306029 -200 45 -200 45 -200 45
3495707817.9697 -3.0969446 5.0528846 -200 45 -200 45 -200 45
3496707934.6558 -3.1025746 5.0528297 -200 45 -200 45 -200 45
3497708051.3419 -3.0988445 5.0501132 -200 45 -200 45 -200 45
3498708168.028 -3.0942986 5.0321951 -200 45 -200 45 -200 45
3499708284.7141 -3.0974078 5.0281291 -200 45 -200 45 -200 45
3500708401.4002 -3.1048572 5.0342536 -200 45 -200 45 -200 45
3501708518.0863 -3.1185322 5.0560822 -200 45 -200 45 -200 45
3502708634.7725 -3.1286385 5.0691662 -200 45 -200 45 -200 45
3503708751.4586 -3.1362562 5.0772033 -200 45 -200 45 -200 45
3504708868.1447 -3.1338885 5.0848494 -200 45 -200 45 -200 45
3505708984.8308 -3.1343377 5.0812726 -200 45 -200 45 -200 45
3506709101.5169 -3.1344957 5.0665984 -200 45 -200 45 -200 45
3507709218.203 -3.1309199 5.0717406 -200 45 -200 45 -200 45
3508709334.8891 -3.1213148 5.0504656 -200 45 -200 45 -200 45
3509709451.5753 -3.113987 5.035027 -200 45 -200 45 -200 45
3510709568.2614 -3.1107614 5.0408254 -200 45 -200 45 -200 45
3511709684.9475 -3.1128457 5.0610256 -200 45 -200 45 -200 45
3512709801.6336 -3.1188745 5.0546412 -200 45 -200 45 -200 45
3513709918.3197 -3.1148703 5.0427775 -200 45 -200 45 -200 45
3514710035.0058 -3.1104662 5.040463 -200 45 -200 45 -200 45
3515710151.6919 -3.1139457 5.0400419 -200 45 -200 45 -200 45
3516710268.3781 -3.1203289 5.0655866 -200 45 -200 45 -200 45
3517710385.0642 -3.1342278 5.0603585 -200 45 -200 45 -200 45
3518710501.7503 -3.1495261 5.0684485 -200 45 -200 45 -200 45
3519710618.4364 -3.1530185 5.0786672 -200 45 -200 45 -200 45
3520710735.1225 -3.151686 5.0714302 -200 45 -200 45 -200 45
3521710851.8086 -3.1518912 5.0631275 -200 45 -200 45 -200 45
3522710968.4947 -3.1514573 5.0755267 -200 45 -200 45 -200 45
3523711085.1809 -3.1502593 5.0576925 -200 45 -200 45 -200 45
3524711201.867 -3.1398714 5.0366931 -200 45 -200 45 -200 45
3525711318.5531 -3.1337774 5.0250864 -200 45 -200 45 -200 45
3526711435.2392 -3.1282537 5.0323906 -200 45 -200 45 -200 45
3527711551.9253 -3.1353905 5.0586534 -200 45 -200 45 -200 45
3528711668.6114 -3.1385703 5.0815835 -200 45 -200 45 -200 45
3529711785.2975 -3.1372082 5.0658474 -200 45 -200 45 -200 45
3530711901.9837 -3.1353862 5.0626607 -200 45 -200 45 -200 45
3531712018.6698 -3.1373959 5.0751505 -200 45 -200 45 -200 45
3532712135.3559 -3.1442015 5.0952997 -200 45 -200 45 -200 45
3533712252.042 -3.1582124 5.1227241 -200 45 -200 45 -200 45
3534712368.7281 -3.1679974 5.1185508 -200 45 -200 45 -200 45
3535712485.4142 -3.1713121 5.1470742 -200 45 -200 45 -200 45
3536712602.1004 -3.1707208 5.1460638 -200 45 -200 45 -200 45
3537712718.7865 -3.1695294 5.1446939 -200 45 -200 45 -200 45
3538712835.4726 -3.1693594 5.1378498 -200 45 -200 45 -200 45
3539712952.1587 -3.1631308 5.1195216 -200 45 -200 45 -200 45
3540713068.8448 -3.1543968 5.0966749 -200 45 -200 45 -200 45
3541713185.5309 -3.1460023 5.0957847 -200 45 -200 45 -200 45
3542713302.217 -3.1444511 5.0972724 -200 45 -200 45 -200 45
3543713418.9032 -3.1465209 5.117115 -200 45 -200 45 -200 45
3544713535.5893 -3.1502542 5.1130552 -200 45 -200 45 -200 45
3545713652.2754 -3.1467745 5.1101284 -200 45 -200 45 -200 45
3546713768.9615 -3.1424081 5.0809002 -200 45 -200 45 -200 45
3547713885.6476 -3.1477346 5.0948586 -200 45 -200 45 -200 45
3548714002.3337 -3.1565883 5.1117902 -200 45 -200 45 -200 45
3549714119.0198 -3.1669323 5.1100893 -200 45 -200 45 -200 45
3550714235.706 -3.1801836 5.1240163 -200 45 -200 45 -200 45
3551714352.3921 -3.1852756 5.1362047 -200 45 -200 45 -200 45
3552714469.0782 -3.1857877 5.1381388 -200 45 -200 45 -200 45
3553714585.7643 -3.1838117 5.1319957 -200 45 -200 45 -200 45
3554714702.4504 -3.1801736 5.143105 -200 45 -200 45 -200 45
3555714819.1365 -3.1784105 5.1391239 -200 45 -200 45 -200 45
3556714935.8226 -3.1690934 5.1078973 -200 45 -200 45 -200 45
3557715052.5088 -3.1609852 5.090713 -200 45 -200 45 -200 45
3558715169.1949 -3.1561553 5.0868182 -200 45 -200 45 -200 45
3559715285.881 -3.1614301 5.1063328 -200 45 -200 45 -200 45
3560715402.5671 -3.1622596 5.0978336 -200 45 -200 45 -200 45
3561715519.2532 -3.1613677 5.1022029 -200 45 -200 45 -200 45
3562715635.9393 -3.1567628 5.077311 -200 45 -200 45 -200 45
3563715752.6254 -3.160501 5.0772052 -200 45 -200 45 -200 45
3564715869.3116 -3.1728661 5.0941515 -200 45 -200 45 -200 45
3565715985.9977 -3.1855557 5.1159916 -200 45 -200 45 -200 45
3566716102.6838 -3.1949885 5.129529 -200 45 -200 45 -200 45
3567716219.3699 -3.199861 5.1216345 -200 45 -200 45 -200 45
3568716336.056 -3.1997507 5.1154294 -200 45 -200 45 -200 45
3569716452.7421 -3.1983151 5.1052103 -200 45 -200 45 -200 45
3570716569.4282 -3.197983 5.0940018 -200 45 -200 45 -200 45
3571716686.1144 -3.1947186 5.0930614 -200 45 -200 45 -200 45
3572716802.8005 -3.1856489 5.077363 -200 45 -200 45 -200 45
3573716919.4866 -3.177315 5.074893 -200 45 -200 45 -200 45
3574717036.1727 -3.175235 5.071393 -200 45 -200 45 -200 45
3575717152.8588 -3.1784909 5.0876169 -200 45 -200 45 -200 45
3576717269.5449 -3.181819 5.0792766 -200 45 -200 45 -200 45
3577717386.231 -3.1811285 5.069694 -200 45 -200 45 -200 45
3578717502.9172 -3.1792021 5.0579472 -200 45 -200 45 -200 45
3579717619.6033 -3.1831734 5.0637732 -200 45 -200 45 -200 45
3580717736.2894 -3.1922376 5.0692625 -200 45 -200 45 -200 45
3581717852.9755 -3.2047505 5.0726428 -200 45 -200 45 -200 45
3582717969.6616 -3.2154398 5.1108737 -200 45 -200 45 -200 45
3583718086.3477 -3.218693 5.1099076 -200 45 -200 45 -200 45
3584718203.0338 -3.2176971 5.1046243 -200 45 -200 45 -200 45
3585718319.72 -3.2176287 5.111383 -200 45 -200 45 -200 45
3586718436.4061 -3.2179775 5.1002727 -200 45 -200 45 -200 45
3587718553.0922 -3.2126198 5.0916228 -200 45 -200 45 -200 45
3588718669.7783 -3.2031186 5.0612097 -200 45 -200 45 -200 45
3589718786.4644 -3.195478 5.0559106 -200 45 -200 45 -200 45
3590718903.1505 -3.1938884 5.0549893 -200 45 -200 45 -200 45
3591719019.8366 -3.1972716 5.0743771 -200 45 -200 45 -200 45
3592719136.5228 -3.1995652 5.056632 -200 45 -200 45 -200 45
3593719253.2089 -3.1990442 5.0539017 -200 45 -200 45 -200 45
3594719369.895 -3.197726 5.034307 -200 45 -200 45 -200 45
3595719486.5811 -3.2000523 5.0524487 -200 45 -200 45 -200 45
3596719603.2672 -3.2117343 5.0541568 -200 45 -200 45 -200 45
3597719719.9533 -3.2230916 5.0797949 -200 45 -200 45 -200 45
3598719836.6394 -3.235924 5.0833297 -200 45 -200 45 -200 45
3599719953.3256 -3.238677 5.0884018 -200 45 -200 45 -200 45
3600720070.0117 -3.2355032 5.0758967 -200 45 -200 45 -200 45
3601720186.6978 -3.2349305 5.0759501 -200 45 -200 45 -200 45
3602720303.3839 -3.2329309 5.0785236 -200 45 -200 45 -200 45
3603720420.07 -3.2299511 5.0648098 -200 45 -200 45 -200 45
3604720536.7561 -3.2174697 5.0564866 -200 45 -200 45 -200 45
3605720653.4422 -3.2134888 5.0330181 -200 45 -200 45 -200 45
3606720770.1284 -3.2115271 5.0328283 -200 45 -200 45 -200 45
3607720886.8145 -3.2131531 5.0407782 -200 45 -200 45 -200 45
3608721003.5006 -3.2166207 5.0493474 -200 45 -200 45 -200 45
3609721120.1867 -3.2153637 5.0393963 -200 45 -200 45 -200 45
3610721236.8728 -3.214525 5.0248713 -200 45 -200 45 -200 45
3611721353.5589 -3.2187891 5.0062346 -200 45 -200 45 -200 45
3612721470.245 -3.2287505 5.0318761 -200 45 -200 45 -200 45
3613721586.9312 -3.2397768 5.0292568 -200 45 -200 45 -200 45
3614721703.6173 -3.2530918 5.0314775 -200 45 -200 45 -200 45
3615721820.3034 -3.2553174 5.0440335 -200 45 -200 45 -200 45
3616721936.9895 -3.2557251 5.0310049 -200 45 -200 45 -200 45
3617722053.6756 -3.256557 5.0374703 -200 45 -200 45 -200 45
3618722170.3617 -3.2537835 5.0265527 -200 45 -200 45 -200 45
3619722287.0478 -3.249332 5.0177422 -200 45 -200 45 -200 45
3620722403.734 -3.2397234 5.0010037 -200 45 -200 45 -200 45
3621722520.4201 -3.2329133 4.9843636 -200 45 -200 45 -200 45
3622722637.1062 -3.233201 4.9904494 -200 45 -200 45 -200 45
3623722753.7923 -3.2370882 4.9988108 -200 45 -200 45 -200 45
3624722870.4784 -3.2366631 4.9856267 -200 45 -200 45 -200 45
3625722987.1645 -3.2369974 4.9724898 -200 45 -200 45 -200 45
3626723103.8506 -3.2337499 4.9538436 -200 45 -200 45 -200 45
3627723220.5368 -3.2391138 4.9718533 -200 45 -200 45 -200 45
3628723337.2229 -3.2503884 4.9616508 -200 45 -200 45 -200 45
3629723453.909 -3.26125 4.9669309 -200 45 -200 45 -200 45
3630723570.5951 -3.2735193 4.9685473 -200 45 -200 45 -200 45
3631723687.2812 -3.2766306 4.9742699 -200 45 -200 45 -200 45
3632723803.9673 -3.2759044 4.9730258 -200 45 -200 45 -200 45
3633723920.6534 -3.2790577 4.9638267 -200 45 -200 45 -200 45
3634724037.3396 -3.2789083 4.9615059 -200 45 -200 45 -200 45
3635724154.0257 -3.2726512 4.9448209 -200 45 -200 45 -200 45
3636724270.7118 -3.2627225 4.9272027 -200 45 -200 45 -200 45
3637724387.3979 -3.2582901 4.9089866 -200 45 -200 45 -200 45
3638724504.084 -3.2566655 4.9200521 -200 45 -200 45 -200 45
3639724620.7701 -3.2602797 4.9293265 -200 45 -200 45 -200 45
3640724737.4562 -3.2664726 4.9273214 -200 45 -200 45 -200 45
3641724854.1424 -3.2626903 4.9187555 -200 45 -200 45 -200 45
3642724970.8285 -3.2606852 4.8968129 -200 45 -200 45 -200 45
3643725087.5146 -3.2662003 4.8836708 -200 45 -200 45 -200 45
3644725204.2007 -3.2772813 4.8907022 -200 45 -200 45 -200 45
3645725320.8868 -3.2905803 4.8924375 -200 45 -200 45 -200 45
3646725437.5729 -3.299639 4.9014211 -200 45 -200 45 -200 45
3647725554.259 -3.3041465 4.8992033 -200 45 -200 45 -200 45
3648725670.9452 -3.3050745 4.883729 -200 45 -200 45 -200 45
3649725787.6313 -3.3044889 4.8802123 -200 45 -200 45 -200 45
3650725904.3174 -3.304162 4.8619666 -200 45 -200 45 -200 45
3651726021.0035 -3.3013175 4.8486366 -200 45 -200 45 -200 45
3652726137.6896 -3.29125 4.8245554 -200 45 -200 45 -200 45
3653726254.3757 -3.2854307 4.8074965 -200 45 -200 45 -200 45
3654726371.0618 -3.2854424 4.8145399 -200 45 -200 45 -200 45
3655726487.748 -3.2893448 4.8270354 -200 45 -200 45 -200 45
3656726604.4341 -3.294241 4.8116536 -200 45 -200 45 -200 45
3657726721.1202 -3.2927327 4.796288 -200 45 -200 45 -200 45
3658726837.8063 -3.2901366 4.7846303 -200 45 -200 45 -200 45
3659726954.4924 -3.2944078 4.7645464 -200 45 -200 45 -200 45
3660727071.1785 -3.3074102 4.7744751 -200 45 -200 45 -200 45
3661727187.8646 -3.3187056 4.7755427 -200 45 -200 45 -200 45
3662727304.5508 -3.3285062 4.78654 -200 45 -200 45 -200 45
3663727421.2369 -3.3344803 4.7758069 -200 45 -200 45 -200 45
3664727537.923 -3.3338702 4.7382569 -200 45 -200 45 -200 45
3665727654.6091 -3.3375154 4.7336102 -200 45 -200 45 -200 45
3666727771.2952 -3.3357348 4.7426448 -200 45 -200 45 -200 45
3667727887.9813 -3.330795 4.7099233 -200 45 -200 45 -200 45
3668728004.6674 -3.3234217 4.6854057 -200 45 -200 45 -200 45
3669728121.3536 -3.3178473 4.6765761 -200 45 -200 45 -200 45
3670728238.0397 -3.3198047 4.6463141 -200 45 -200 45 -200 45
3671728354.7258 -3.3268948 4.6675172 -200 45 -200 45 -200 45
3672728471.4119 -3.3272672 4.6483335 -200 45 -200 45 -200 45
3673728588.098 -3.3254673 4.6313453 -200 45 -200 45 -200 45
3674728704.7841 -3.3288267 4.596693 -200 45 -200 45 -200 45
3675728821.4702 -3.3351662 4.5799017 -200 45 -200 45 -200 45
3676728938.1564 -3.346936 4.5877419 -200 45 -200 45 -200 45
3677729054.8425 -3.3621528 4.5692887 -200 45 -200 45 -200 45
3678729171.5286 -3.3750961 4.5642118 -200 45 -200 45 -200 45
3679729288.2147 -3.3784463 4.5517826 -200 45 -200 45 -200 45
3680729404.9008 -3.381727 4.5460396 -200 45 -200 45 -200 45
3681729521.5869 -3.3815072 4.5226188 -200 45 -200 45 -200 45
3682729638.273 -3.3837991 4.5193672 -200 45 -200 45 -200 45
3683729754.9592 -3.3798048 4.4747486 -200 45 -200 45 -200 45
3684729871.6453 -3.3721087 4.4471326 -200 45 -200 45 -200 45
3685729988.3314 -3.3685248 4.4266634 -200 45 -200 45 -200 45
3686730105.0175 -3.3712466 4.4197311 -200 45 -200 45 -200 45
3687730221.7036 -3.378268 4.4144783 -200 45 -200 45 -200 45
3688730338.3897 -3.3799205 4.3716469 -200 45 -200 45 -200 45
3689730455.0758 -3.3811283 4.3565788 -200 45 -200 45 -200 45
3690730571.762 -3.3830233 4.329246 -200 45 -200 45 -200 45
3691730688.4481 -3.3908091 4.3252668 -200 45 -200 45 -200 45
3692730805.1342 -3.407433 4.3118916 -200 45 -200 45 -200 45
3693730921.8203 -3.4243371 4.2949696 -200 45 -200 45 -200 45
3694731038.5064 -3.4385169 4.2968707 -200 45 -200 45 -200 45
3695731155.1925 -3.4435105 4.277494 -200 45 -200 45 -200 45
3696731271.8786 -3.4462626 4.2721629 -200 45 -200 45 -200 45
3697731388.5648 -3.4485817 4.2477074 -200 45 -200 45 -200 45
3698731505.2509 -3.4501827 4.2321591 -200 45 -200 45 -200 45
3699731621.937 -3.4473166 4.2054038 -200 45 -200 45 -200 45
3700731738.6231 -3.4411256 4.1727724 -200 45 -200 45 -200 45
3701731855.3092 -3.4387395 4.1443739 -200 45 -200 45 -200 45
3702731971.9953 -3.4416404 4.117826 -200 45 -200 45 -200 45
3703732088.6814 -3.4497235 4.1146374 -200 45 -200 45 -200 45
3704732205.3676 -3.4544461 4.0799451 -200 45 -200 45 -200 45
3705732322.0537 -3.4562643 4.0462141 -200 45 -200 45 -200 45
3706732438.7398 -3.4580247 4.0167613 -200 45 -200 45 -200 45
3707732555.4259 -3.4678595 3.983129 -200 45 -200 45 -200 45
3708732672.112 -3.4837501 3.9567964 -200 45 -200 45 -200 45
3709732788.7981 -3.4980826 3.9206929 -200 45 -200 45 -200 45
3710732905.4842 -3.5130756 3.904053 -200 45 -200 45 -200 45
3711733022.1704 -3.5188723 3.8570621 -200 45 -200 45 -200 45
3712733138.8565 -3.525809 3.8072436 -200 45 -200 45 -200 45
3713733255.5426 -3.5319519 3.7619646 -200 45 -200 45 -200 45
3714733372.2287 -3.5382941 3.6877058 -200 45 -200 45 -200 45
3715733488.9148 -3.5422504 3.6404355 -200 45 -200 45 -200 45
3716733605.6009 -3.538939 3.5666583 -200 45 -200 45 -200 45
3717733722.287 -3.5423622 3.4976423 -200 45 -200 45 -200 45
3718733838.9732 -3.5537927 3.4724796 -200 45 -200 45 -200 45
3719733955.6593 -3.569031 3.4357789 -200 45 -200 45 -200 45
3720734072.3454 -3.5787537 3.3845751 -200 45 -200 45 -200 45
3721734189.0315 -3.5917342 3.3066881 -200 45 -200 45 -200 45
3722734305.7176 -3.5990229 3.2507384 -200 45 -200 45 -200 45
3723734422.4037 -3.6166849 3.1956537 -200 45 -200 45 -200 45
3724734539.0898 -3.6445096 3.1439626 -200 45 -200 45 -200 45
3725734655.776 -3.6711776 3.0629179 -200 45 -200 45 -200 45
3726734772.4621 -3.6974428 2.9935343 -200 45 -200 45 -200 45
3727734889.1482 -3.720052 2.933934 -200 45 -200 45 -200 45
3728735005.8343 -3.7414243 2.8776653 -200 45 -200 45 -200 45
3729735122.5204 -3.7633569 2.7879188 -200 45 -200 45 -200 45
3730735239.2065 -3.786303 2.7328794 -200 45 -200 45 -200 45
3731735355.8926 -3.8059523 2.6729989 -200 45 -200 45 -200 45
3732735472.5788 -3.824321 2.6072655 -200 45 -200 45 -200 45
3733735589.2649 -3.8459952 2.5616043 -200 45 -200 45 -200 45
3734735705.951 -3.8778441 2.5214372 -200 45 -200 45 -200 45
3735735822.6371 -3.9120111 2.5030906 -200 45 -200 45 -200 45
3736735939.3232 -3.9479921 2.439616 -200 45 -200 45 -200 45
3737736056.0093 -3.9813254 2.3887091 -200 45 -200 45 -200 45
3738736172.6954 -4.0216994 2.3506029 -200 45 -200 45 -200 45
3739736289.3816 -4.0702953 2.3197401 -200 45 -200 45 -200 45
3740736406.0677 -4.1331758 2.3026602 -200 45 -200 45 -200 45
3741736522.7538 -4.201942 2.2997072 -200 45 -200 45 -200 45
3742736639.4399 -4.2723794 2.313365 -200 45 -200 45 -200 45
3743736756.126 -4.3416543 2.3481433 -200 45 -200 45 -200 45
3744736872.8121 -4.4194336 2.4233665 -200 45 -200 45 -200 45
3745736989.4983 -4.503264 2.5631866 -200 45 -200 45 -200 45
3746737106.1844 -4.5956745 2.7789619 -200 45 -200 45 -200 45
3747737222.8705 -4.6887488 3.1134675 -200 45 -200 45 -200 45
3748737339.5566 -4.7853112 3.5854084 -200 45 -200 45 -200 45
3749737456.2427 -4.8830819 4.2675657 -200 45 -200 45 -200 45
3750737572.9288 -4.9723067 5.1558418 -200 45 -200 45 -200 45
3751737689.6149 -5.0397062 6.2289414 -200 45 -200 45 -200 45
3752737806.3011 -5.0660429 7.377121 -200 45 -200 45 -200 45
3753737922.9872 -5.0447307 8.5489111 -200 45 -200 45 -200 45
3754738039.6733 -4.9919081 9.6722879 -200 45 -200 45 -200 45
3755738156.3594 -4.9154334 10.611135 -200 45 -200 45 -200 45
3756738273.0455 -4.8296165 11.412025 -200 45 -200 45 -200 45
3757738389.7316 -4.7328854 12.02655 -200 45 -200 45 -200 45
3758738506.4177 -4.6317043 12.489291 -200 45 -200 45 -200 45
3759738623.1039 -4.5204892 12.85062 -200 45 -200 45 -200 45
3760738739.79 -4.4118257 13.064804 -200 45 -200 45 -200 45
3761738856.4761 -4.3056598 13.168503 -200 45 -200 45 -200 45
3762738973.1622 -4.2096796 13.167444 -200 45 -200 45 -200 45
3763739089.8483 -4.1174307 13.092001 -200 45 -200 45 -200 45
3764739206.5344 -4.0351281 12.957314 -200 45 -200 45 -200 45
3765739323.2205 -3.9673054 12.814054 -200 45 -200 45 -200 45
3766739439.9067 -3.9171979 12.668697 -200 45 -200 45 -200 45
3767739556.5928 -3.8816242 12.533461 -200 45 -200 45 -200 45
3768739673.2789 -3.8445449 12.399191 -200 45 -200 45 -200 45
3769739789.965 -3.8134151 12.283085 -200 45 -200 45 -200 45
3770739906.6511 -3.788311 12.181185 -200 45 -200 45 -200 45
3771740023.3372 -3.7710257 12.127947 -200 45 -200 45 -200 45
3772740140.0233 -3.7660246 12.10108 -200 45 -200 45 -200 45
3773740256.7095 -3.7571526 12.107042 -200 45 -200 45 -200 45
3774740373.3956 -3.7464287 12.130395 -200 45 -200 45 -200 45
3775740490.0817 -3.7243226 12.180107 -200 45 -200 45 -200 45
3776740606.7678 -3.7014928 12.248009 -200 45 -200 45 -200 45
3777740723.4539 -3.6672001 12.317496 -200 45 -200 45 -200 45
3778740840.14 -3.6248667 12.364945 -200 45 -200 45 -200 45
3779740956.8261 -3.5731266 12.373599 -200 45 -200 45 -200 45
3780741073.5123 -3.5146523 12.314366 -200 45 -200 45 -200 45
3781741190.1984 -3.4635191 12.206533 -200 45 -200 45 -200 45
3782741306.8845 -3.4220264 12.098249 -200 45 -200 45 -200 45
3783741423.5706 -3.3900712 11.970326 -200 45 -200 45 -200 45
3784741540.2567 -3.357918 11.762057 -200 45 -200 45 -200 45
3785741656.9428 -3.3288789 11.577136 -200 45 -200 45 -200 45
3786741773.6289 -3.3054073 11.388453 -200 45 -200 45 -200 45
3787741890.3151 -3.2893183 11.213261 -200 45 -200 45 -200 45
3788742007.0012 -3.2859035 11.060709 -200 45 -200 45 -200 45
3789742123.6873 -3.2832932 10.884428 -200 45 -200 45 -200 45
3790742240.3734 -3.2791772 10.708754 -200 45 -200 45 -200 45
3791742357.0595 -3.2721207 10.5568 -200 45 -200 45 -200 45
3792742473.7456 -3.2646644 10.383115 -200 45 -200 45 -200 45
3793742590.4317 -3.256906 10.235628 -200 45 -200 45 -200 45
3794742707.1179 -3.2491002 10.089746 -200 45 -200 45 -200 45
3795742823.804 -3.2417772 9.9256935 -200 45 -200 45 -200 45
3796742940.4901 -3.2311332 9.8000336 -200 45 -200 45 -200 45
3797743057.1762 -3.2257926 9.6779099 -200 45 -200 45 -200 45
3798743173.8623 -3.2285805 9.5956326 -200 45 -200 45 -200 45
3799743290.5484 -3.2315595 9.5201283 -200 45 -200 45 -200 45
3800743407.2345 -3.229779 9.4068384 -200 45 -200 45 -200 45
3801743523.9207 -3.225847 9.295867 -200 45 -200 45 -200 45
3802743640.6068 -3.2270017 9.2286797 -200 45 -200 45 -200 45
3803743757.2929 -3.2299552 9.1458092 -200 45 -200 45 -200 45
3804743873.979 -3.2440953 9.0752516 -200 45 -200 45 -200 45
3805743990.6651 -3.2574587 8.998271 -200 45 -200 45 -200 45
3806744107.3512 -3.2660191 8.9592066 -200 45 -200 45 -200 45
3807744224.0373 -3.2695751 8.8729591 -200 45 -200 45 -200 45
3808744340.7235 -3.2689173 8.8136883 -200 45 -200 45 -200 45
3809744457.4096 -3.2702162 8.7520723 -200 45 -200 45 -200 45
3810744574.0957 -3.2678058 8.6745691 -200 45 -200 45 -200 45
3811744690.7818 -3.2617805 8.6023006 -200 45 -200 45 -200 45
3812744807.4679 -3.2549772 8.5363083 -200 45 -200 45 -200 45
3813744924.154 -3.2516944 8.4609756 -200 45 -200 45 -200 45
3814745040.8401 -3.256511 8.430768 -200 45 -200 45 -200 45
3815745157.5263 -3.2642248 8.3777609 -200 45 -200 45 -200 45
3816745274.2124 -3.2651308 8.2977171 -200 45 -200 45 -200 45
3817745390.8985 -3.2663953 8.2338915 -200 45 -200 45 -200 45
3818745507.5846 -3.2728078 8.1819897 -200 45 -200 45 -200 45
3819745624.2707 -3.2862835 8.1370115 -200 45 -200 45 -200 45
3820745740.9568 -3.3078134 8.106328 -200 45 -200 45 -200 45
3821745857.6429 -3.3275797 8.0935307 -200 45 -200 45 -200 45
3822745974.3291 -3.3438694 8.089529 -200 45 -200 45 -200 45
3823746091.0152 -3.3553231 8.0909834 -200 45 -200 45 -200 45
3824746207.7013 -3.3642137 8.1106577 -200 45 -200 45 -200 45
3825746324.3874 -3.3689332 8.168067 -200 45 -200 45 -200 45
3826746441.0735 -3.3655901 8.228303 -200 45 -200 45 -200 45
3827746557.7596 -3.3549173 8.2743435 -200 45 -200 45 -200 45
3828746674.4457 -3.341521 8.2995558 -200 45 -200 45 -200 45
3829746791.1319 -3.3256407 8.3153973 -200 45 -200 45 -200 45
3830746907.818 -3.319041 8.3159513 -200 45 -200 45 -200 45
3831747024.5041 -3.3151383 8.309247 -200 45 -200 45 -200 45
3832747141.1902 -3.3079987 8.273365 -200 45 -200 45 -200 45
3833747257.8763 -3.2976029 8.2205954 -200 45 -200 45 -200 45
3834747374.5624 -3.2963431 8.1744804 -200 45 -200 45 -200 45
3835747491.2485 -3.2954679 8.1323967 -200 45 -200 45 -200 45
3836747607.9347 -3.31113 8.0992212 -200 45 -200 45 -200 45
3837747724.6208 -3.3222208 8.0847673 -200 45 -200 45 -200 45
3838747841.3069 -3.3277385 8.044713 -200 45 -200 45 -200 45
3839747957.993 -3.3287144 8.0007648 -200 45 -200 45 -200 45
3840748074.6791 -3.3269792 7.9668198 -200 45 -200 45 -200 45
3841748191.3652 -3.3273382 7.9204865 -200 45 -200 45 -200 45
3842748308.0513 -3.3252001 7.8856301 -200 45 -200 45 -200 45
3843748424.7375 -3.3183999 7.8375936 -200 45 -200 45 -200 45
3844748541.4236 -3.3107324 7.8113022 -200 45 -200 45 -200 45
3845748658.1097 -3.3078706 7.7679496 -200 45 -200 45 -200 45
3846748774.7958 -3.3117247 7.7749453 -200 45 -200 45 -200 45
3847748891.4819 -3.3179126 7.7571373 -200 45 -200 45 -200 45
3848749008.168 -3.3176703 7.7292581 -200 45 -200 45 -200 45
3849749124.8541 -3.3121786 7.692996 -200 45 -200 45 -200 45
3850749241.5403 -3.3160536 7.6817985 -200 45 -200 45 -200 45
3851749358.2264 -3.3211205 7.6701088 -200 45 -200 45 -200 45
3852749474.9125 -3.3370845 7.652905 -200 45 -200 45 -200 45
3853749591.5986 -3.3473492 7.6646676 -200 45 -200 45 -200 45
3854749708.2847 -3.3519723 7.6351895 -200 45 -200 45 -200 45
3855749824.9708 -3.3529079 7.611167 -200 45 -200 45 -200 45
3856749941.6569 -3.3541188 7.5941844 -200 45 -200 45 -200 45
3857750058.3431 -3.353195 7.5567122 -200 45 -200 45 -200 45
3858750175.0292 -3.3494096 7.5244884 -200 45 -200 45 -200 45
3859750291.7153 -3.3427949 7.481895 -200 45 -200 45 -200 45
3860750408.4014 -3.3379915 7.4425173 -200 45 -200 45 -200 45
3861750525.0875 -3.3332047 7.4223795 -200 45 -200 45 -200 45
3862750641.7736 -3.3390234 7.4060836 -200 45 -200 45 -200 45
3863750758.4597 -3.3419716 7.3797054 -200 45 -200 45 -200 45
3864750875.1459 -3.3429816 7.3352828 -200 45 -200 45 -200 45
3865750991.832 -3.34056 7.3002481 -200 45 -200 45 -200 45
3866751108.5181 -3.3453379 7.2742677 -200 45 -200 45 -200 45
3867751225.2042 -3.3535981 7.2595119 -200 45 -200 45 -200 45
3868751341.8903 -3.370172 7.2552242 -200 45 -200 45 -200 45
3869751458.5764 -3.3851101 7.2263618 -200 45 -200 45 -200 45
3870751575.2625 -3.3909955 7.2008109 -200 45 -200 45 -200 45
3871751691.9487 -3.3944407 7.1626682 -200 45 -200 45 -200 45
3872751808.6348 -3.3984995 7.1567221 -200 45 -200 45 -200 45
3873751925.3209 -3.4003825 7.1179399 -200 45 -200 45 -200 45
3874752042.007 -3.403115 7.0928445 -200 45 -200 45 -200 45
3875752158.6931 -3.3968983 7.0457749 -200 45 -200 45 -200 45
3876752275.3792 -3.397053 7.0005965 -200 45 -200 45 -200 45
3877752392.0653 -3.3943005 6.9624324 -200 45 -200 45 -200 45
3878752508.7515 -3.404866 6.9463301 -200 45 -200 45 -200 45
3879752625.4376 -3.4139373 6.9306827 -200 45 -200 45 -200 45
3880752742.1237 -3.4159658 6.8998251 -200 45 -200 45 -200 45
3881752858.8098 -3.419827 6.8484821 -200 45 -200 45 -200 45
3882752975.4959 -3.4311204 6.8294225 -200 45 -200 45 -200 45
3883753092.182 -3.448585 6.7918854 -200 45 -200 45 -200 45
3884753208.8681 -3.4691546 6.7770696 -200 45 -200 45 -200 45
3885753325.5543 -3.4931307 6.7754164 -200 45 -200 45 -200 45
3886753442.2404 -3.5096705 6.7494969 -200 45 -200 45 -200 45
3887753558.9265 -3.5218115 6.7299347 -200 45 -200 45 -200 45
3888753675.6126 -3.5368903 6.7115817 -200 45 -200 45 -200 45
3889753792.2987 -3.5516615 6.7186666 -200 45 -200 45 -200 45
3890753908.9848 -3.5677285 6.7086158 -200 45 -200 45 -200 45
3891754025.6709 -3.5785165 6.7340417 -200 45 -200 45 -200 45
3892754142.3571 -3.5947149 6.7754426 -200 45 -200 45 -200 45
3893754259.0432 -3.6109824 6.8587584 -200 45 -200 45 -200 45
3894754375.7293 -3.6343791 6.9976802 -200 45 -200 45 -200 45
3895754492.4154 -3.6569033 7.1650581 -200 45 -200 45 -200 45
3896754609.1015 -3.6696074 7.3492093 -200 45 -200 45 -200 45
3897754725.7876 -3.6750827 7.5553956 -200 45 -200 45 -200 45
3898754842.4737 -3.6747181 7.7706814 -200 45 -200 45 -200 45
3899754959.1599 -3.6736934 8.0045557 -200 45 -200 45 -200 45
3900755075.846 -3.6670172 8.2076483 -200 45 -200 45 -200 45
3901755192.5321 -3.6597588 8.3579988 -200 45 -200 45 -200 45
3902755309.2182 -3.641067 8.4697313 -200 45 -200 45 -200 45
3903755425.9043 -3.6183982 8.5345345 -200 45 -200 45 -200 45
3904755542.5904 -3.5936661 8.5775814 -200 45 -200 45 -200 45
3905755659.2765 -3.5751312 8.5785065 -200 45 -200 45 -200 45
3906755775.9627 -3.5497463 8.5550785 -200 45 -200 45 -200 45
3907755892.6488 -3.5250626 8.5101471 -200 45 -200 45 -200 45
3908756009.3349 -3.505523 8.4674435 -200 45 -200 45 -200 45
3909756126.021 -3.4911692 8.4404993 -200 45 -200 45 -200 45
3910756242.7071 -3.4851356 8.4076376 -200 45 -200 45 -200 45
3911756359.3932 -3.4795043 8.3688822 -200 45 -200 45 -200 45
3912756476.0793 -3.4714344 8.3206472 -200 45 -200 45 -200 45
3913756592.7655 -3.4619417 8.2716303 -200 45 -200 45 -200 45
3914756709.4516 -3.4620404 8.2382708 -200 45 -200 45 -200 45
3915756826.1377 -3.4649515 8.1980438 -200 45 -200 45 -200 45
3916756942.8238 -3.4746823 8.2022943 -200 45 -200 45 -200 45
3917757059.5099 -3.482856 8.1842127 -200 45 -200 45 -200 45
3918757176.196 -3.4829943 8.1501112 -200 45 -200 45 -200 45
3919757292.8821 -3.4790225 8.1270523 -200 45 -200 45 -200 45
3920757409.5683 -3.4743283 8.0935011 -200 45 -200 45 -200 45
3921757526.2544 -3.4713316 8.0527534 -200 45 -200 45 -200 45
3922757642.9405 -3.4619937 8.0052748 -200 45 -200 45 -200 45
3923757759.6266 -3.4509997 7.9531388 -200 45 -200 45 -200 45
3924757876.3127 -3.4412537 7.8906198 -200 45 -200 45 -200 45
3925757992.9988 -3.4348097 7.8477688 -200 45 -200 45 -200 45
3926758109.6849 -3.4394855 7.8223281 -200 45 -200 45 -200 45
3927758226.3711 -3.44086 7.7684917 -200 45 -200 45 -200 45
3928758343.0572 -3.4406767 7.6935749 -200 45 -200 45 -200 45
3929758459.7433 -3.4385707 7.6343708 -200 45 -200 45 -200 45
3930758576.4294 -3.4444354 7.5904336 -200 45 -200 45 -200 45
3931758693.1155 -3.4617486 7.5536575 -200 45 -200 45 -200 45
3932758809.8016 -3.4765892 7.5014749 -200 45 -200 45 -200 45
3933758926.4877 -3.4945822 7.4808674 -200 45 -200 45 -200 45
3934759043.1739 -3.5061235 7.4417796 -200 45 -200 45 -200 45
3935759159.86 -3.5163026 7.4060278 -200 45 -200 45 -200 45
3936759276.5461 -3.524298 7.3761296 -200 45 -200 45 -200 45
3937759393.2322 -3.5342925 7.3439431 -200 45 -200 45 -200 45
3938759509.9183 -3.5432267 7.3279929 -200 45 -200 45 -200 45
3939759626.6044 -3.5473495 7.3176999 -200 45 -200 45 -200 45
3940759743.2905 -3.5519266 7.3460903 -200 45 -200 45 -200 45
3941759859.9767 -3.5633631 7.3573995 -200 45 -200 45 -200 45
3942759976.6628 -3.5797212 7.4244394 -200 45 -200 45 -200 45
3943760093.3489 -3.5937359 7.5027118 -200 45 -200 45 -200 45
3944760210.035 -3.6046286 7.5677299 -200 45 -200 45 -200 45
3945760326.7211 -3.6051352 7.6659064 -200 45 -200 45 -200 45
3946760443.4072 -3.6155102 7.8032598 -200 45 -200 45 -200 45
3947760560.0933 -3.6222742 7.9399176 -200 45 -200 45 -200 45
3948760676.7795 -3.6292896 8.0801668 -200 45 -200 45 -200 45
3949760793.4656 -3.6306233 8.1978827 -200 45 -200 45 -200 45
3950760910.1517 -3.6213882 8.2932215 -200 45 -200 45 -200 45
3951761026.8378 -3.6030848 8.3436794 -200 45 -200 45 -200 45
3952761143.5239 -3.5870175 8.357748 -200 45 -200 45 -200 45
3953761260.21 -3.5701244 8.3633413 -200 45 -200 45 -200 45
3954761376.8961 -3.5541675 8.3443451 -200 45 -200 45 -200 45
3955761493.5823 -3.5319085 8.2938385 -200 45 -200 45 -200 45
3956761610.2684 -3.5184236 8.246829 -200 45 -200 45 -200 45
3957761726.9545 -3.5088668 8.2143288 -200 45 -200 45 -200 45
3958761843.6406 -3.50723 8.1897974 -200 45 -200 45 -200 45
3959761960.3267 -3.5078571 8.1531124 -200 45 -200 45 -200 45
3960762077.0128 -3.5018151 8.0963821 -200 45 -200 45 -200 45
3961762193.6989 -3.4989698 8.0738306 -200 45 -200 45 -200 45
3962762310.3851 -3.4998581 8.0568972 -200 45 -200 45 -200 45
3963762427.0712 -3.5078175 8.032877 -200 45 -200 45 -200 45
3964762543.7573 -3.5190935 8.0321226 -200 45 -200 45 -200 45
3965762660.4434 -3.5277112 8.0256596 -200 45 -200 45 -200 45
3966762777.1295 -3.5300677 8.0187016 -200 45 -200 45 -200 45
3967762893.8156 -3.5300198 8.0039854 -200 45 -200 45 -200 45
3968763010.5018 -3.525326 7.9718332 -200 45 -200 45 -200 45
3969763127.1879 -3.5223346 7.9580121 -200 45 -200 45 -200 45
3970763243.874 -3.5154893 7.9220104 -200 45 -200 45 -200 45
3971763360.5601 -3.5080419 7.8888764 -200 45 -200 45 -200 45
3972763477.2462 -3.4982579 7.8550882 -200 45 -200 45 -200 45
3973763593.9323 -3.4957933 7.8244915 -200 45 -200 45 -200 45
3974763710.6184 -3.4978878 7.8148475 -200 45 -200 45 -200 45
3975763827.3046 -3.4990599 7.7956133 -200 45 -200 45 -200 45
3976763943.9907 -3.4932835 7.753932 -200 45 -200 45 -200 45
3977764060.6768 -3.4888613 7.704999 -200 45 -200 45 -200 45
3978764177.3629 -3.4932981 7.6713586 -200 45 -200 45 -200 45
3979764294.049 -3.5017066 7.6478148 -200 45 -200 45 -200 45
3980764410.7351 -3.5125048 7.6113195 -200 45 -200 45 -200 45
3981764527.4212 -3.5238061 7.5649681 -200 45 -200 45 -200 45
3982764644.1074 -3.5276859 7.5401678 -200 45 -200 45 -200 45
3983764760.7935 -3.5306056 7.4998903 -200 45 -200 45 -200 45
3984764877.4796 -3.5309169 7.4506207 -200 45 -200 45 -200 45
3985764994.1657 -3.533246 7.3978481 -200 45 -200 45 -200 45
3986765110.8518 -3.53076 7.3273125 -200 45 -200 45 -200 45
3987765227.5379 -3.5289454 7.2746491 -200 45 -200 45 -200 45
3988765344.224 -3.5271258 7.2060137 -200 45 -200 45 -200 45
3989765460.9102 -3.5301332 7.1637459 -200 45 -200 45 -200 45
3990765577.5963 -3.5373158 7.1290512 -200 45 -200 45 -200 45
3991765694.2824 -3.5473759 7.0714569 -200 45 -200 45 -200 45
3992765810.9685 -3.5508785 7.0178137 -200 45 -200 45 -200 45
3993765927.6546 -3.5538118 6.9517369 -200 45 -200 45 -200 45
3994766044.3407 -3.5661178 6.8945799 -200 45 -200 45 -200 45
3995766161.0268 -3.5877247 6.8764415 -200 45 -200 45 -200 45
3996766277.713 -3.6073282 6.8265162 -200 45 -200 45 -200 45
3997766394.3991 -3.6324215 6.7894979 -200 45 -200 45 -200 45
3998766511.0852 -3.6445034 6.7319713 -200 45 -200 45 -200 45
3999766627.7713 -3.6566224 6.6831851 -200 45 -200 45 -200 45
4000766744.4574 -3.6709673 6.6164193 -200 45 -200 45 -200 45
4001766861.1435 -3.6865568 6.5583553 -200 45 -200 45 -200 45
4002766977.8296 -3.7011485 6.4972892 -200 45 -200 45 -200 45
4003767094.5158 -3.7096891 6.409791 -200 45 -200 45 -200 45
4004767211.2019 -3.7243721 6.3562741 -200 45 -200 45 -200 45
4005767327.888 -3.7471578 6.3133454 -200 45 -200 45 -200 45
4006767444.5741 -3.7788455 6.277432 -200 45 -200 45 -200 45
4007767561.2602 -3.8110249 6.2369542 -200 45 -200 45 -200 45
4008767677.9463 -3.8441825 6.1997967 -200 45 -200 45 -200 45
4009767794.6324 -3.8845923 6.1964025 -200 45 -200 45 -200 45
4010767911.3186 -3.9335423 6.2194648 -200 45 -200 45 -200 45
4011768028.0047 -3.9969301 6.2802296 -200 45 -200 45 -200 45
4012768144.6908 -4.0685315 6.4108443 -200 45 -200 45 -200 45
4013768261.3769 -4.1397238 6.6147556 -200 45 -200 45 -200 45
4014768378.063 -4.2035551 6.9371371 -200 45 -200 45 -200 45
4015768494.7491 -4.2632389 7.3342476 -200 45 -200 45 -200 45
4016768611.4352 -4.3093514 7.8978186 -200 45 -200 45 -200 45
4017768728.1214 -4.3377719 8.5176516 -200 45 -200 45 -200 45
4018768844.8075 -4.3402305 9.2197094 -200 45 -200 45 -200 45
4019768961.4936 -4.3112731 9.9213753 -200 45 -200 45 -200 45
4020769078.1797 -4.2559619 10.530472 -200 45 -200 45 -200 45
4021769194.8658 -4.1909609 11.053109 -200 45 -200 45 -200 45
4022769311.5519 -4.1193528 11.426305 -200 45 -200 45 -200 45
4023769428.238 -4.044312 11.666204 -200 45 -200 45 -200 45
4024769544.9242 -3.9733331 11.784663 -200 45 -200 45 -200 45
4025769661.6103 -3.9064531 11.809553 -200 45 -200 45 -200 45
4026769778.2964 -3.8549287 11.80479 -200 45 -200 45 -200 45
4027769894.9825 -3.81883 11.785914 -200 45 -200 45 -200 45
4028770011.6686 -3.7914536 11.732951 -200 45 -200 45 -200 45
4029770128.3547 -3.7660391 11.682044 -200 45 -200 45 -200 45
4030770245.0408 -3.7392662 11.641973 -200 45 -200 45 -200 45
4031770361.727 -3.7068944 11.615687 -200 45 -200 45 -200 45
4032770478.4131 -3.6789851 11.576681 -200 45 -200 45 -200 45
4033770595.0992 -3.6466703 11.52558 -200 45 -200 45 -200 45
4034770711.7853 -3.6119819 11.455873 -200 45 -200 45 -200 45
4035770828.4714 -3.5738912 11.353754 -200 45 -200 45 -200 45
4036770945.1575 -3.5401309 11.238041 -200 45 -200 45 -200 45
4037771061.8436 -3.5151768 11.141109 -200 45 -200 45 -200 45
4038771178.5298 -3.4946585 11.016035 -200 45 -200 45 -200 45
4039771295.2159 -3.4789889 10.880448 -200 45 -200 45 -200 45
4040771411.902 -3.4637225 10.746743 -200 45 -200 45 -200 45
4041771528.5881 -3.4500773 10.600941 -200 45 -200 45 -200 45
4042771645.2742 -3.4444301 10.486601 -200 45 -200 45 -200 45
4043771761.9603 -3.451386 10.390247 -200 45 -200 45 -200 45
4044771878.6464 -3.4539397 10.271089 -200 45 -200 45 -200 45
4045771995.3326 -3.4619377 10.175294 -200 45 -200 45 -200 45
4046772112.0187 -3.4597046 10.094457 -200 45 -200 45 -200 45
4047772228.7048 -3.4588728 10.012283 -200 45 -200 45 -200 45
4048772345.3909 -3.4599774 9.9170427 -200 45 -200 45 -200 45
4049772462.077 -3.4558132 9.8497047 -200 45 -200 45 -200 45
4050772578.7631 -3.448281 9.7815094 -200 45 -200 45 -200 45
4051772695.4492 -3.4394474 9.6910725 -200 45 -200 45 -200 45
4052772812.1354 -3.4341121 9.6208878 -200 45 -200 45 -200 45
4053772928.8215 -3.4304111 9.5794954 -200 45 -200 45 -200 45
4054773045.5076 -3.435549 9.533432 -200 45 -200 45 -200 45
4055773162.1937 -3.4365642 9.4829741 -200 45 -200 45 -200 45
4056773278.8798 -3.4337626 9.4345446 -200 45 -200 45 -200 45
4057773395.5659 -3.4340582 9.3836813 -200 45 -200 45 -200 45
4058773512.252 -3.4361017 9.3290443 -200 45 -200 45 -200 45
4059773628.9382 -3.4509025 9.3140383 -200 45 -200 45 -200 45
4060773745.6243 -3.4598532 9.2840157 -200 45 -200 45 -200 45
4061773862.3104 -3.4708939 9.2453356 -200 45 -200 45 -200 45
4062773978.9965 -3.4733477 9.230979 -200 45 -200 45 -200 45
4063774095.6826 -3.4739664 9.1907587 -200 45 -200 45 -200 45
4064774212.3687 -3.4750218 9.1524887 -200 45 -200 45 -200 45
4065774329.0548 -3.4743423 9.1143551 -200 45 -200 45 -200 45
4066774445.741 -3.4692247 9.0836143 -200 45 -200 45 -200 45
4067774562.4271 -3.4613512 9.0209494 -200 45 -200 45 -200 45
4068774679.1132 -3.4561381 9.0164175 -200 45 -200 45 -200 45
4069774795.7993 -3.4545016 8.9842224 -200 45 -200 45 -200 45
4070774912.4854 -3.4585555 8.9714241 -200 45 -200 45 -200 45
4071775029.1715 -3.4608777 8.9411345 -200 45 -200 45 -200 45
4072775145.8576 -3.4603384 8.9117231 -200 45 -200 45 -200 45
4073775262.5438 -3.4613411 8.8738937 -200 45 -200 45 -200 45
4074775379.2299 -3.4641075 8.8570948 -200 45 -200 45 -200 45
4075775495.916 -3.4753888 8.8490505 -200 45 -200 45 -200 45
4076775612.6021 -3.4888465 8.8377399 -200 45 -200 45 -200 45
4077775729.2882 -3.4989386 8.8286715 -200 45 -200 45 -200 45
4078775845.9743 -3.5010054 8.8232584 -200 45 -200 45 -200 45
4079775962.6604 -3.5044832 8.8016663 -200 45 -200 45 -200 45
4080776079.3466 -3.5037737 8.7727318 -200 45 -200 45 -200 45
4081776196.0327 -3.5045798 8.7588568 -200 45 -200 45 -200 45
4082776312.7188 -3.4972517 8.7335548 -200 45 -200 45 -200 45
4083776429.4049 -3.4877002 8.7102575 -200 45 -200 45 -200 45
4084776546.091 -3.4844933 8.6746874 -200 45 -200 45 -200 45
4085776662.7771 -3.4845521 8.6826429 -200 45 -200 45 -200 45
4086776779.4632 -3.4897125 8.6692085 -200 45 -200 45 -200 45
4087776896.1494 -3.490921 8.6588821 -200 45 -200 45 -200 45
4088777012.8355 -3.4888234 8.6430073 -200 45 -200 45 -200 45
4089777129.5216 -3.4879625 8.6155329 -200 45 -200 45 -200 45
4090777246.2077 -3.4950681 8.6201696 -200 45 -200 45 -200 45
4091777362.8938 -3.5074651 8.6025505 -200 45 -200 45 -200 45
4092777479.5799 -3.519455 8.5910292 -200 45 -200 45 -200 45
4093777596.266 -3.5307114 8.5814161 -200 45 -200 45 -200 45
4094777712.9522 -3.5325353 8.5987587 -200 45 -200 45 -200 45
4095777829.6383 -3.534189 8.5767574 -200 45 -200 45 -200 45
4096777946.3244 -3.533062 8.5568504 -200 45 -200 45 -200 45
4097778063.0105 -3.5303874 8.5422859 -200 45 -200 45 -200 45
4098778179.6966 -3.5273306 8.5180168 -200 45 -200 45 -200 45
4099778296.3827 -3.5199158 8.4990692 -200 45 -200 45 -200 45
4100778413.0688 -3.5125113 8.4954348 -200 45 -200 45 -200 45
4101778529.755 -3.5132418 8.4706907 -200 45 -200 45 -200 45
4102778646.4411 -3.5176158 8.4857874 -200 45 -200 45 -200 45
4103778763.1272 -3.5216556 8.4556694 -200 45 -200 45 -200 45
4104778879.8133 -3.5172503 8.4232559 -200 45 -200 45 -200 45
4105778996.4994 -3.520195 8.4152203 -200 45 -200 45 -200 45
4106779113.1855 -3.5226898 8.4184732 -200 45 -200 45 -200 45
4107779229.8716 -3.5391002 8.4253731 -200 45 -200 45 -200 45
4108779346.5578 -3.5516601 8.4153214 -200 45 -200 45 -200 45
4109779463.2439 -3.5619378 8.4124527 -200 45 -200 45 -200 45
4110779579.93 -3.5645223 8.4070358 -200 45 -200 45 -200 45
4111779696.6161 -3.5673265 8.407567 -200 45 -200 45 -200 45
4112779813.3022 -3.5664146 8.4213533 -200 45 -200 45 -200 45
4113779929.9883 -3.5667357 8.3877792 -200 45 -200 45 -200 45
4114780046.6744 -3.5623472 8.3779354 -200 45 -200 45 -200 45
4115780163.3606 -3.5522366 8.337019 -200 45 -200 45 -200 45
4116780280.0467 -3.5493727 8.3308382 -200 45 -200 45 -200 45
4117780396.7328 -3.5486159 8.3389645 -200 45 -200 45 -200 45
4118780513.4189 -3.5537722 8.3311844 -200 45 -200 45 -200 45
4119780630.105 -3.5571921 8.347374 -200 45 -200 45 -200 45
4120780746.7911 -3.5552142 8.3130827 -200 45 -200 45 -200 45
4121780863.4772 -3.5565016 8.3119898 -200 45 -200 45 -200 45
4122780980.1634 -3.5612247 8.3069038 -200 45 -200 45 -200 45
4123781096.8495 -3.5764203 8.2952414 -200 45 -200 45 -200 45
4124781213.5356 -3.5862136 8.3068504 -200 45 -200 45 -200 45
4125781330.2217 -3.5965686 8.3242369 -200 45 -200 45 -200 45
4126781446.9078 -3.5997391 8.3020697 -200 45 -200 45 -200 45
4127781563.5939 -3.5994339 8.3072681 -200 45 -200 45 -200 45
4128781680.28 -3.6014807 8.2822342 -200 45 -200 45 -200 45
4129781796.9662 -3.6023192 8.2795305 -200 45 -200 45 -200 45
4130781913.6523 -3.5959134 8.2621841 -200 45 -200 45 -200 45
4131782030.3384 -3.5874093 8.2437153 -200 45 -200 45 -200 45
4132782147.0245 -3.5804393 8.2228317 -200 45 -200 45 -200 45
4133782263.7106 -3.5854778 8.2346106 -200 45 -200 45 -200 45
4134782380.3967 -3.5902872 8.2400322 -200 45 -200 45 -200 45
4135782497.0828 -3.5913711 8.2054596 -200 45 -200 45 -200 45
4136782613.769 -3.5891616 8.2003212 -200 45 -200 45 -200 45
4137782730.4551 -3.5902722 8.1848478 -200 45 -200 45 -200 45
4138782847.1412 -3.595855 8.180829 -200 45 -200 45 -200 45
4139782963.8273 -3.6094866 8.1862679 -200 45 -200 45 -200 45
4140783080.5134 -3.6245935 8.1637125 -200 45 -200 45 -200 45
4141783197.1995 -3.6351151 8.1511211 -200 45 -200 45 -200 45
4142783313.8856 -3.6397684 8.1655369 -200 45 -200 45 -200 45
4143783430.5718 -3.6378827 8.1532831 -200 45 -200 45 -200 45
4144783547.2579 -3.6427674 8.1396446 -200 45 -200 45 -200 45
4145783663.944 -3.6421266 8.1132612 -200 45 -200 45 -200 45
4146783780.6301 -3.6379917 8.0885735 -200 45 -200 45 -200 45
4147783897.3162 -3.6275847 8.0629225 -200 45 -200 45 -200 45
4148784014.0023 -3.6243491 8.0515785 -200 45 -200 45 -200 45
4149784130.6884 -3.6277647 8.0449429 -200 45 -200 45 -200 45
4150784247.3746 -3.6364446 8.0549393 -200 45 -200 45 -200 45
4151784364.0607 -3.6384923 8.0359459 -200 45 -200 45 -200 45
4152784480.7468 -3.6380916 8.0199642 -200 45 -200 45 -200 45
4153784597.4329 -3.640451 7.9965363 -200 45 -200 45 -200 45
4154784714.119 -3.6486974 7.9860306 -200 45 -200 45 -200 45
4155784830.8051 -3.6640403 7.9811335 -200 45 -200 45 -200 45
4156784947.4912 -3.6783175 7.9803333 -200 45 -200 45 -200 45
4157785064.1774 -3.6875422 7.9851623 -200 45 -200 45 -200 45
4158785180.8635 -3.69367 7.9787421 -200 45 -200 45 -200 45
4159785297.5496 -3.6976933 7.9656253 -200 45 -200 45 -200 45
4160785414.2357 -3.6964755 7.9503965 -200 45 -200 45 -200 45
4161785530.9218 -3.6960008 7.9353361 -200 45 -200 45 -200 45
4162785647.6079 -3.6975908 7.9126358 -200 45 -200 45 -200 45
4163785764.294 -3.6882305 7.8994884 -200 45 -200 45 -200 45
4164785880.9802 -3.6872513 7.8703537 -200 45 -200 45 -200 45
4165785997.6663 -3.6891179 7.8879189 -200 45 -200 45 -200 45
4166786114.3524 -3.697155 7.8665442 -200 45 -200 45 -200 45
4167786231.0385 -3.7014372 7.8447881 -200 45 -200 45 -200 45
4168786347.7246 -3.7040498 7.8157916 -200 45 -200 45 -200 45
4169786464.4107 -3.7058389 7.8015132 -200 45 -200 45 -200 45
4170786581.0968 -3.7150767 7.7834659 -200 45 -200 45 -200 45
4171786697.783 -3.7353368 7.7632794 -200 45 -200 45 -200 45
4172786814.4691 -3.751817 7.7401385 -200 45 -200 45 -200 45
4173786931.1552 -3.7659528 7.7428279 -200 45 -200 45 -200 45
4174787047.8413 -3.771569 7.710103 -200 45 -200 45 -200 45
4175787164.5274 -3.7799914 7.6886234 -200 45 -200 45 -200 45
4176787281.2135 -3.7850385 7.6746798 -200 45 -200 45 -200 45
4177787397.8997 -3.7913401 7.6195126 -200 45 -200 45 -200 45
4178787514.5858 -3.7924831 7.5987458 -200 45 -200 45 -200 45
4179787631.2719 -3.7920344 7.5499802 -200 45 -200 45 -200 45
4180787747.958 -3.8013721 7.5254207 -200 45 -200 45 -200 45
4181787864.6441 -3.8133094 7.512135 -200 45 -200 45 -200 45
4182787981.3302 -3.8285606 7.5075159 -200 45 -200 45 -200 45
4183788098.0163 -3.8382132 7.4834986 -200 45 -200 45 -200 45
4184788214.7025 -3.8501501 7.4367065 -200 45 -200 45 -200 45
4185788331.3886 -3.8689108 7.4298944 -200 45 -200 45 -200 45
4186788448.0747 -3.8944845 7.4223418 -200 45 -200 45 -200 45
4187788564.7608 -3.926636 7.4049926 -200 45 -200 45 -200 45
4188788681.4469 -3.9640415 7.4343014 -200 45 -200 45 -200 45
4189788798.133 -3.9985366 7.4762783 -200 45 -200 45 -200 45
4190788914.8191 -4.0270033 7.536799 -200 45 -200 45 -200 45
4191789031.5053 -4.0572615 7.6140995 -200 45 -200 45 -200 45
4192789148.1914 -4.0884261 7.7369423 -200 45 -200 45 -200 45
4193789264.8775 -4.1169715 7.8891325 -200 45 -200 45 -200 45
4194789381.5636 -4.1360583 8.1067429 -200 45 -200 45 -200 45
4195789498.2497 -4.1504827 8.3395214 -200 45 -200 45 -200 45
4196789614.9358 -4.1617045 8.6496859 -200 45 -200 45 -200 45
4197789731.6219 -4.1730061 8.9790936 -200 45 -200 45 -200 45
4198789848.3081 -4.1741095 9.3225346 -200 45 -200 45 -200 45
4199789964.9942 -4.1644592 9.6442356 -200 45 -200 45 -200 45
4200790081.6803 -4.1458817 9.9340601 -200 45 -200 45 -200 45
4201790198.3664 -4.1189446 10.202929 -200 45 -200 45 -200 45
4202790315.0525 -4.0943251 10.404722 -200 45 -200 45 -200 45
4203790431.7386 -4.0736599 10.604837 -200 45 -200 45 -200 45
4204790548.4247 -4.0515008 10.74074 -200 45 -200 45 -200 45
4205790665.1109 -4.0242028 10.829584 -200 45 -200 45 -200 45
4206790781.797 -3.9918444 10.883499 -200 45 -200 45 -200 45
4207790898.4831 -3.9613013 10.892619 -200 45 -200 45 -200 45
4208791015.1692 -3.934056 10.88982 -200 45 -200 45 -200 45
4209791131.8553 -3.9064894 10.867903 -200 45 -200 45 -200 45
4210791248.5414 -3.8768933 10.816301 -200 45 -200 45 -200 45
4211791365.2275 -3.8496034 10.768838 -200 45 -200 45 -200 45
4212791481.9137 -3.8300533 10.741162 -200 45 -200 45 -200 45
4213791598.5998 -3.8173897 10.731954 -200 45 -200 45 -200 45
4214791715.2859 -3.808768 10.704349 -200 45 -200 45 -200 45
4215791831.972 -3.7969284 10.667127 -200 45 -200 45 -200 45
4216791948.6581 -3.780442 10.640635 -200 45 -200 45 -200 45
4217792065.3442 -3.7690439 10.626372 -200 45 -200 45 -200 45
4218792182.0303 -3.7618351 10.609366 -200 45 -200 45 -200 45
4219792298.7165 -3.7656527 10.61227 -200 45 -200 45 -200 45
4220792415.4026 -3.7633092 10.593302 -200 45 -200 45 -200 45
4221792532.0887 -3.7617338 10.547356 -200 45 -200 45 -200 45
4222792648.7748 -3.7483888 10.510427 -200 45 -200 45 -200 45
4223792765.4609 -3.7361095 10.460022 -200 45 -200 45 -200 45
4224792882.147 -3.7266576 10.409394 -200 45 -200 45 -200 45
4225792998.8331 -3.7150698 10.336283 -200 45 -200 45 -200 45
4226793115.5193 -3.7016325 10.277786 -200 45 -200 45 -200 45
4227793232.2054 -3.6832995 10.219481 -200 45 -200 45 -200 45
4228793348.8915 -3.6720803 10.160653 -200 45 -200 45 -200 45
4229793465.5776 -3.6710258 10.122263 -200 45 -200 45 -200 45
4230793582.2637 -3.6653478 10.068158 -200 45 -200 45 -200 45
4231793698.9498 -3.6623325 9.9844704 -200 45 -200 45 -200 45
4232793815.6359 -3.6566126 9.9049234 -200 45 -200 45 -200 45
4233793932.3221 -3.6533601 9.8475266 -200 45 -200 45 -200 45
4234794049.0082 -3.6607885 9.8009796 -200 45 -200 45 -200 45
4235794165.6943 -3.6706152 9.7717772 -200 45 -200 45 -200 45
4236794282.3804 -3.6826873 9.7093782 -200 45 -200 45 -200 45
4237794399.0665 -3.6893461 9.6715889 -200 45 -200 45 -200 45
4238794515.7526 -3.6903408 9.625164 -200 45 -200 45 -200 45
4239794632.4387 -3.6923532 9.5690908 -200 45 -200 45 -200 45
4240794749.1249 -3.6901505 9.5412436 -200 45 -200 45 -200 45
4241794865.811 -3.6876497 9.485343 -200 45 -200 45 -200 45
4242794982.4971 -3.6830075 9.4264736 -200 45 -200 45 -200 45
4243795099.1832 -3.6772828 9.3679142 -200 45 -200 45 -200 45
4244795215.8693 -3.6739073 9.3413811 -200 45 -200 45 -200 45
4245795332.5554 -3.6773794 9.3383532 -200 45 -200 45 -200 45
4246795449.2415 -3.6813436 9.2956944 -200 45 -200 45 -200 45
4247795565.9277 -3.6809018 9.263485 -200 45 -200 45 -200 45
4248795682.6138 -3.6796448 9.2182112 -200 45 -200 45 -200 45
4249795799.2999 -3.685868 9.1826315 -200 45 -200 45 -200 45
4250795915.986 -3.6942563 9.1552658 -200 45 -200 45 -200 45
4251796032.6721 -3.7094958 9.131958 -200 45 -200 45 -200 45
4252796149.3582 -3.7238512 9.1086607 -200 45 -200 45 -200 45
4253796266.0443 -3.7314329 9.0885839 -200 45 -200 45 -200 45
4254796382.7305 -3.735908 9.0635748 -200 45 -200 45 -200 45
4255796499.4166 -3.7372077 9.0153427 -200 45 -200 45 -200 45
4256796616.1027 -3.7424431 8.9857931 -200 45 -200 45 -200 45
4257796732.7888 -3.7398946 8.9580631 -200 45 -200 45 -200 45
4258796849.4749 -3.7358327 8.9275398 -200 45 -200 45 -200 45
4259796966.161 -3.7325475 8.8794804 -200 45 -200 45 -200 45
4260797082.8471 -3.7306509 8.8554344 -200 45 -200 45 -200 45
4261797199.5333 -3.7370458 8.8361673 -200 45 -200 45 -200 45
4262797316.2194 -3.7440984 8.7988253 -200 45 -200 45 -200 45
4263797432.9055 -3.7457974 8.7738733 -200 45 -200 45 -200 45
4264797549.5916 -3.7491302 8.720993 -200 45 -200 45 -200 45
4265797666.2777 -3.7539389 8.6919231 -200 45 -200 45 -200 45
4266797782.9638 -3.7648799 8.6566086 -200 45 -200 45 -200 45
4267797899.6499 -3.7837353 8.6416702 -200 45 -200 45 -200 45
4268798016.3361 -3.800808 8.6335077 -200 45 -200 45 -200 45
4269798133.0222 -3.8120074 8.6018152 -200 45 -200 45 -200 45
4270798249.7083 -3.8163397 8.5689363 -200 45 -200 45 -200 45
4271798366.3944 -3.8204467 8.5452089 -200 45 -200 45 -200 45
4272798483.0805 -3.8248417 8.509182 -200 45 -200 45 -200 45
4273798599.7666 -3.8296711 8.4611273 -200 45 -200 45 -200 45
4274798716.4527 -3.8292592 8.4164944 -200 45 -200 45 -200 45
4275798833.1389 -3.8272409 8.3626118 -200 45 -200 45 -200 45
4276798949.825 -3.8321164 8.3279676 -200 45 -200 45 -200 45
4277799066.5111 -3.8425472 8.2964659 -200 45 -200 45 -200 45
4278799183.1972 -3.8565896 8.2520838 -200 45 -200 45 -200 45
4279799299.8833 -3.8606791 8.2037582 -200 45 -200 45 -200 45
4280799416.5694 -3.8702197 8.1598768 -200 45 -200 45 -200 45
4281799533.2555 -3.8840382 8.1024952 -200 45 -200 45 -200 45
4282799649.9417 -3.9042015 8.0702295 -200 45 -200 45 -200 45
4283799766.6278 -3.9309223 8.0396118 -200 45 -200 45 -200 45
4284799883.3139 -3.9619601 8.0024757 -200 45 -200 45 -200 45
4285800000 -3.9842927 7.955585 -200 45 -200 45 -200 45
4286800116.6861 -4.0028853 7.923799 -200 45 -200 45 -200 45
4287800233.3722 -4.0229311 7.8820658 -200 45 -200 45 -200 45
4288800350.0583 -4.0478821 7.8254914 -200 45 -200 45 -200 45
4289800466.7445 -4.0711021 7.8021474 -200 45 -200 45 -200 45
4290800583.4306 -4.093781 7.7795939 -200 45 -200 45 -200 45
4291800700.1167 -4.1201472 7.7583394 -200 45 -200 45 -200 45
4292800816.8028 -4.1559486 7.7960615 -200 45 -200 45 -200 45
4293800933.4889 -4.2015758 7.8573318 -200 45 -200 45 -200 45
4294801050.175 -4.2511897 7.9593492 -200 45 -200 45 -200 45
4295801166.8611 -4.2965646 8.096508 -200 45 -200 45 -200 45
4296801283.5473 -4.3451447 8.324151 -200 45 -200 45 -200 45
4297801400.2334 -4.3976159 8.6410599 -200 45 -200 45 -200 45
4298801516.9195 -4.4465127 9.0319262 -200 45 -200 45 -200 45
4299801633.6056 -4.4920087 9.5140686 -200 45 -200 45 -200 45
4300801750.2917 -4.5244193 10.061036 -200 45 -200 45 -200 45
4301801866.9778 -4.5318446 10.653738 -200 45 -200 45 -200 45
4302801983.6639 -4.511909 11.238567 -200 45 -200 45 -200 45
4303802100.3501 -4.4722667 11.797821 -200 45 -200 45 -200 45
4304802217.0362 -4.4139395 12.253898 -200 45 -200 45 -200 45
4305802333.7223 -4.3389506 12.604646 -200 45 -200 45 -200 45
4306802450.4084 -4.2559299 12.770884 -200 45 -200 45 -200 45
4307802567.0945 -4.1750741 12.820895 -200 45 -200 45 -200 45
4308802683.7806 -4.1095047 12.782023 -200 45 -200 45 -200 45
4309802800.4667 -4.0643373 12.705278 -200 45 -200 45 -200 45
4310802917.1529 -4.0261273 12.586188 -200 45 -200 45 -200 45
4311803033.839 -3.9971061 12.442428 -200 45 -200 45 -200 45
4312803150.5251 -3.9715488 12.341977 -200 45 -200 45 -200 45
4313803267.2112 -3.9587009 12.244344 -200 45 -200 45 -200 45
4314803383.8973 -3.9513226 12.181708 -200 45 -200 45 -200 45
4315803500.5834 -3.9518838 12.146886 -200 45 -200 45 -200 45
4316803617.2695 -3.9517996 12.120168 -200 45 -200 45 -200 45
4317803733.9557 -3.9446278 12.098521 -200 45 -200 45 -200 45
4318803850.6418 -3.9304922 12.059121 -200 45 -200 45 -200 45
4319803967.3279 -3.9192286 12.024275 -200 45 -200 45 -200 45
4320804084.014 -3.9066424 11.991284 -200 45 -200 45 -200 45
4321804200.7001 -3.8937786 11.941404 -200 45 -200 45 -200 45
4322804317.3862 -3.8737998 11.899945 -200 45 -200 45 -200 45
4323804434.0723 -3.857182 11.875527 -200 45 -200 45 -200 45
4324804550.7585 -3.8409033 11.866055 -200 45 -200 45 -200 45
4325804667.4446 -3.8344786 11.862534 -200 45 -200 45 -200 45
4326804784.1307 -3.8252909 11.839502 -200 45 -200 45 -200 45
4327804900.8168 -3.8103769 11.806885 -200 45 -200 45 -200 45
4328805017.5029 -3.7916801 11.785141 -200 45 -200 45 -200 45
4329805134.189 -3.7768257 11.743013 -200 45 -200 45 -200 45
4330805250.8751 -3.7691393 11.708115 -200 45 -200 45 -200 45
4331805367.5613 -3.766278 11.634476 -200 45 -200 45 -200 45
4332805484.2474 -3.7621288 11.557725 -200 45 -200 45 -200 45
4333805600.9335 -3.7541127 11.440511 -200 45 -200 45 -200 45
4334805717.6196 -3.746031 11.328777 -200 45 -200 45 -200 45
4335805834.3057 -3.7403443 11.198974 -200 45 -200 45 -200 45
4336805950.9918 -3.7356517 11.082089 -200 45 -200 45 -200 45
4337806067.6779 -3.7304335 10.965 -200 45 -200 45 -200 45
4338806184.3641 -3.7214527 10.849857 -200 45 -200 45 -200 45
4339806301.0502 -3.7183437 10.732887 -200 45 -200 45 -200 45
4340806417.7363 -3.7157364 10.65275 -200 45 -200 45 -200 45
4341806534.4224 -3.7242348 10.577534 -200 45 -200 45 -200 45
4342806651.1085 -3.7318258 10.494094 -200 45 -200 45 -200 45
4343806767.7946 -3.7329679 10.403583 -200 45 -200 45 -200 45
4344806884.4807 -3.7360375 10.324115 -200 45 -200 45 -200 45
4345807001.1669 -3.7478707 10.269115 -200 45 -200 45 -200 45
4346807117.853 -3.7653472 10.200565 -200 45 -200 45 -200 45
4347807234.5391 -3.7830131 10.142602 -200 45 -200 45 -200 45
4348807351.2252 -3.8053381 10.097231 -200 45 -200 45 -200 45
4349807467.9113 -3.8168638 10.060983 -200 45 -200 45 -200 45
4350807584.5974 -3.8235083 10.000083 -200 45 -200 45 -200 45
4351807701.2835 -3.8335052 9.9450235 -200 45 -200 45 -200 45
4352807817.9697 -3.8423028 9.8931322 -200 45 -200 45 -200 45
4353807934.6558 -3.8544083 9.8621197 -200 45 -200 45 -200 45
4354808051.3419 -3.8570371 9.8197756 -200 45 -200 45 -200 45
4355808168.028 -3.862725 9.7696581 -200 45 -200 45 -200 45
4356808284.7141 -3.8736422 9.7460594 -200 45 -200 45 -200 45
4357808401.4002 -3.8891327 9.7492065 -200 45 -200 45 -200 45
4358808518.0863 -3.9110799 9.7708187 -200 45 -200 45 -200 45
4359808634.7725 -3.9266195 9.7744522 -200 45 -200 45 -200 45
4360808751.4586 -3.9389122 9.8110266 -200 45 -200 45 -200 45
4361808868.1447 -3.9573581 9.8729877 -200 45 -200 45 -200 45
4362808984.8308 -3.9763315 9.9766617 -200 45 -200 45 -200 45
4363809101.5169 -3.9951177 10.074603 -200 45 -200 45 -200 45
4364809218.203 -4.0103931 10.164531 -200 45 -200 45 -200 45
4365809334.8891 -4.0115151 10.226445 -200 45 -200 45 -200 45
4366809451.5753 -4.00351 10.28977 -200 45 -200 45 -200 45
4367809568.2614 -4.0002203 10.30451 -200 45 -200 45 -200 45
4368809684.9475 -3.9960971 10.301428 -200 45 -200 45 -200 45
4369809801.6336 -3.9922211 10.270734 -200 45 -200 45 -200 45
4370809918.3197 -3.9849224 10.227531 -200 45 -200 45 -200 45
4371810035.0058 -3.9800456 10.161959 -200 45 -200 45 -200 45
4372810151.6919 -3.9844058 10.116046 -200 45 -200 45 -200 45
4373810268.3781 -3.9962432 10.063787 -200 45 -200 45 -200 45
4374810385.0642 -4.0114212 10.005347 -200 45 -200 45 -200 45
4375810501.7503 -4.0239491 9.9350224 -200 45 -200 45 -200 45
4376810618.4364 -4.0430536 9.8845778 -200 45 -200 45 -200 45
4377810735.1225 -4.069212 9.8608742 -200 45 -200 45 -200 45
4378810851.8086 -4.1051164 9.8389482 -200 45 -200 45 -200 45
4379810968.4947 -4.1460462 9.8459044 -200 45 -200 45 -200 45
4380811085.1809 -4.190866 9.8810539 -200 45 -200 45 -200 45
4381811201.867 -4.231174 9.9451284 -200 45 -200 45 -200 45
4382811318.5531 -4.2732534 10.03298 -200 45 -200 45 -200 45
4383811435.2392 -4.3148465 10.207991 -200 45 -200 45 -200 45
4384811551.9253 -4.3566365 10.43408 -200 45 -200 45 -200 45
4385811668.6114 -4.3912182 10.738747 -200 45 -200 45 -200 45
4386811785.2976 -4.4140325 11.114244 -200 45 -200 45 -200 45
4387811901.9837 -4.4281964 11.544346 -200 45 -200 45 -200 45
4388812018.6698 -4.4315791 12.037502 -200 45 -200 45 -200 45
4389812135.3559 -4.4261327 12.565856 -200 45 -200 45 -200 45
4390812252.042 -4.3994279 13.023346 -200 45 -200 45 -200 45
4391812368.7281 -4.3586984 13.434665 -200 45 -200 45 -200 45
4392812485.4142 -4.3086133 13.768823 -200 45 -200 45 -200 45
4393812602.1004 -4.2601566 14.010495 -200 45 -200 45 -200 45
4394812718.7865 -4.2128983 14.229285 -200 45 -200 45 -200 45
4395812835.4726 -4.1683722 14.364346 -200 45 -200 45 -200 45
4396812952.1587 -4.1282563 14.427548 -200 45 -200 45 -200 45
4397813068.8448 -4.0787168 14.424096 -200 45 -200 45 -200 45
4398813185.5309 -4.0326777 14.399115 -200 45 -200 45 -200 45
4399813302.217 -3.9923172 14.317183 -200 45 -200 45 -200 45
4400813418.9032 -3.9573946 14.246919 -200 45 -200 45 -200 45
4401813535.5893 -3.9240592 14.120116 -200 45 -200 45 -200 45
4402813652.2754 -3.8900406 14.015851 -200 45 -200 45 -200 45
4403813768.9615 -3.8624692 13.911034 -200 45 -200 45 -200 45
4404813885.6476 -3.8431306 13.821581 -200 45 -200 45 -200 45
4405814002.3337 -3.8277931 13.748368 -200 45 -200 45 -200 45
4406814119.0198 -3.8182275 13.671783 -200 45 -200 45 -200 45
4407814235.706 -3.8029876 13.585651 -200 45 -200 45 -200 45
4408814352.3921 -3.7919419 13.496529 -200 45 -200 45 -200 45
4409814469.0782 -3.7887547 13.443605 -200 45 -200 45 -200 45
4410814585.7643 -3.7934282 13.410054 -200 45 -200 45 -200 45
4411814702.4504 -3.7985458 13.37639 -200 45 -200 45 -200 45
4412814819.1365 -3.7998164 13.336978 -200 45 -200 45 -200 45
4413814935.8226 -3.7955246 13.317829 -200 45 -200 45 -200 45
4414815052.5088 -3.7868347 13.306219 -200 45 -200 45 -200 45
4415815169.1949 -3.7762537 13.28162 -200 45 -200 45 -200 45
4416815285.881 -3.7652299 13.261247 -200 45 -200 45 -200 45
4417815402.5671 -3.7506616 13.242149 -200 45 -200 45 -200 45
4418815519.2532 -3.7262685 13.200293 -200 45 -200 45 -200 45
4419815635.9393 -3.7084205 13.166726 -200 45 -200 45 -200 45
4420815752.6254 -3.6897287 13.123173 -200 45 -200 45 -200 45
4421815869.3116 -3.6815453 13.071547 -200 45 -200 45 -200 45
4422815985.9977 -3.6697447 12.992794 -200 45 -200 45 -200 45
4423816102.6838 -3.6589434 12.895274 -200 45 -200 45 -200 45
4424816219.3699 -3.6510091 12.81453 -200 45 -200 45 -200 45
4425816336.056 -3.6488216 12.72621 -200 45 -200 45 -200 45
4426816452.7421 -3.6544337 12.66755 -200 45 -200 45 -200 45
4427816569.4282 -3.6614621 12.587584 -200 45 -200 45 -200 45
4428816686.1144 -3.671618 12.532858 -200 45 -200 45 -200 45
4429816802.8005 -3.6692519 12.485185 -200 45 -200 45 -200 45
4430816919.4866 -3.6671705 12.429474 -200 45 -200 45 -200 45
4431817036.1727 -3.668345 12.366961 -200 45 -200 45 -200 45
4432817152.8588 -3.6630435 12.318175 -200 45 -200 45 -200 45
4433817269.5449 -3.660429 12.255362 -200 45 -200 45 -200 45
4434817386.231 -3.64801 12.191492 -200 45 -200 45 -200 45
4435817502.9172 -3.6416247 12.149116 -200 45 -200 45 -200 45
4436817619.6033 -3.638247 12.105197 -200 45 -200 45 -200 45
4437817736.2894 -3.6408958 12.080821 -200 45 -200 45 -200 45
4438817852.9755 -3.6421273 12.033888 -200 45 -200 45 -200 45
4439817969.6616 -3.6424823 11.998017 -200 45 -200 45 -200 45
4440818086.3477 -3.6410344 11.963459 -200 45 -200 45 -200 45
4441818203.0338 -3.6446841 11.921128 -200 45 -200 45 -200 45
4442818319.72 -3.6587191 11.901919 -200 45 -200 45 -200 45
4443818436.4061 -3.6673102 11.869187 -200 45 -200 45 -200 45
4444818553.0922 -3.6785045 11.847699 -200 45 -200 45 -200 45
4445818669.7783 -3.6828635 11.829773 -200 45 -200 45 -200 45
4446818786.4644 -3.6831977 11.806363 -200 45 -200 45 -200 45
4447818903.1505 -3.6831853 11.791336 -200 45 -200 45 -200 45
4448819019.8366 -3.6825914 11.766433 -200 45 -200 45 -200 45
4449819136.5228 -3.6761796 11.730804 -200 45 -200 45 -200 45
4450819253.2089 -3.6655984 11.693761 -200 45 -200 45 -200 45
4451819369.895 -3.6583672 11.666873 -200 45 -200 45 -200 45
4452819486.5811 -3.6585593 11.665275 -200 45 -200 45 -200 45
4453819603.2672 -3.6603496 11.663229 -200 45 -200 45 -200 45
4454819719.9533 -3.6647699 11.636948 -200 45 -200 45 -200 45
4455819836.6394 -3.6621532 11.609197 -200 45 -200 45 -200 45
4456819953.3256 -3.6610174 11.585451 -200 45 -200 45 -200 45
4457820070.0117 -3.6663306 11.569441 -200 45 -200 45 -200 45
4458820186.6978 -3.6752491 11.572695 -200 45 -200 45 -200 45
4459820303.3839 -3.6884894 11.540135 -200 45 -200 45 -200 45
4460820420.07 -3.6964614 11.532373 -200 45 -200 45 -200 45
4461820536.7561 -3.7024188 11.530769 -200 45 -200 45 -200 45
4462820653.4422 -3.6997914 11.531476 -200 45 -200 45 -200 45
4463820770.1284 -3.7024636 11.510645 -200 45 -200 45 -200 45
4464820886.8145 -3.7004216 11.498688 -200 45 -200 45 -200 45
4465821003.5006 -3.6949389 11.480943 -200 45 -200 45 -200 45
4466821120.1867 -3.6849043 11.443599 -200 45 -200 45 -200 45
4467821236.8728 -3.680156 11.417564 -200 45 -200 45 -200 45
4468821353.5589 -3.6792994 11.412547 -200 45 -200 45 -200 45
4469821470.245 -3.6818058 11.409418 -200 45 -200 45 -200 45
4470821586.9312 -3.6844556 11.394078 -200 45 -200 45 -200 45
4471821703.6173 -3.6843872 11.376122 -200 45 -200 45 -200 45
4472821820.3034 -3.683516 11.352058 -200 45 -200 45 -200 45
4473821936.9895 -3.6859179 11.362584 -200 45 -200 45 -200 45
4474822053.6756 -3.7008345 11.351681 -200 45 -200 45 -200 45
4475822170.3617 -3.708813 11.344695 -200 45 -200 45 -200 45
4476822287.0478 -3.7194755 11.346103 -200 45 -200 45 -200 45
4477822403.734 -3.7224238 11.335712 -200 45 -200 45 -200 45
4478822520.4201 -3.7253566 11.334327 -200 45 -200 45 -200 45
4479822637.1062 -3.7237067 11.328724 -200 45 -200 45 -200 45
4480822753.7923 -3.7229583 11.318 -200 45 -200 45 -200 45
4481822870.4784 -3.720793 11.29714 -200 45 -200 45 -200 45
4482822987.1645 -3.7106707 11.282642 -200 45 -200 45 -200 45
4483823103.8506 -3.7029047 11.259366 -200 45 -200 45 -200 45
4484823220.5368 -3.7027457 11.26889 -200 45 -200 45 -200 45
4485823337.2229 -3.7071838 11.26487 -200 45 -200 45 -200 45
4486823453.909 -3.7103288 11.261386 -200 45 -200 45 -200 45
4487823570.5951 -3.707211 11.23557 -200 45 -200 45 -200 45
4488823687.2812 -3.707567 11.21131 -200 45 -200 45 -200 45
4489823803.9673 -3.7112536 11.216698 -200 45 -200 45 -200 45
4490823920.6534 -3.7254071 11.218844 -200 45 -200 45 -200 45
4491824037.3396 -3.7350006 11.213763 -200 45 -200 45 -200 45
4492824154.0257 -3.7464933 11.218646 -200 45 -200 45 -200 45
4493824270.7118 -3.748585 11.23199 -200 45 -200 45 -200 45
4494824387.3979 -3.7496846 11.223738 -200 45 -200 45 -200 45
4495824504.084 -3.7488775 11.204514 -200 45 -200 45 -200 45
4496824620.7701 -3.7496586 11.185887 -200 45 -200 45 -200 45
4497824737.4562 -3.7427275 11.188678 -200 45 -200 45 -200 45
4498824854.1424 -3.7331889 11.1674 -200 45 -200 45 -200 45
4499824970.8285 -3.7284899 11.14475 -200 45 -200 45 -200 45
4500825087.5146 -3.7278309 11.162682 -200 45 -200 45 -200 45
4501825204.2007 -3.7321424 11.176814 -200 45 -200 45 -200 45
4502825320.8868 -3.7334163 11.148972 -200 45 -200 45 -200 45
4503825437.5729 -3.7324011 11.136666 -200 45 -200 45 -200 45
4504825554.259 -3.7321928 11.130935 -200 45 -200 45 -200 45
4505825670.9452 -3.7366896 11.110219 -200 45 -200 45 -200 45
4506825787.6313 -3.7477906 11.142238 -200 45 -200 45 -200 45
4507825904.3174 -3.7580483 11.123826 -200 45 -200 45 -200 45
4508826021.0035 -3.7694633 11.133718 -200 45 -200 45 -200 45
4509826137.6896 -3.7729189 11.142799 -200 45 -200 45 -200 45
4510826254.3757 -3.7730262 11.122337 -200 45 -200 45 -200 45
4511826371.0618 -3.7740345 11.121808 -200 45 -200 45 -200 45
4512826487.748 -3.7727785 11.132294 -200 45 -200 45 -200 45
4513826604.4341 -3.7660964 11.089867 -200 45 -200 45 -200 45
4514826721.1202 -3.7566891 11.076415 -200 45 -200 45 -200 45
4515826837.8063 -3.7502325 11.082193 -200 45 -200 45 -200 45
4516826954.4924 -3.7518313 11.092596 -200 45 -200 45 -200 45
4517827071.1785 -3.7545779 11.093648 -200 45 -200 45 -200 45
4518827187.8646 -3.7563534 11.081331 -200 45 -200 45 -200 45
4519827304.5508 -3.7541654 11.07919 -200 45 -200 45 -200 45
4520827421.2369 -3.7530875 11.069855 -200 45 -200 45 -200 45
4521827537.923 -3.7578566 11.058091 -200 45 -200 45 -200 45
4522827654.6091 -3.7714381 11.064112 -200 45 -200 45 -200 45
4523827771.2952 -3.7796829 11.062633 -200 45 -200 45 -200 45
4524827887.9813 -3.7913148 11.076696 -200 45 -200 45 -200 45
4525828004.6674 -3.7917047 11.086162 -200 45 -200 45 -200 45
4526828121.3536 -3.7913299 11.078868 -200 45 -200 45 -200 45
4527828238.0397 -3.7910557 11.060184 -200 45 -200 45 -200 45
4528828354.7258 -3.7902675 11.050912 -200 45 -200 45 -200 45
4529828471.4119 -3.7844958 11.049953 -200 45 -200 45 -200 45
4530828588.098 -3.7742558 11.033438 -200 45 -200 45 -200 45
4531828704.7841 -3.7703457 11.00712 -200 45 -200 45 -200 45
4532828821.4702 -3.7709677 11.024524 -200 45 -200 45 -200 45
4533828938.1564 -3.7741857 11.042588 -200 45 -200 45 -200 45
4534829054.8425 -3.7737439 11.028773 -200 45 -200 45 -200 45
4535829171.5286 -3.7717102 11.025435 -200 45 -200 45 -200 45
4536829288.2147 -3.7742443 11.004002 -200 45 -200 45 -200 45
4537829404.9008 -3.7755101 11.003842 -200 45 -200 45 -200 45
4538829521.5869 -3.7874374 11.028509 -200 45 -200 45 -200 45
4539829638.273 -3.8012681 11.039214 -200 45 -200 45 -200 45
4540829754.9592 -3.8091288 11.025592 -200 45 -200 45 -200 45
4541829871.6453 -3.8124311 11.050875 -200 45 -200 45 -200 45
4542829988.3314 -3.8115067 11.0387 -200 45 -200 45 -200 45
4543830105.0175 -3.8131933 11.038144 -200 45 -200 45 -200 45
4544830221.7036 -3.8093348 11.019702 -200 45 -200 45 -200 45
4545830338.3897 -3.8028724 11.016714 -200 45 -200 45 -200 45
4546830455.0758 -3.7950678 10.98266 -200 45 -200 45 -200 45
4547830571.762 -3.7896399 10.992167 -200 45 -200 45 -200 45
4548830688.4481 -3.7884178 11.001118 -200 45 -200 45 -200 45
4549830805.1342 -3.792685 11.003866 -200 45 -200 45 -200 45
4550830921.8203 -3.7935169 11.015104 -200 45 -200 45 -200 45
4551831038.5064 -3.790493 10.996283 -200 45 -200 45 -200 45
4552831155.1925 -3.7920542 10.984387 -200 45 -200 45 -200 45
4553831271.8786 -3.7951005 10.984382 -200 45 -200 45 -200 45
4554831388.5648 -3.8074198 11.015037 -200 45 -200 45 -200 45
4555831505.2509 -3.8210797 11.005129 -200 45 -200 45 -200 45
4556831621.937 -3.830364 11.01383 -200 45 -200 45 -200 45
4557831738.6231 -3.829792 11.016338 -200 45 -200 45 -200 45
4558831855.3092 -3.8278766 11.014181 -200 45 -200 45 -200 45
4559831971.9953 -3.8292031 11.015548 -200 45 -200 45 -200 45
4560832088.6814 -3.8230743 10.999208 -200 45 -200 45 -200 45
4561832205.3676 -3.818418 11.006261 -200 45 -200 45 -200 45
4562832322.0537 -3.8100455 10.97987 -200 45 -200 45 -200 45
4563832438.7398 -3.8073628 10.980097 -200 45 -200 45 -200 45
4564832555.4259 -3.8064728 10.992674 -200 45 -200 45 -200 45
4565832672.112 -3.8111432 11.006836 -200 45 -200 45 -200 45
4566832788.7981 -3.8098264 10.98812 -200 45 -200 45 -200 45
4567832905.4842 -3.807821 10.987216 -200 45 -200 45 -200 45
4568833022.1704 -3.8071759 10.986086 -200 45 -200 45 -200 45
4569833138.8565 -3.8149211 10.989151 -200 45 -200 45 -200 45
4570833255.5426 -3.8268542 10.985409 -200 45 -200 45 -200 45
4571833372.2287 -3.8363421 11.011011 -200 45 -200 45 -200 45
4572833488.9148 -3.845269 11.020794 -200 45 -200 45 -200 45
4573833605.6009 -3.8470955 11.023107 -200 45 -200 45 -200 45
4574833722.287 -3.847218 11.028635 -200 45 -200 45 -200 45
4575833838.9732 -3.846391 11.022504 -200 45 -200 45 -200 45
4576833955.6593 -3.8461192 11.016412 -200 45 -200 45 -200 45
4577834072.3454 -3.8371072 11.01028 -200 45 -200 45 -200 45
4578834189.0315 -3.8304927 10.993444 -200 45 -200 45 -200 45
4579834305.7176 -3.8233519 10.993845 -200 45 -200 45 -200 45
4580834422.4037 -3.8299224 11.000757 -200 45 -200 45 -200 45
4581834539.0898 -3.8297553 11.030668 -200 45 -200 45 -200 45
4582834655.776 -3.8288121 11.016226 -200 45 -200 45 -200 45
4583834772.4621 -3.8272047 10.995917 -200 45 -200 45 -200 45
4584834889.1482 -3.8268292 11.006849 -200 45 -200 45 -200 45
4585835005.8343 -3.8337307 11.008511 -200 45 -200 45 -200 45
4586835122.5204 -3.8468373 11.024139 -200 45 -200 45 -200 45
4587835239.2065 -3.8596435 11.027774 -200 45 -200 45 -200 45
4588835355.8926 -3.8657379 11.035757 -200 45 -200 45 -200 45
4589835472.5788 -3.864548 11.03436 -200 45 -200 45 -200 45
4590835589.2649 -3.8646047 11.031832 -200 45 -200 45 -200 45
4591835705.951 -3.8645568 11.031805 -200 45 -200 45 -200 45
4592835822.6371 -3.8649859 11.045909 -200 45 -200 45 -200 45
4593835939.3232 -3.8557346 11.018541 -200 45 -200 45 -200 45
4594836056.0093 -3.8480167 11.02025 -200 45 -200 45 -200 45
4595836172.6954 -3.8425305 11.025557 -200 45 -200 45 -200 45
4596836289.3816 -3.8461576 11.028857 -200 45 -200 45 -200 45
4597836406.0677 -3.8503437 11.028303 -200 45 -200 45 -200 45
4598836522.7538 -3.8496432 11.042747 -200 45 -200 45 -200 45
4599836639.4399 -3.8453753 11.008815 -200 45 -200 45 -200 45
4600836756.126 -3.8489676 11.028062 -200 45 -200 45 -200 45
4601836872.8121 -3.8548143 11.028105 -200 45 -200 45 -200 45
4602836989.4983 -3.865936 11.03893 -200 45 -200 45 -200 45
4603837106.1844 -3.878062 11.036735 -200 45 -200 45 -200 45
4604837222.8705 -3.8857083 11.052814 -200 45 -200 45 -200 45
4605837339.5566 -3.8857057 11.055602 -200 45 -200 45 -200 45
4606837456.2427 -3.8886952 11.057315 -200 45 -200 45 -200 45
4607837572.9288 -3.8868628 11.046735 -200 45 -200 45 -200 45
4608837689.6149 -3.8859873 11.040843 -200 45 -200 45 -200 45
4609837806.3011 -3.8780782 11.020333 -200 45 -200 45 -200 45
4610837922.9872 -3.8684309 11.012653 -200 45 -200 45 -200 45
4611838039.6733 -3.8641937 11.008002 -200 45 -200 45 -200 45
4612838156.3594 -3.8656225 11.030086 -200 45 -200 45 -200 45
4613838273.0455 -3.8698132 11.04588 -200 45 -200 45 -200 45
4614838389.7316 -3.8688827 11.032376 -200 45 -200 45 -200 45
4615838506.4177 -3.8658741 11.009932 -200 45 -200 45 -200 45
4616838623.1039 -3.8659639 11.013618 -200 45 -200 45 -200 45
4617838739.79 -3.8726187 11.017462 -200 45 -200 45 -200 45
4618838856.4761 -3.8858061 11.005661 -200 45 -200 45 -200 45
4619838973.1622 -3.8984494 11.027714 -200 45 -200 45 -200 45
4620839089.8483 -3.905694 11.046174 -200 45 -200 45 -200 45
4621839206.5344 -3.9041111 11.05262 -200 45 -200 45 -200 45
4622839323.2205 -3.9060051 11.052641 -200 45 -200 45 -200 45
4623839439.9067 -3.9087577 11.059938 -200 45 -200 45 -200 45
4624839556.5928 -3.9038575 11.055717 -200 45 -200 45 -200 45
4625839673.2789 -3.8962612 11.035595 -200 45 -200 45 -200 45
4626839789.965 -3.888175 11.02284 -200 45 -200 45 -200 45
4627839906.6511 -3.8862276 11.017352 -200 45 -200 45 -200 45
4628840023.3372 -3.8865609 11.034791 -200 45 -200 45 -200 45
4629840140.0233 -3.8888891 11.041924 -200 45 -200 45 -200 45
4630840256.7095 -3.8867006 11.029311 -200 45 -200 45 -200 45
4631840373.3956 -3.8861341 11.012041 -200 45 -200 45 -200 45
4632840490.0817 -3.8880789 11.022536 -200 45 -200 45 -200 45
4633840606.7678 -3.8938248 11.020407 -200 45 -200 45 -200 45
4634840723.4539 -3.9095137 11.026583 -200 45 -200 45 -200 45
4635840840.14 -3.9203584 11.036554 -200 45 -200 45 -200 45
4636840956.8261 -3.9276628 11.035372 -200 45 -200 45 -200 45
4637841073.5123 -3.9262426 11.042171 -200 45 -200 45 -200 45
4638841190.1984 -3.9251747 11.047327 -200 45 -200 45 -200 45
4639841306.8845 -3.9257522 11.057438 -200 45 -200 45 -200 45
4640841423.5706 -3.9229686 11.04197 -200 45 -200 45 -200 45
4641841540.2567 -3.9157805 11.023939 -200 45 -200 45 -200 45
4642841656.9428 -3.9072235 11.000634 -200 45 -200 45 -200 45
4643841773.6289 -3.9030225 11.009561 -200 45 -200 45 -200 45
4644841890.3151 -3.9058602 11.030107 -200 45 -200 45 -200 45
4645842007.0012 -3.9105885 11.046309 -200 45 -200 45 -200 45
4646842123.6873 -3.9058778 11.020391 -200 45 -200 45 -200 45
4647842240.3734 -3.9024928 11.0121 -200 45 -200 45 -200 45
4648842357.0595 -3.9061615 11.016598 -200 45 -200 45 -200 45
4649842473.7456 -3.9122036 11.017867 -200 45 -200 45 -200 45
4650842590.4317 -3.9238212 11.04341 -200 45 -200 45 -200 45
4651842707.1179 -3.9366934 11.046873 -200 45 -200 45 -200 45
4652842823.804 -3.9412129 11.037265 -200 45 -200 45 -200 45
4653842940.4901 -3.9443123 11.045164 -200 45 -200 45 -200 45
4654843057.1762 -3.9423079 11.047546 -200 45 -200 45 -200 45
4655843173.8623 -3.944164 11.042925 -200 45 -200 45 -200 45
4656843290.5484 -3.9385543 11.039036 -200 45 -200 45 -200 45
4657843407.2345 -3.9297409 11.030928 -200 45 -200 45 -200 45
4658843523.9207 -3.9225404 11.007044 -200 45 -200 45 -200 45
4659843640.6068 -3.9203825 11.016046 -200 45 -200 45 -200 45
4660843757.2929 -3.9185076 11.032464 -200 45 -200 45 -200 45
4661843873.979 -3.9238262 11.045683 -200 45 -200 45 -200 45
4662843990.6651 -3.9228013 11.029778 -200 45 -200 45 -200 45
4663844107.3512 -3.9194679 11.016449 -200 45 -200 45 -200 45
4664844224.0373 -3.9227033 11.019713 -200 45 -200 45 -200 45
4665844340.7235 -3.9275882 11.028288 -200 45 -200 45 -200 45
4666844457.4096 -3.9443541 11.029739 -200 45 -200 45 -200 45
4667844574.0957 -3.9563663 11.037874 -200 45 -200 45 -200 45
4668844690.7818 -3.9600182 11.060612 -200 45 -200 45 -200 45
4669844807.4679 -3.9622478 11.063496 -200 45 -200 45 -200 45
4670844924.154 -3.9591048 11.054646 -200 45 -200 45 -200 45
4671845040.8401 -3.9598615 11.051764 -200 45 -200 45 -200 45
4672845157.5263 -3.9556191 11.037634 -200 45 -200 45 -200 45
4673845274.2124 -3.9487751 11.029249 -200 45 -200 45 -200 45
4674845390.8985 -3.9429908 11.023268 -200 45 -200 45 -200 45
4675845507.5846 -3.9368904 11.008658 -200 45 -200 45 -200 45
4676845624.2707 -3.9428399 11.044922 -200 45 -200 45 -200 45
4677845740.9568 -3.9436877 11.041024 -200 45 -200 45 -200 45
4678845857.6429 -3.9407356 11.038913 -200 45 -200 45 -200 45
4679845974.3291 -3.9389839 11.024332 -200 45 -200 45 -200 45
4680846091.0152 -3.9413903 11.037528 -200 45 -200 45 -200 45
4681846207.7013 -3.9493265 11.042846 -200 45 -200 45 -200 45
4682846324.3874 -3.9606347 11.050776 -200 45 -200 45 -200 45
4683846441.0735 -3.9725645 11.059515 -200 45 -200 45 -200 45
4684846557.7596 -3.9787672 11.075446 -200 45 -200 45 -200 45
4685846674.4457 -3.9783936 11.073637 -200 45 -200 45 -200 45
4686846791.1319 -3.9797463 11.069654 -200 45 -200 45 -200 45
4687846907.818 -3.9771359 11.07516 -200 45 -200 45 -200 45
4688847024.5041 -3.9777517 11.054497 -200 45 -200 45 -200 45
4689847141.1902 -3.9671474 11.041025 -200 45 -200 45 -200 45
4690847257.8763 -3.9616218 11.047539 -200 45 -200 45 -200 45
4691847374.5624 -3.9586549 11.042204 -200 45 -200 45 -200 45
4692847491.2485 -3.9597857 11.080956 -200 45 -200 45 -200 45
4693847607.9347 -3.9640367 11.07303 -200 45 -200 45 -200 45
4694847724.6208 -3.9637995 11.067325 -200 45 -200 45 -200 45
4695847841.3069 -3.958858 11.055019 -200 45 -200 45 -200 45
4696847957.993 -3.9641199 11.072467 -200 45 -200 45 -200 45
4697848074.6791 -3.9703348 11.073554 -200 45 -200 45 -200 45
4698848191.3652 -3.9829919 11.06427 -200 45 -200 45 -200 45
4699848308.0513 -3.9951832 11.083902 -200 45 -200 45 -200 45
4700848424.7375 -4.0023227 11.108905 -200 45 -200 45 -200 45
4701848541.4236 -4.002367 11.10593 -200 45 -200 45 -200 45
4702848658.1097 -4.0027723 11.108028 -200 45 -200 45 -200 45
4703848774.7958 -3.9984417 11.107056 -200 45 -200 45 -200 45
4704848891.4819 -3.9984407 11.108749 -200 45 -200 45 -200 45
4705849008.168 -3.9901359 11.102993 -200 45 -200 45 -200 45
4706849124.8541 -3.9847307 11.092506 -200 45 -200 45 -200 45
4707849241.5403 -3.9777436 11.08957 -200 45 -200 45 -200 45
4708849358.2264 -3.9812484 11.116996 -200 45 -200 45 -200 45
4709849474.9125 -3.9826515 11.124532 -200 45 -200 45 -200 45
4710849591.5986 -3.9814029 11.134508 -200 45 -200 45 -200 45
4711849708.2847 -3.9784796 11.10575 -200 45 -200 45 -200 45
4712849824.9708 -3.9846225 11.096799 -200 45 -200 45 -200 45
4713849941.6569 -3.9918029 11.109104 -200 45 -200 45 -200 45
4714850058.3431 -4.0067253 11.137509 -200 45 -200 45 -200 45
4715850175.0292 -4.0182085 11.151855 -200 45 -200 45 -200 45
4716850291.7153 -4.0236316 11.145187 -200 45 -200 45 -200 45
4717850408.4014 -4.0236983 11.137015 -200 45 -200 45 -200 45
4718850525.0875 -4.02213 11.158733 -200 45 -200 45 -200 45
4719850641.7736 -4.0239902 11.145924 -200 45 -200 45 -200 45
4720850758.4597 -4.0197959 11.128024 -200 45 -200 45 -200 45
4721850875.1459 -4.0113778 11.125618 -200 45 -200 45 -200 45
4722850991.832 -4.0068598 11.118411 -200 45 -200 45 -200 45
4723851108.5181 -4.0040507 11.129833 -200 45 -200 45 -200 45
4724851225.2042 -4.0068903 11.149731 -200 45 -200 45 -200 45
4725851341.8903 -4.0100484 11.149295 -200 45 -200 45 -200 45
4726851458.5764 -4.0060892 11.125869 -200 45 -200 45 -200 45
4727851575.2625 -4.0025992 11.109537 -200 45 -200 45 -200 45
4728851691.9487 -4.0080571 11.12676 -200 45 -200 45 -200 45
4729851808.6348 -4.018064 11.130734 -200 45 -200 45 -200 45
4730851925.3209 -4.0299244 11.152514 -200 45 -200 45 -200 45
4731852042.007 -4.0409365 11.147119 -200 45 -200 45 -200 45
4732852158.6931 -4.0465393 11.159434 -200 45 -200 45 -200 45
4733852275.3792 -4.0467057 11.15509 -200 45 -200 45 -200 45
4734852392.0653 -4.0463285 11.149774 -200 45 -200 45 -200 45
4735852508.7515 -4.0459375 11.157456 -200 45 -200 45 -200 45
4736852625.4376 -4.0425677 11.160007 -200 45 -200 45 -200 45
4737852742.1237 -4.0352488 11.139474 -200 45 -200 45 -200 45
4738852858.8098 -4.0296383 11.134492 -200 45 -200 45 -200 45
4739852975.4959 -4.0249071 11.146461 -200 45 -200 45 -200 45
4740853092.182 -4.0278172 11.156836 -200 45 -200 45 -200 45
4741853208.8681 -4.0301156 11.1543 -200 45 -200 45 -200 45
4742853325.5543 -4.0293136 11.141076 -200 45 -200 45 -200 45
4743853442.2404 -4.0279803 11.124135 -200 45 -200 45 -200 45
4744853558.9265 -4.0334387 11.133367 -200 45 -200 45 -200 45
4745853675.6126 -4.0430875 11.148382 -200 45 -200 45 -200 45
4746853792.2987 -4.055831 11.149089 -200 45 -200 45 -200 45
4747853908.9848 -4.0666213 11.160938 -200 45 -200 45 -200 45
4748854025.6709 -4.0701833 11.160314 -200 45 -200 45 -200 45
4749854142.3571 -4.0714965 11.150171 -200 45 -200 45 -200 45
4750854259.0432 -4.0707836 11.166423 -200 45 -200 45 -200 45
4751854375.7293 -4.0706897 11.151381 -200 45 -200 45 -200 45
4752854492.4154 -4.069221 11.144832 -200 45 -200 45 -200 45
4753854609.1015 -4.0616231 11.13657 -200 45 -200 45 -200 45
4754854725.7876 -4.0572343 11.130187 -200 45 -200 45 -200 45
4755854842.4737 -4.0534506 11.137827 -200 45 -200 45 -200 45
4756854959.1599 -4.0579772 11.137351 -200 45 -200 45 -200 45
4757855075.846 -4.0597925 11.155836 -200 45 -200 45 -200 45
4758855192.5321 -4.0589781 11.130139 -200 45 -200 45 -200 45
4759855309.2182 -4.0584402 11.125487 -200 45 -200 45 -200 45
4760855425.9043 -4.0630932 11.137287 -200 45 -200 45 -200 45
4761855542.5904 -4.0735221 11.155016 -200 45 -200 45 -200 45
4762855659.2765 -4.0875278 11.159767 -200 45 -200 45 -200 45
4763855775.9627 -4.0994921 11.175001 -200 45 -200 45 -200 45
4764855892.6488 -4.1026511 11.17652 -200 45 -200 45 -200 45
4765856009.3349 -4.1032972 11.189048 -200 45 -200 45 -200 45
4766856126.021 -4.1026092 11.183011 -200 45 -200 45 -200 45
4767856242.7071 -4.1019964 11.201023 -200 45 -200 45 -200 45
4768856359.3932 -4.1019258 11.201738 -200 45 -200 45 -200 45
4769856476.0793 -4.0923219 11.192908 -200 45 -200 45 -200 45
4770856592.7655 -4.0859218 11.201677 -200 45 -200 45 -200 45
4771856709.4516 -4.0831199 11.204935 -200 45 -200 45 -200 45
4772856826.1377 -4.084496 11.228579 -200 45 -200 45 -200 45
4773856942.8238 -4.086587 11.220772 -200 45 -200 45 -200 45
4774857059.5099 -4.086412 11.204957 -200 45 -200 45 -200 45
4775857176.196 -4.0832458 11.216166 -200 45 -200 45 -200 45
4776857292.8821 -4.0868559 11.234408 -200 45 -200 45 -200 45
4777857409.5683 -4.0983047 11.243377 -200 45 -200 45 -200 45
4778857526.2544 -4.1067719 11.241857 -200 45 -200 45 -200 45
4779857642.9405 -4.119513 11.254775 -200 45 -200 45 -200 45
4780857759.6266 -4.122539 11.263171 -200 45 -200 45 -200 45
4781857876.3127 -4.1225829 11.264059 -200 45 -200 45 -200 45
4782857992.9988 -4.1212759 11.270981 -200 45 -200 45 -200 45
4783858109.6849 -4.1226382 11.253648 -200 45 -200 45 -200 45
4784858226.3711 -4.1194673 11.260865 -200 45 -200 45 -200 45
4785858343.0572 -4.1101346 11.247066 -200 45 -200 45 -200 45
4786858459.7433 -4.1026578 11.225713 -200 45 -200 45 -200 45
4787858576.4294 -4.099268 11.229775 -200 45 -200 45 -200 45
4788858693.1155 -4.1002431 11.249177 -200 45 -200 45 -200 45
4789858809.8016 -4.1046276 11.239108 -200 45 -200 45 -200 45
4790858926.4877 -4.1041775 11.239182 -200 45 -200 45 -200 45
4791859043.1739 -4.1023855 11.222159 -200 45 -200 45 -200 45
4792859159.86 -4.1044378 11.226547 -200 45 -200 45 -200 45
4793859276.5461 -4.1168933 11.238679 -200 45 -200 45 -200 45
4794859393.2322 -4.1269994 11.238639 -200 45 -200 45 -200 45
4795859509.9183 -4.139317 11.247189 -200 45 -200 45 -200 45
4796859626.6044 -4.1440053 11.2554 -200 45 -200 45 -200 45
4797859743.2905 -4.1432309 11.257022 -200 45 -200 45 -200 45
4798859859.9767 -4.1458411 11.265964 -200 45 -200 45 -200 45
4799859976.6628 -4.1460938 11.263692 -200 45 -200 45 -200 45
4800860093.3489 -4.1442165 11.259405 -200 45 -200 45 -200 45
4801860210.035 -4.1350241 11.244822 -200 45 -200 45 -200 45
4802860326.7211 -4.1321483 11.246964 -200 45 -200 45 -200 45
4803860443.4072 -4.1294508 11.247048 -200 45 -200 45 -200 45
4804860560.0933 -4.1354065 11.266812 -200 45 -200 45 -200 45
4805860676.7795 -4.1387038 11.271452 -200 45 -200 45 -200 45
4806860793.4656 -4.140348 11.262458 -200 45 -200 45 -200 45
4807860910.1517 -4.1398664 11.260602 -200 45 -200 45 -200 45
4808861026.8378 -4.147727 11.269553 -200 45 -200 45 -200 45
4809861143.5239 -4.1593823 11.292556 -200 45 -200 45 -200 45
4810861260.21 -4.1719179 11.294451 -200 45 -200 45 -200 45
4811861376.8961 -4.1829123 11.336864 -200 45 -200 45 -200 45
4812861493.5823 -4.1925559 11.336287 -200 45 -200 45 -200 45
4813861610.2684 -4.1929779 11.364403 -200 45 -200 45 -200 45
4814861726.9545 -4.1931567 11.384814 -200 45 -200 45 -200 45
4815861843.6406 -4.1966491 11.402228 -200 45 -200 45 -200 45
4816861960.3267 -4.1938753 11.425114 -200 45 -200 45 -200 45
4817862077.0128 -4.1839285 11.417184 -200 45 -200 45 -200 45
4818862193.6989 -4.176764 11.439892 -200 45 -200 45 -200 45
4819862310.3851 -4.1729913 11.480947 -200 45 -200 45 -200 45
4820862427.0712 -4.1781392 11.514674 -200 45 -200 45 -200 45
4821862543.7573 -4.180171 11.525286 -200 45 -200 45 -200 45
4822862660.4434 -4.1757431 11.547237 -200 45 -200 45 -200 45
4823862777.1295 -4.1730027 11.554168 -200 45 -200 45 -200 45
4824862893.8156 -4.1769466 11.577097 -200 45 -200 45 -200 45
4825863010.5018 -4.1844912 11.587171 -200 45 -200 45 -200 45
4826863127.1879 -4.1950068 11.598577 -200 45 -200 45 -200 45
4827863243.874 -4.2029533 11.62595 -200 45 -200 45 -200 45
4828863360.5601 -4.2034755 11.633415 -200 45 -200 45 -200 45
4829863477.2462 -4.2027354 11.644606 -200 45 -200 45 -200 45
4830863593.9323 -4.2028704 11.651048 -200 45 -200 45 -200 45
4831863710.6184 -4.1976428 11.63291 -200 45 -200 45 -200 45
4832863827.3046 -4.1959448 11.609597 -200 45 -200 45 -200 45
4833863943.9907 -4.1883583 11.592117 -200 45 -200 45 -200 45
4834864060.6768 -4.1785979 11.576769 -200 45 -200 45 -200 45
4835864177.3629 -4.1788292 11.587459 -200 45 -200 45 -200 45
4836864294.049 -4.1823235 11.607394 -200 45 -200 45 -200 45
4837864410.7351 -4.1835833 11.584314 -200 45 -200 45 -200 45
4838864527.4212 -4.1872168 11.571152 -200 45 -200 45 -200 45
4839864644.1074 -4.1870718 11.565142 -200 45 -200 45 -200 45
4840864760.7935 -4.193903 11.555075 -200 45 -200 45 -200 45
4841864877.4796 -4.2083459 11.56468 -200 45 -200 45 -200 45
4842864994.1657 -4.2218785 11.568258 -200 45 -200 45 -200 45
4843865110.8518 -4.2316022 11.574625 -200 45 -200 45 -200 45
4844865227.5379 -4.2406144 11.585907 -200 45 -200 45 -200 45
4845865344.224 -4.2446017 11.586797 -200 45 -200 45 -200 45
4846865460.9102 -4.2473521 11.614351 -200 45 -200 45 -200 45
4847865577.5963 -4.249279 11.622663 -200 45 -200 45 -200 45
4848865694.2824 -4.2494969 11.633969 -200 45 -200 45 -200 45
4849865810.9685 -4.2444181 11.635713 -200 45 -200 45 -200 45
4850865927.6546 -4.2407742 11.669188 -200 45 -200 45 -200 45
4851866044.3407 -4.2446094 11.700485 -200 45 -200 45 -200 45
4852866161.0268 -4.2518129 11.766852 -200 45 -200 45 -200 45
4853866277.713 -4.2559319 11.788577 -200 45 -200 45 -200 45
4854866394.3991 -4.2579956 11.856286 -200 45 -200 45 -200 45
4855866511.0852 -4.2574506 11.891964 -200 45 -200 45 -200 45
4856866627.7713 -4.2589869 11.94245 -200 45 -200 45 -200 45
4857866744.4574 -4.2717419 12.018167 -200 45 -200 45 -200 45
4858866861.1435 -4.277391 12.07498 -200 45 -200 45 -200 45
4859866977.8296 -4.2842827 12.124583 -200 45 -200 45 -200 45
4860867094.5158 -4.280427 12.162271 -200 45 -200 45 -200 45
4861867211.2019 -4.2744675 12.207197 -200 45 -200 45 -200 45
4862867327.888 -4.269218 12.241388 -200 45 -200 45 -200 45
4863867444.5741 -4.2613635 12.256516 -200 45 -200 45 -200 45
4864867561.2602 -4.2485805 12.248293 -200 45 -200 45 -200 45
4865867677.9463 -4.2323532 12.261731 -200 45 -200 45 -200 45
4866867794.6324 -4.2228308 12.271728 -200 45 -200 45 -200 45
4867867911.3186 -4.2153096 12.287353 -200 45 -200 45 -200 45
4868868028.0047 -4.2132835 12.28235 -200 45 -200 45 -200 45
4869868144.6908 -4.2074246 12.273158 -200 45 -200 45 -200 45
4870868261.3769 -4.2022181 12.25835 -200 45 -200 45 -200 45
4871868378.063 -4.1988273 12.253712 -200 45 -200 45 -200 45
4872868494.7491 -4.1974926 12.252232 -200 45 -200 45 -200 45
4873868611.4352 -4.2087989 12.244412 -200 45 -200 45 -200 45
4874868728.1214 -4.2153111 12.233931 -200 45 -200 45 -200 45
4875868844.8075 -4.2222848 12.25771 -200 45 -200 45 -200 45
4876868961.4936 -4.2217278 12.257157 -200 45 -200 45 -200 45
4877869078.1797 -4.218102 12.221815 -200 45 -200 45 -200 45
4878869194.8658 -4.217248 12.218137 -200 45 -200 45 -200 45
4879869311.5519 -4.2107224 12.194634 -200 45 -200 45 -200 45
4880869428.238 -4.2025285 12.186457 -200 45 -200 45 -200 45
4881869544.9242 -4.1929321 12.159035 -200 45 -200 45 -200 45
4882869661.6103 -4.1842551 12.140845 -200 45 -200 45 -200 45
4883869778.2964 -4.1818671 12.140195 -200 45 -200 45 -200 45
4884869894.9825 -4.1825557 12.149995 -200 45 -200 45 -200 45
4885870011.6686 -4.1814027 12.11867 -200 45 -200 45 -200 45
4886870128.3547 -4.1807342 12.115077 -200 45 -200 45 -200 45
4887870245.0408 -4.1762967 12.084188 -200 45 -200 45 -200 45
4888870361.727 -4.1811767 12.083109 -200 45 -200 45 -200 45
4889870478.4131 -4.193284 12.083663 -200 45 -200 45 -200 45
4890870595.0992 -4.2005639 12.062586 -200 45 -200 45 -200 45
4891870711.7853 -4.2108688 12.068098 -200 45 -200 45 -200 45
4892870828.4714 -4.2118478 12.052655 -200 45 -200 45 -200 45
4893870945.1575 -4.2137051 12.052308 -200 45 -200 45 -200 45
4894871061.8436 -4.2123632 12.031275 -200 45 -200 45 -200 45
4895871178.5298 -4.2105069 12.001509 -200 45 -200 45 -200 45
4896871295.2159 -4.2039299 12.001756 -200 45 -200 45 -200 45
4897871411.902 -4.1974502 11.975226 -200 45 -200 45 -200 45
4898871528.5881 -4.1916609 11.962449 -200 45 -200 45 -200 45
4899871645.2742 -4.1946292 11.957733 -200 45 -200 45 -200 45
4900871761.9603 -4.1980133 11.967198 -200 45 -200 45 -200 45
4901871878.6464 -4.1999359 11.97116 -200 45 -200 45 -200 45
4902871995.3326 -4.1986876 11.940699 -200 45 -200 45 -200 45
4903872112.0187 -4.2009516 11.933037 -200 45 -200 45 -200 45
4904872228.7048 -4.2062569 11.94043 -200 45 -200 45 -200 45
4905872345.3909 -4.2186046 11.952403 -200 45 -200 45 -200 45
4906872462.077 -4.2304831 11.962687 -200 45 -200 45 -200 45
4907872578.7631 -4.2419739 11.997788 -200 45 -200 45 -200 45
4908872695.4492 -4.2407541 11.998769 -200 45 -200 45 -200 45
4909872812.1354 -4.2399092 12.01685 -200 45 -200 45 -200 45
4910872928.8215 -4.240756 12.023869 -200 45 -200 45 -200 45
4911873045.5076 -4.2343612 12.041439 -200 45 -200 45 -200 45
4912873162.1937 -4.2299781 12.033819 -200 45 -200 45 -200 45
4913873278.8798 -4.2186732 12.029671 -200 45 -200 45 -200 45
4914873395.5659 -4.2099261 12.022618 -200 45 -200 45 -200 45
4915873512.252 -4.2066789 12.054068 -200 45 -200 45 -200 45
4916873628.9382 -4.2076344 12.052412 -200 45 -200 45 -200 45
4917873745.6243 -4.2081718 12.038325 -200 45 -200 45 -200 45
4918873862.3104 -4.2059841 12.037236 -200 45 -200 45 -200 45
4919873978.9965 -4.2048655 12.034377 -200 45 -200 45 -200 45
4920874095.6826 -4.2085705 12.029286 -200 45 -200 45 -200 45
4921874212.3687 -4.2223253 12.022182 -200 45 -200 45 -200 45
4922874329.0548 -4.2293296 12.036457 -200 45 -200 45 -200 45
4923874445.741 -4.2386227 12.033509 -200 45 -200 45 -200 45
4924874562.4271 -4.239255 12.021678 -200 45 -200 45 -200 45
4925874679.1132 -4.2397518 12.032683 -200 45 -200 45 -200 45
4926874795.7993 -4.2388964 12.031449 -200 45 -200 45 -200 45
4927874912.4854 -4.2360878 12.008174 -200 45 -200 45 -200 45
4928875029.1715 -4.2309504 11.997007 -200 45 -200 45 -200 45
4929875145.8576 -4.2230501 11.985624 -200 45 -200 45 -200 45
4930875262.5438 -4.217423 11.986223 -200 45 -200 45 -200 45
4931875379.2299 -4.2121367 11.985833 -200 45 -200 45 -200 45
4932875495.916 -4.217639 11.98339 -200 45 -200 45 -200 45
4933875612.6021 -4.2182274 11.973604 -200 45 -200 45 -200 45
4934875729.2882 -4.2149706 11.978018 -200 45 -200 45 -200 45
4935875845.9743 -4.2164502 11.975756 -200 45 -200 45 -200 45
4936875962.6604 -4.2212658 11.964985 -200 45 -200 45 -200 45
4937876079.3466 -4.2343154 11.976253 -200 45 -200 45 -200 45
4938876196.0327 -4.2444801 11.963153 -200 45 -200 45 -200 45
4939876312.7188 -4.2542176 11.954741 -200 45 -200 45 -200 45
4940876429.4049 -4.254776 11.962985 -200 45 -200 45 -200 45
4941876546.091 -4.2560863 11.969089 -200 45 -200 45 -200 45
4942876662.7771 -4.2543206 11.960188 -200 45 -200 45 -200 45
4943876779.4632 -4.2531924 11.9305 -200 45 -200 45 -200 45
4944876896.1494 -4.24792 11.936854 -200 45 -200 45 -200 45
4945877012.8355 -4.2391987 11.912505 -200 45 -200 45 -200 45
4946877129.5216 -4.2373319 11.895995 -200 45 -200 45 -200 45
4947877246.2077 -4.2366037 11.903369 -200 45 -200 45 -200 45
4948877362.8938 -4.2410073 11.915849 -200 45 -200 45 -200 45
4949877479.5799 -4.237524 11.904505 -200 45 -200 45 -200 45
4950877596.266 -4.23668 11.897852 -200 45 -200 45 -200 45
4951877712.9522 -4.2376447 11.913042 -200 45 -200 45 -200 45
4952877829.6383 -4.2442775 11.901064 -200 45 -200 45 -200 45
4953877946.3244 -4.259233 11.903891 -200 45 -200 45 -200 45
4954878063.0105 -4.2709155 11.893643 -200 45 -200 45 -200 45
4955878179.6966 -4.2791853 11.891874 -200 45 -200 45 -200 45
4956878296.3827 -4.2794628 11.910124 -200 45 -200 45 -200 45
4957878413.0688 -4.2804561 11.899378 -200 45 -200 45 -200 45
4958878529.755 -4.2802224 11.895946 -200 45 -200 45 -200 45
4959878646.4411 -4.2817168 11.896643 -200 45 -200 45 -200 45
4960878763.1272 -4.2732863 11.86527 -200 45 -200 45 -200 45
4961878879.8133 -4.2648849 11.855732 -200 45 -200 45 -200 45
4962878996.4994 -4.2596102 11.864043 -200 45 -200 45 -200 45
4963879113.1855 -4.2621336 11.855605 -200 45 -200 45 -200 45
4964879229.8716 -4.2629576 11.857627 -200 45 -200 45 -200 45
4965879346.5578 -4.2661223 11.861091 -200 45 -200 45 -200 45
4966879463.2439 -4.2643576 11.8457 -200 45 -200 45 -200 45
4967879579.93 -4.2680435 11.852338 -200 45 -200 45 -200 45
4968879696.6161 -4.2744236 11.859472 -200 45 -200 45 -200 45
4969879813.3022 -4.2864575 11.850008 -200 45 -200 45 -200 45
4970879929.9883 -4.2958145 11.86119 -200 45 -200 45 -200 45
4971880046.6744 -4.3039665 11.845953 -200 45 -200 45 -200 45
4972880163.3606 -4.3054209 11.850953 -200 45 -200 45 -200 45
4973880280.0467 -4.3067951 11.858232 -200 45 -200 45 -200 45
4974880396.7328 -4.3071451 11.861294 -200 45 -200 45 -200 45
4975880513.4189 -4.3076234 11.828645 -200 45 -200 45 -200 45
4976880630.105 -4.2989669 11.827937 -200 45 -200 45 -200 45
4977880746.7911 -4.2933578 11.809886 -200 45 -200 45 -200 45
4978880863.4772 -4.2876472 11.814578 -200 45 -200 45 -200 45
4979880980.1634 -4.287179 11.80006 -200 45 -200 45 -200 45
4980881096.8495 -4.2938676 11.826015 -200 45 -200 45 -200 45
4981881213.5356 -4.2936234 11.815216 -200 45 -200 45 -200 45
4982881330.2217 -4.2919626 11.793391 -200 45 -200 45 -200 45
4983881446.9078 -4.2966981 11.807677 -200 45 -200 45 -200 45
4984881563.5939 -4.3032184 11.795138 -200 45 -200 45 -200 45
4985881680.28 -4.3165092 11.804527 -200 45 -200 45 -200 45
4986881796.9662 -4.3264074 11.787951 -200 45 -200 45 -200 45
4987881913.6523 -4.3340187 11.784753 -200 45 -200 45 -200 45
4988882030.3384 -4.3358603 11.784126 -200 45 -200 45 -200 45
4989882147.0245 -4.3350039 11.791151 -200 45 -200 45 -200 45
4990882263.7106 -4.3384309 11.795224 -200 45 -200 45 -200 45
4991882380.3967 -4.3355985 11.777894 -200 45 -200 45 -200 45
4992882497.0828 -4.3298798 11.775468 -200 45 -200 45 -200 45
4993882613.769 -4.3200684 11.747308 -200 45 -200 45 -200 45
4994882730.4551 -4.316524 11.740203 -200 45 -200 45 -200 45
4995882847.1412 -4.3178782 11.744986 -200 45 -200 45 -200 45
4996882963.8273 -4.322638 11.740454 -200 45 -200 45 -200 45
4997883080.5134 -4.3210893 11.755157 -200 45 -200 45 -200 45
4998883197.1995 -4.3230157 11.738125 -200 45 -200 45 -200 45
4999883313.8856 -4.3271012 11.72051 -200 45 -200 45 -200 45
5000883430.5718 -4.3388648 11.731076 -200 45 -200 45 -200 45
5001883547.2579 -4.3492908 11.71727 -200 45 -200 45 -200 45
5002883663.944 -4.3582344 11.732188 -200 45 -200 45 -200 45
5003883780.6301 -4.3642874 11.730746 -200 45 -200 45 -200 45
5004883897.3162 -4.36446 11.725485 -200 45 -200 45 -200 45
5005884014.0023 -4.3645067 11.723733 -200 45 -200 45 -200 45
5006884130.6884 -4.3643861 11.715836 -200 45 -200 45 -200 45
5007884247.3746 -4.3585219 11.700028 -200 45 -200 45 -200 45
5008884364.0607 -4.3493166 11.668454 -200 45 -200 45 -200 45
5009884480.7468 -4.3433919 11.669965 -200 45 -200 45 -200 45
5010884597.4329 -4.3464828 11.677162 -200 45 -200 45 -200 45
5011884714.119 -4.3498631 11.686682 -200 45 -200 45 -200 45
5012884830.8051 -4.353169 11.668661 -200 45 -200 45 -200 45
5013884947.4912 -4.3526049 11.670744 -200 45 -200 45 -200 45
5014885064.1774 -4.3525143 11.660245 -200 45 -200 45 -200 45
5015885180.8635 -4.355669 11.661781 -200 45 -200 45 -200 45
5016885297.5496 -4.3700857 11.64487 -200 45 -200 45 -200 45
5017885414.2357 -4.3809805 11.646547 -200 45 -200 45 -200 45
5018885530.9218 -4.3909636 11.668249 -200 45 -200 45 -200 45
5019885647.6079 -4.3940768 11.655203 -200 45 -200 45 -200 45
5020885764.294 -4.3937469 11.668966 -200 45 -200 45 -200 45
5021885880.9802 -4.3931894 11.671339 -200 45 -200 45 -200 45
5022885997.6663 -4.3920159 11.633716 -200 45 -200 45 -200 45
5023886114.3524 -4.3853288 11.634441 -200 45 -200 45 -200 45
5024886231.0385 -4.3748999 11.609412 -200 45 -200 45 -200 45
5025886347.7246 -4.3728294 11.612205 -200 45 -200 45 -200 45
5026886464.4107 -4.3761616 11.621531 -200 45 -200 45 -200 45
5027886581.0968 -4.3814344 11.630713 -200 45 -200 45 -200 45
5028886697.783 -4.380506 11.632692 -200 45 -200 45 -200 45
5029886814.4691 -4.3793244 11.610836 -200 45 -200 45 -200 45
5030886931.1552 -4.3803992 11.593316 -200 45 -200 45 -200 45
5031887047.8413 -4.3898554 11.600559 -200 45 -200 45 -200 45
5032887164.5274 -4.4022307 11.600001 -200 45 -200 45 -200 45
5033887281.2135 -4.4178567 11.587493 -200 45 -200 45 -200 45
5034887397.8997 -4.423893 11.619794 -200 45 -200 45 -200 45
5035887514.5858 -4.4240136 11.615277 -200 45 -200 45 -200 45
5036887631.2719 -4.4259305 11.6122 -200 45 -200 45 -200 45
5037887747.958 -4.4244709 11.604829 -200 45 -200 45 -200 45
5038887864.6441 -4.4213676 11.583255 -200 45 -200 45 -200 45
5039887981.3302 -4.4144588 11.573955 -200 45 -200 45 -200 45
5040888098.0163 -4.4097948 11.556224 -200 45 -200 45 -200 45
5041888214.7025 -4.4078598 11.551495 -200 45 -200 45 -200 45
5042888331.3886 -4.4119654 11.567605 -200 45 -200 45 -200 45
5043888448.0747 -4.4151177 11.569635 -200 45 -200 45 -200 45
5044888564.7608 -4.4122658 11.558882 -200 45 -200 45 -200 45
5045888681.4469 -4.4139123 11.517434 -200 45 -200 45 -200 45
5046888798.133 -4.418643 11.528676 -200 45 -200 45 -200 45
5047888914.8191 -4.4276628 11.53225 -200 45 -200 45 -200 45
5048889031.5053 -4.4415436 11.533434 -200 45 -200 45 -200 45
5049889148.1914 -4.4545655 11.54393 -200 45 -200 45 -200 45
5050889264.8775 -4.4593649 11.534912 -200 45 -200 45 -200 45
5051889381.5636 -4.4602361 11.535767 -200 45 -200 45 -200 45
5052889498.2497 -4.4614305 11.544882 -200 45 -200 45 -200 45
5053889614.9358 -4.4633098 11.527483 -200 45 -200 45 -200 45
5054889731.6219 -4.4603786 11.506215 -200 45 -200 45 -200 45
5055889848.3081 -4.4509377 11.485 -200 45 -200 45 -200 45
5056889964.9942 -4.4450321 11.473538 -200 45 -200 45 -200 45
5057890081.6803 -4.4484301 11.480392 -200 45 -200 45 -200 45
5058890198.3664 -4.4506583 11.505362 -200 45 -200 45 -200 45
5059890315.0525 -4.4554863 11.490807 -200 45 -200 45 -200 45
5060890431.7386 -4.4547305 11.489242 -200 45 -200 45 -200 45
5061890548.4247 -4.4567285 11.454959 -200 45 -200 45 -200 45
5062890665.1109 -4.4618564 11.455413 -200 45 -200 45 -200 45
5063890781.797 -4.4740605 11.479575 -200 45 -200 45 -200 45
5064890898.4831 -4.4938731 11.459357 -200 45 -200 45 -200 45
5065891015.1692 -4.502214 11.463472 -200 45 -200 45 -200 45
5066891131.8553 -4.506238 11.456987 -200 45 -200 45 -200 45
5067891248.5414 -4.5072403 11.466632 -200 45 -200 45 -200 45
5068891365.2275 -4.5100999 11.440608 -200 45 -200 45 -200 45
5069891481.9137 -4.5066934 11.432877 -200 45 -200 45 -200 45
5070891598.5998 -4.5054684 11.411218 -200 45 -200 45 -200 45
5071891715.2859 -4.4985609 11.380295 -200 45 -200 45 -200 45
5072891831.972 -4.4979887 11.398058 -200 45 -200 45 -200 45
5073891948.6581 -4.5009913 11.402395 -200 45 -200 45 -200 45
5074892065.3442 -4.5054412 11.397456 -200 45 -200 45 -200 45
5075892182.0303 -4.5096922 11.386281 -200 45 -200 45 -200 45
5076892298.7165 -4.507298 11.372006 -200 45 -200 45 -200 45
5077892415.4026 -4.5102973 11.359099 -200 45 -200 45 -200 45
5078892532.0887 -4.5159221 11.360126 -200 45 -200 45 -200 45
5079892648.7748 -4.5341907 11.383223 -200 45 -200 45 -200 45
5080892765.4609 -4.5481529 11.370053 -200 45 -200 45 -200 45
5081892882.147 -4.5566721 11.38034 -200 45 -200 45 -200 45
5082892998.8331 -4.5592656 11.370993 -200 45 -200 45 -200 45
5083893115.5193 -4.5612302 11.360845 -200 45 -200 45 -200 45
5084893232.2054 -4.5612593 11.345305 -200 45 -200 45 -200 45
5085893348.8915 -4.5603547 11.322492 -200 45 -200 45 -200 45
5086893465.5776 -4.5552044 11.309138 -200 45 -200 45 -200 45
5087893582.2637 -4.5502162 11.275759 -200 45 -200 45 -200 45
5088893698.9498 -4.5501046 11.266659 -200 45 -200 45 -200 45
5089893815.6359 -4.5541844 11.267279 -200 45 -200 45 -200 45
5090893932.3221 -4.557683 11.2819 -200 45 -200 45 -200 45
5091894049.0082 -4.5605903 11.233141 -200 45 -200 45 -200 45
5092894165.6943 -4.5625505 11.207761 -200 45 -200 45 -200 45
5093894282.3804 -4.5652914 11.199765 -200 45 -200 45 -200 45
5094894399.0665 -4.5776043 11.198511 -200 45 -200 45 -200 45
5095894515.7526 -4.5926981 11.1806 -200 45 -200 45 -200 45
5096894632.4387 -4.6091208 11.172803 -200 45 -200 45 -200 45
5097894749.1249 -4.619215 11.164845 -200 45 -200 45 -200 45
5098894865.811 -4.6228199 11.157775 -200 45 -200 45 -200 45
5099894982.4971 -4.6227813 11.125997 -200 45 -200 45 -200 45
5100895099.1832 -4.6263037 11.113729 -200 45 -200 45 -200 45
5101895215.8693 -4.6235738 11.075852 -200 45 -200 45 -200 45
5102895332.5554 -4.6235905 11.059419 -200 45 -200 45 -200 45
5103895449.2415 -4.6213422 11.02322 -200 45 -200 45 -200 45
5104895565.9277 -4.6207509 11.024868 -200 45 -200 45 -200 45
5105895682.6138 -4.6290383 10.999071 -200 45 -200 45 -200 45
5106895799.2999 -4.6349211 10.999647 -200 45 -200 45 -200 45
5107895915.986 -4.6372991 10.982943 -200 45 -200 45 -200 45
5108896032.6721 -4.6400156 10.950382 -200 45 -200 45 -200 45
5109896149.3582 -4.6479731 10.911717 -200 45 -200 45 -200 45
5110896266.0443 -4.6664557 10.905063 -200 45 -200 45 -200 45
5111896382.7305 -4.6823807 10.882944 -200 45 -200 45 -200 45
5112896499.4166 -4.7006578 10.853846 -200 45 -200 45 -200 45
5113896616.1027 -4.7076712 10.839315 -200 45 -200 45 -200 45
5114896732.7888 -4.7130857 10.821136 -200 45 -200 45 -200 45
5115896849.4749 -4.7188244 10.780144 -200 45 -200 45 -200 45
5116896966.161 -4.7246017 10.747475 -200 45 -200 45 -200 45
5117897082.8471 -4.7267013 10.703164 -200 45 -200 45 -200 45
5118897199.5333 -4.7270541 10.679179 -200 45 -200 45 -200 45
5119897316.2194 -4.7292328 10.65475 -200 45 -200 45 -200 45
5120897432.9055 -4.7359986 10.626103 -200 45 -200 45 -200 45
5121897549.5916 -4.7474422 10.608548 -200 45 -200 45 -200 45
5122897666.2777 -4.756834 10.572371 -200 45 -200 45 -200 45
5123897782.9638 -4.7643943 10.539394 -200 45 -200 45 -200 45
5124897899.6499 -4.7740245 10.504082 -200 45 -200 45 -200 45
5125898016.3361 -4.7918224 10.473702 -200 45 -200 45 -200 45
5126898133.0222 -4.8188348 10.452101 -200 45 -200 45 -200 45
5127898249.7083 -4.8395672 10.425193 -200 45 -200 45 -200 45
5128898366.3944 -4.8596826 10.403745 -200 45 -200 45 -200 45
5129898483.0805 -4.8785491 10.393171 -200 45 -200 45 -200 45
5130898599.7666 -4.8927264 10.343878 -200 45 -200 45 -200 45
5131898716.4527 -4.9073706 10.329785 -200 45 -200 45 -200 45
5132898833.1389 -4.9192948 10.288752 -200 45 -200 45 -200 45
5133898949.825 -4.9302945 10.266845 -200 45 -200 45 -200 45
5134899066.5111 -4.9414201 10.248796 -200 45 -200 45 -200 45
5135899183.1972 -4.9538012 10.225696 -200 45 -200 45 -200 45
5136899299.8833 -4.974473 10.216606 -200 45 -200 45 -200 45
5137899416.5694 -4.9989228 10.212454 -200 45 -200 45 -200 45
5138899533.2555 -5.0223651 10.197972 -200 45 -200 45 -200 45
5139899649.9417 -5.0482588 10.184481 -200 45 -200 45 -200 45
5140899766.6278 -5.0782943 10.199378 -200 45 -200 45 -200 45
5141899883.3139 -5.1144896 10.209451 -200 45 -200 45 -200 45
5142900000 -5.1625528 10.237299 -200 45 -200 45 -200 45
5143900116.6861 -5.2107878 10.317688 -200 45 -200 45 -200 45
5144900233.3722 -5.251864 10.405176 -200 45 -200 45 -200 45
5145900350.0583 -5.2977419 10.52674 -200 45 -200 45 -200 45
5146900466.7445 -5.33639 10.665013 -200 45 -200 45 -200 45
5147900583.4306 -5.3770695 10.864019 -200 45 -200 45 -200 45
5148900700.1167 -5.4172397 11.105081 -200 45 -200 45 -200 45
5149900816.8028 -5.4489479 11.401702 -200 45 -200 45 -200 45
5150900933.4889 -5.4785585 11.756947 -200 45 -200 45 -200 45
5151901050.175 -5.4991002 12.161932 -200 45 -200 45 -200 45
5152901166.8611 -5.5181475 12.624502 -200 45 -200 45 -200 45
5153901283.5473 -5.5307641 13.110742 -200 45 -200 45 -200 45
5154901400.2334 -5.5239272 13.573768 -200 45 -200 45 -200 45
5155901516.9195 -5.5030484 14.015731 -200 45 -200 45 -200 45
5156901633.6056 -5.4799194 14.448311 -200 45 -200 45 -200 45
5157901750.2917 -5.4554887 14.844003 -200 45 -200 45 -200 45
5158901866.9778 -5.4238362 15.181016 -200 45 -200 45 -200 45
5159901983.6639 -5.3891387 15.481614 -200 45 -200 45 -200 45
5160902100.3501 -5.3383412 15.695131 -200 45 -200 45 -200 45
5161902217.0362 -5.288178 15.858231 -200 45 -200 45 -200 45
5162902333.7223 -5.2350645 15.965263 -200 45 -200 45 -200 45
5163902450.4084 -5.1863165 16.025789 -200 45 -200 45 -200 45
5164902567.0945 -5.1350865 16.024801 -200 45 -200 45 -200 45
5165902683.7806 -5.080503 15.994541 -200 45 -200 45 -200 45
5166902800.4667 -5.0381055 15.920686 -200 45 -200 45 -200 45
5167902917.1529 -5.000546 15.856226 -200 45 -200 45 -200 45
5168903033.839 -4.9776855 15.782408 -200 45 -200 45 -200 45
5169903150.5251 -4.9534297 15.69083 -200 45 -200 45 -200 45
5170903267.2112 -4.9330072 15.560099 -200 45 -200 45 -200 45
5171903383.8973 -4.9166307 15.481517 -200 45 -200 45 -200 45
5172903500.5834 -4.9047217 15.411512 -200 45 -200 45 -200 45
5173903617.2695 -4.903285 15.341125 -200 45 -200 45 -200 45
5174903733.9557 -4.9027195 15.274211 -200 45 -200 45 -200 45
5175903850.6418 -4.9068279 15.241086 -200 45 -200 45 -200 45
5176903967.3279 -4.8979936 15.195687 -200 45 -200 45 -200 45
5177904084.014 -4.8863087 15.131833 -200 45 -200 45 -200 45
5178904200.7001 -4.8756785 15.092886 -200 45 -200 45 -200 45
5179904317.3862 -4.8614721 15.051356 -200 45 -200 45 -200 45
5180904434.0723 -4.8450356 14.993445 -200 45 -200 45 -200 45
5181904550.7585 -4.8259048 14.928186 -200 45 -200 45 -200 45
5182904667.4446 -4.8053508 14.861681 -200 45 -200 45 -200 45
5183904784.1307 -4.7974195 14.801792 -200 45 -200 45 -200 45
5184904900.8168 -4.7879982 14.728351 -200 45 -200 45 -200 45
5185905017.5029 -4.7805533 14.616503 -200 45 -200 45 -200 45
5186905134.189 -4.7667351 14.494755 -200 45 -200 45 -200 45
5187905250.8751 -4.7613401 14.392252 -200 45 -200 45 -200 45
5188905367.5613 -4.7637091 14.291991 -200 45 -200 45 -200 45
5189905484.2474 -4.7751522 14.188263 -200 45 -200 45 -200 45
5190905600.9335 -4.7834902 14.076179 -200 45 -200 45 -200 45
5191905717.6196 -4.789526 13.962841 -200 45 -200 45 -200 45
5192905834.3057 -4.7945023 13.855279 -200 45 -200 45 -200 45
5193905950.9918 -4.7949491 13.737046 -200 45 -200 45 -200 45
5194906067.6779 -4.8004961 13.613381 -200 45 -200 45 -200 45
5195906184.3641 -4.8025122 13.517928 -200 45 -200 45 -200 45
5196906301.0502 -4.8028407 13.401802 -200 45 -200 45 -200 45
5197906417.7363 -4.8045053 13.272799 -200 45 -200 45 -200 45
5198906534.4224 -4.8087988 13.198586 -200 45 -200 45 -200 45
5199906651.1085 -4.8197618 13.107219 -200 45 -200 45 -200 45
5200906767.7946 -4.8334846 13.031885 -200 45 -200 45 -200 45
5201906884.4807 -4.8414707 12.93372 -200 45 -200 45 -200 45
5202907001.1669 -4.85287 12.82889 -200 45 -200 45 -200 45
5203907117.853 -4.8727784 12.755306 -200 45 -200 45 -200 45
5204907234.5391 -4.8954067 12.710161 -200 45 -200 45 -200 45
5205907351.2252 -4.9210777 12.643888 -200 45 -200 45 -200 45
5206907467.9113 -4.9504218 12.591593 -200 45 -200 45 -200 45
5207907584.5974 -4.9711752 12.543304 -200 45 -200 45 -200 45
5208907701.2835 -4.9876685 12.485177 -200 45 -200 45 -200 45
5209907817.9697 -5.0027528 12.431442 -200 45 -200 45 -200 45
5210907934.6558 -5.0195489 12.379261 -200 45 -200 45 -200 45
5211908051.3419 -5.0332208 12.338531 -200 45 -200 45 -200 45
5212908168.028 -5.0426416 12.288676 -200 45 -200 45 -200 45
5213908284.7141 -5.0576072 12.241448 -200 45 -200 45 -200 45
5214908401.4002 -5.0703964 12.188801 -200 45 -200 45 -200 45
5215908518.0863 -5.0948038 12.144316 -200 45 -200 45 -200 45
5216908634.7725 -5.1207108 12.102207 -200 45 -200 45 -200 45
5217908751.4586 -5.1416044 12.040475 -200 45 -200 45 -200 45
5218908868.1447 -5.1671553 11.993818 -200 45 -200 45 -200 45
5219908984.8308 -5.201035 11.96293 -200 45 -200 45 -200 45
5220909101.5169 -5.2397585 11.982998 -200 45 -200 45 -200 45
5221909218.203 -5.2867403 11.977649 -200 45 -200 45 -200 45
5222909334.8891 -5.3269062 11.973791 -200 45 -200 45 -200 45
5223909451.5753 -5.3631539 12.007687 -200 45 -200 45 -200 45
5224909568.2614 -5.3954673 12.029728 -200 45 -200 45 -200 45
5225909684.9475 -5.4276829 12.051263 -200 45 -200 45 -200 45
5226909801.6336 -5.4612627 12.106725 -200 45 -200 45 -200 45
5227909918.3197 -5.4944291 12.162159 -200 45 -200 45 -200 45
5228910035.0058 -5.5253191 12.219623 -200 45 -200 45 -200 45
5229910151.6919 -5.560389 12.308804 -200 45 -200 45 -200 45
5230910268.3781 -5.6012397 12.38523 -200 45 -200 45 -200 45
5231910385.0642 -5.6448045 12.497765 -200 45 -200 45 -200 45
5232910501.7503 -5.6885347 12.668387 -200 45 -200 45 -200 45
5233910618.4364 -5.7344375 12.78406 -200 45 -200 45 -200 45
5234910735.1225 -5.782968 12.980908 -200 45 -200 45 -200 45
5235910851.8086 -5.8415151 13.204142 -200 45 -200 45 -200 45
5236910968.4947 -5.9098878 13.505956 -200 45 -200 45 -200 45
5237911085.1809 -5.9748907 13.811915 -200 45 -200 45 -200 45
5238911201.867 -6.0338979 14.183906 -200 45 -200 45 -200 45
5239911318.5531 -6.0829906 14.610353 -200 45 -200 45 -200 45
5240911435.2392 -6.1266999 15.085775 -200 45 -200 45 -200 45
5241911551.9253 -6.1640086 15.632428 -200 45 -200 45 -200 45
5242911668.6114 -6.1913438 16.232162 -200 45 -200 45 -200 45
5243911785.2976 -6.2075419 16.834188 -200 45 -200 45 -200 45
5244911901.9837 -6.2040586 17.495195 -200 45 -200 45 -200 45
5245912018.6698 -6.1984744 18.148487 -200 45 -200 45 -200 45
5246912135.3559 -6.1830716 18.833336 -200 45 -200 45 -200 45
5247912252.042 -6.1650352 19.487293 -200 45 -200 45 -200 45
5248912368.7281 -6.1275902 20.107279 -200 45 -200 45 -200 45
5249912485.4142 -6.0862174 20.725412 -200 45 -200 45 -200 45
5250912602.1004 -6.0352445 21.305511 -200 45 -200 45 -200 45
5251912718.7865 -5.9815526 21.880205 -200 45 -200 45 -200 45
5252912835.4726 -5.9238553 22.418694 -200 45 -200 45 -200 45
5253912952.1587 -5.8544507 22.875023 -200 45 -200 45 -200 45
5254913068.8448 -5.773921 23.264174 -200 45 -200 45 -200 45
5255913185.5309 -5.6811714 23.550364 -200 45 -200 45 -200 45
5256913302.217 -5.5904074 23.753397 -200 45 -200 45 -200 45
5257913418.9032 -5.5013638 23.898033 -200 45 -200 45 -200 45
5258913535.5893 -5.4100037 23.990322 -200 45 -200 45 -200 45
5259913652.2754 -5.3178949 24.010872 -200 45 -200 45 -200 45
5260913768.9615 -5.2335548 23.960674 -200 45 -200 45 -200 45
5261913885.6476 -5.1610684 23.907812 -200 45 -200 45 -200 45
5262914002.3337 -5.095818 23.827366 -200 45 -200 45 -200 45
5263914119.0198 -5.0404372 23.729435 -200 45 -200 45 -200 45
5264914235.706 -4.9829688 23.599892 -200 45 -200 45 -200 45
5265914352.3921 -4.9284835 23.492912 -200 45 -200 45 -200 45
5266914469.0782 -4.8841619 23.385727 -200 45 -200 45 -200 45
5267914585.7643 -4.8494596 23.279224 -200 45 -200 45 -200 45
5268914702.4504 -4.8152695 23.163273 -200 45 -200 45 -200 45
5269914819.1365 -4.7837486 23.039801 -200 45 -200 45 -200 45
5270914935.8226 -4.7471051 22.90926 -200 45 -200 45 -200 45
5271915052.5088 -4.7107825 22.790848 -200 45 -200 45 -200 45
5272915169.1949 -4.675107 22.657871 -200 45 -200 45 -200 45
5273915285.881 -4.6379218 22.503443 -200 45 -200 45 -200 45
5274915402.5671 -4.601862 22.356619 -200 45 -200 45 -200 45
5275915519.2532 -4.5573382 22.197348 -200 45 -200 45 -200 45
5276915635.9393 -4.5171394 22.039171 -200 45 -200 45 -200 45
5277915752.6254 -4.4817891 21.842302 -200 45 -200 45 -200 45
5278915869.3116 -4.4541831 21.656076 -200 45 -200 45 -200 45
5279915985.9977 -4.4317021 21.457651 -200 45 -200 45 -200 45
5280916102.6838 -4.4063654 21.251394 -200 45 -200 45 -200 45
5281916219.3699 -4.3867521 21.030012 -200 45 -200 45 -200 45
5282916336.056 -4.3730674 20.842587 -200 45 -200 45 -200 45
5283916452.7421 -4.3738122 20.657116 -200 45 -200 45 -200 45
5284916569.4282 -4.3732781 20.478373 -200 45 -200 45 -200 45
5285916686.1144 -4.3710237 20.291359 -200 45 -200 45 -200 45
5286916802.8005 -4.3646498 20.099569 -200 45 -200 45 -200 45
5287916919.4866 -4.3579459 19.921452 -200 45 -200 45 -200 45
5288917036.1727 -4.3547406 19.76804 -200 45 -200 45 -200 45
5289917152.8588 -4.3490438 19.613087 -200 45 -200 45 -200 45
5290917269.5449 -4.3394799 19.444126 -200 45 -200 45 -200 45
5291917386.231 -4.3266854 19.30323 -200 45 -200 45 -200 45
5292917502.9172 -4.3195753 19.145998 -200 45 -200 45 -200 45
5293917619.6033 -4.3162084 19.01531 -200 45 -200 45 -200 45
5294917736.2894 -4.3159566 18.892963 -200 45 -200 45 -200 45
5295917852.9755 -4.3165488 18.768221 -200 45 -200 45 -200 45
5296917969.6616 -4.3175359 18.64846 -200 45 -200 45 -200 45
5297918086.3477 -4.3200178 18.544092 -200 45 -200 45 -200 45
5298918203.0338 -4.3255963 18.44895 -200 45 -200 45 -200 45
5299918319.72 -4.3419867 18.355225 -200 45 -200 45 -200 45
5300918436.4061 -4.3515053 18.254709 -200 45 -200 45 -200 45
5301918553.0922 -4.360076 18.173115 -200 45 -200 45 -200 45
5302918669.7783 -4.3606524 18.0721 -200 45 -200 45 -200 45
5303918786.4644 -4.3608027 17.992861 -200 45 -200 45 -200 45
5304918903.1505 -4.3671956 17.902084 -200 45 -200 45 -200 45
5305919019.8366 -4.3642983 17.829662 -200 45 -200 45 -200 45
5306919136.5228 -4.3642244 17.729017 -200 45 -200 45 -200 45
5307919253.2089 -4.3555942 17.639006 -200 45 -200 45 -200 45
5308919369.895 -4.3510876 17.566853 -200 45 -200 45 -200 45
5309919486.5811 -4.3544388 17.489969 -200 45 -200 45 -200 45
5310919603.2672 -4.3590231 17.434969 -200 45 -200 45 -200 45
5311919719.9533 -4.3615675 17.347 -200 45 -200 45 -200 45
5312919836.6394 -4.3652229 17.268639 -200 45 -200 45 -200 45
5313919953.3256 -4.3724184 17.203371 -200 45 -200 45 -200 45
5314920070.0117 -4.3825426 17.133389 -200 45 -200 45 -200 45
5315920186.6978 -4.3975201 17.084835 -200 45 -200 45 -200 45
5316920303.3839 -4.4118457 17.019995 -200 45 -200 45 -200 45
5317920420.07 -4.4190373 16.970051 -200 45 -200 45 -200 45
5318920536.7561 -4.4229479 16.911638 -200 45 -200 45 -200 45
5319920653.4422 -4.4304743 16.833549 -200 45 -200 45 -200 45
5320920770.1284 -4.4361 16.796381 -200 45 -200 45 -200 45
5321920886.8145 -4.4362116 16.739689 -200 45 -200 45 -200 45
5322921003.5006 -4.4358449 16.676914 -200 45 -200 45 -200 45
5323921120.1867 -4.4338813 16.610573 -200 45 -200 45 -200 45
5324921236.8728 -4.4352489 16.552507 -200 45 -200 45 -200 45
5325921353.5589 -4.441812 16.511562 -200 45 -200 45 -200 45
5326921470.245 -4.450088 16.470438 -200 45 -200 45 -200 45
5327921586.9312 -4.4585676 16.406546 -200 45 -200 45 -200 45
5328921703.6173 -4.4664617 16.37981 -200 45 -200 45 -200 45
5329921820.3034 -4.4751396 16.36252 -200 45 -200 45 -200 45
5330921936.9895 -4.4925547 16.31036 -200 45 -200 45 -200 45
5331922053.6756 -4.5088267 16.280233 -200 45 -200 45 -200 45
5332922170.3617 -4.5275636 16.236765 -200 45 -200 45 -200 45
5333922287.0478 -4.5358825 16.219351 -200 45 -200 45 -200 45
5334922403.734 -4.543654 16.196161 -200 45 -200 45 -200 45
5335922520.4201 -4.556499 16.169979 -200 45 -200 45 -200 45
5336922637.1062 -4.5634384 16.151754 -200 45 -200 45 -200 45
5337922753.7923 -4.5693941 16.111807 -200 45 -200 45 -200 45
5338922870.4784 -4.5687385 16.089987 -200 45 -200 45 -200 45
5339922987.1645 -4.5696859 16.05447 -200 45 -200 45 -200 45
5340923103.8506 -4.5791073 16.036261 -200 45 -200 45 -200 45
5341923220.5368 -4.5889997 16.05258 -200 45 -200 45 -200 45
5342923337.2229 -4.6051722 16.032806 -200 45 -200 45 -200 45
5343923453.909 -4.6192837 16.037989 -200 45 -200 45 -200 45
5344923570.5951 -4.6314349 16.062029 -200 45 -200 45 -200 45
5345923687.2812 -4.6486378 16.089252 -200 45 -200 45 -200 45
5346923803.9673 -4.6724687 16.145081 -200 45 -200 45 -200 45
5347923920.6534 -4.693809 16.187902 -200 45 -200 45 -200 45
5348924037.3396 -4.7135816 16.246614 -200 45 -200 45 -200 45
5349924154.0257 -4.7282782 16.332722 -200 45 -200 45 -200 45
5350924270.7118 -4.7378731 16.463833 -200 45 -200 45 -200 45
5351924387.3979 -4.7447667 16.534702 -200 45 -200 45 -200 45
5352924504.084 -4.7479072 16.652138 -200 45 -200 45 -200 45
5353924620.7701 -4.7382455 16.759518 -200 45 -200 45 -200 45
5354924737.4562 -4.7306919 16.855198 -200 45 -200 45 -200 45
5355924854.1424 -4.7185097 16.938131 -200 45 -200 45 -200 45
5356924970.8285 -4.7117658 17.064018 -200 45 -200 45 -200 45
5357925087.5146 -4.7047367 17.150747 -200 45 -200 45 -200 45
5358925204.2007 -4.6932373 17.218472 -200 45 -200 45 -200 45
5359925320.8868 -4.6825223 17.290808 -200 45 -200 45 -200 45
5360925437.5729 -4.6715808 17.338715 -200 45 -200 45 -200 45
5361925554.259 -4.66257 17.349331 -200 45 -200 45 -200 45
5362925670.9452 -4.661715 17.371952 -200 45 -200 45 -200 45
5363925787.6313 -4.6594114 17.387461 -200 45 -200 45 -200 45
5364925904.3174 -4.6531835 17.38373 -200 45 -200 45 -200 45
5365926021.0035 -4.644547 17.386225 -200 45 -200 45 -200 45
5366926137.6896 -4.6363711 17.384216 -200 45 -200 45 -200 45
5367926254.3757 -4.6299572 17.363111 -200 45 -200 45 -200 45
5368926371.0618 -4.6211381 17.340137 -200 45 -200 45 -200 45
5369926487.748 -4.6028776 17.305723 -200 45 -200 45 -200 45
5370926604.4341 -4.5879397 17.265999 -200 45 -200 45 -200 45
5371926721.1202 -4.5727506 17.211607 -200 45 -200 45 -200 45
5372926837.8063 -4.5714488 17.235533 -200 45 -200 45 -200 45
5373926954.4924 -4.5677428 17.195448 -200 45 -200 45 -200 45
5374927071.1785 -4.5623035 17.173994 -200 45 -200 45 -200 45
5375927187.8646 -4.5606828 17.132309 -200 45 -200 45 -200 45
5376927304.5508 -4.5590014 17.122643 -200 45 -200 45 -200 45
5377927421.2369 -4.5585961 17.106668 -200 45 -200 45 -200 45
5378927537.923 -4.568716 17.066351 -200 45 -200 45 -200 45
5379927654.6091 -4.5778456 17.054329 -200 45 -200 45 -200 45
5380927771.2952 -4.5773611 17.030521 -200 45 -200 45 -200 45
5381927887.9813 -4.5783868 17.011189 -200 45 -200 45 -200 45
5382928004.6674 -4.5738034 16.988956 -200 45 -200 45 -200 45
5383928121.3536 -4.5719686 16.978975 -200 45 -200 45 -200 45
5384928238.0397 -4.5646515 16.956772 -200 45 -200 45 -200 45
5385928354.7258 -4.5547776 16.928431 -200 45 -200 45 -200 45
5386928471.4119 -4.5407085 16.873808 -200 45 -200 45 -200 45
5387928588.098 -4.5353026 16.85376 -200 45 -200 45 -200 45
5388928704.7841 -4.5368171 16.832523 -200 45 -200 45 -200 45
5389928821.4702 -4.5342045 16.819391 -200 45 -200 45 -200 45
5390928938.1564 -4.5344496 16.800364 -200 45 -200 45 -200 45
5391929054.8425 -4.5311394 16.755283 -200 45 -200 45 -200 45
5392929171.5286 -4.5340586 16.715864 -200 45 -200 45 -200 45
5393929288.2147 -4.5397167 16.702709 -200 45 -200 45 -200 45
5394929404.9008 -4.5474453 16.65366 -200 45 -200 45 -200 45
5395929521.5869 -4.5561547 16.634428 -200 45 -200 45 -200 45
5396929638.273 -4.5653524 16.605526 -200 45 -200 45 -200 45
5397929754.9592 -4.5664597 16.60112 -200 45 -200 45 -200 45
5398929871.6453 -4.5671239 16.567543 -200 45 -200 45 -200 45
5399929988.3314 -4.56634 16.54282 -200 45 -200 45 -200 45
5400930105.0175 -4.5614877 16.49025 -200 45 -200 45 -200 45
5401930221.7036 -4.5567169 16.455944 -200 45 -200 45 -200 45
5402930338.3897 -4.5506005 16.422153 -200 45 -200 45 -200 45
5403930455.0758 -4.5474443 16.412355 -200 45 -200 45 -200 45
5404930571.762 -4.5531831 16.411251 -200 45 -200 45 -200 45
5405930688.4481 -4.5578494 16.412485 -200 45 -200 45 -200 45
5406930805.1342 -4.5618849 16.40316 -200 45 -200 45 -200 45
5407930921.8203 -4.5628114 16.381359 -200 45 -200 45 -200 45
5408931038.5064 -4.5651298 16.367874 -200 45 -200 45 -200 45
5409931155.1925 -4.5767918 16.360529 -200 45 -200 45 -200 45
5410931271.8786 -4.5888495 16.361622 -200 45 -200 45 -200 45
5411931388.5648 -4.5983653 16.332531 -200 45 -200 45 -200 45
5412931505.2509 -4.6024389 16.347044 -200 45 -200 45 -200 45
5413931621.937 -4.6030779 16.329699 -200 45 -200 45 -200 45
5414931738.6231 -4.6034446 16.333532 -200 45 -200 45 -200 45
5415931855.3092 -4.6035733 16.310501 -200 45 -200 45 -200 45
5416931971.9953 -4.5966606 16.279535 -200 45 -200 45 -200 45
5417932088.6814 -4.5861907 16.253839 -200 45 -200 45 -200 45
5418932205.3676 -4.5834055 16.234497 -200 45 -200 45 -200 45
5419932322.0537 -4.5828838 16.235876 -200 45 -200 45 -200 45
5420932438.7398 -4.5904469 16.251055 -200 45 -200 45 -200 45
5421932555.4259 -4.593564 16.243174 -200 45 -200 45 -200 45
5422932672.112 -4.5944209 16.214783 -200 45 -200 45 -200 45
5423932788.7981 -4.5937095 16.218378 -200 45 -200 45 -200 45
5424932905.4842 -4.6004238 16.194712 -200 45 -200 45 -200 45
5425933022.1704 -4.6134582 16.182821 -200 45 -200 45 -200 45
5426933138.8565 -4.6248784 16.188477 -200 45 -200 45 -200 45
5427933255.5426 -4.6321445 16.17588 -200 45 -200 45 -200 45
5428933372.2287 -4.6363816 16.19722 -200 45 -200 45 -200 45
5429933488.9148 -4.6394272 16.192392 -200 45 -200 45 -200 45
5430933605.6009 -4.6398249 16.179998 -200 45 -200 45 -200 45
5431933722.287 -4.6369419 16.160694 -200 45 -200 45 -200 45
5432933838.9732 -4.6271286 16.140631 -200 45 -200 45 -200 45
5433933955.6593 -4.619915 16.119246 -200 45 -200 45 -200 45
5434934072.3454 -4.6174307 16.100599 -200 45 -200 45 -200 45
5435934189.0315 -4.622355 16.124496 -200 45 -200 45 -200 45
5436934305.7176 -4.6305408 16.122435 -200 45 -200 45 -200 45
5437934422.4037 -4.6341429 16.1143 -200 45 -200 45 -200 45
5438934539.0898 -4.6300101 16.102545 -200 45 -200 45 -200 45
5439934655.776 -4.6354585 16.092087 -200 45 -200 45 -200 45
5440934772.4621 -4.6430554 16.09584 -200 45 -200 45 -200 45
5441934889.1482 -4.65451 16.069244 -200 45 -200 45 -200 45
5442935005.8343 -4.6755195 16.097076 -200 45 -200 45 -200 45
5443935122.5204 -4.6804881 16.112989 -200 45 -200 45 -200 45
5444935239.2065 -4.6821885 16.114676 -200 45 -200 45 -200 45
5445935355.8926 -4.6853404 16.116537 -200 45 -200 45 -200 45
5446935472.5788 -4.6881237 16.129744 -200 45 -200 45 -200 45
5447935589.2649 -4.6819892 16.105684 -200 45 -200 45 -200 45
5448935705.951 -4.6757255 16.082197 -200 45 -200 45 -200 45
5449935822.6371 -4.6698012 16.096035 -200 45 -200 45 -200 45
5450935939.3232 -4.6693745 16.133511 -200 45 -200 45 -200 45
5451936056.0093 -4.6744604 16.151096 -200 45 -200 45 -200 45
5452936172.6954 -4.6789994 16.168978 -200 45 -200 45 -200 45
5453936289.3816 -4.6776471 16.193676 -200 45 -200 45 -200 45
5454936406.0677 -4.6745353 16.18762 -200 45 -200 45 -200 45
5455936522.7538 -4.6748886 16.182775 -200 45 -200 45 -200 45
5456936639.4399 -4.6831989 16.209679 -200 45 -200 45 -200 45
5457936756.126 -4.6934299 16.226259 -200 45 -200 45 -200 45
5458936872.8121 -4.7018242 16.241941 -200 45 -200 45 -200 45
5459936989.4983 -4.7048116 16.285662 -200 45 -200 45 -200 45
5460937106.1844 -4.7029204 16.280504 -200 45 -200 45 -200 45
5461937222.8705 -4.7007718 16.250952 -200 45 -200 45 -200 45
5462937339.5566 -4.6940198 16.257519 -200 45 -200 45 -200 45
5463937456.2427 -4.686152 16.223091 -200 45 -200 45 -200 45
5464937572.9288 -4.6743002 16.198933 -200 45 -200 45 -200 45
5465937689.6149 -4.6646242 16.185989 -200 45 -200 45 -200 45
5466937806.3011 -4.6691847 16.195217 -200 45 -200 45 -200 45
5467937922.9872 -4.6726007 16.195692 -200 45 -200 45 -200 45
5468938039.6733 -4.6681843 16.180714 -200 45 -200 45 -200 45
5469938156.3594 -4.6680055 16.149452 -200 45 -200 45 -200 45
5470938273.0455 -4.6642056 16.135149 -200 45 -200 45 -200 45
5471938389.7316 -4.667541 16.09774 -200 45 -200 45 -200 45
5472938506.4177 -4.6816392 16.103718 -200 45 -200 45 -200 45
5473938623.1039 -4.6912098 16.0951 -200 45 -200 45 -200 45
5474938739.79 -4.7003679 16.107918 -200 45 -200 45 -200 45
5475938856.4761 -4.7047048 16.094561 -200 45 -200 45 -200 45
5476938973.1622 -4.7026248 16.078712 -200 45 -200 45 -200 45
5477939089.8483 -4.7022138 16.064688 -200 45 -200 45 -200 45
5478939206.5344 -4.6984916 16.034687 -200 45 -200 45 -200 45
5479939323.2205 -4.6903296 15.995127 -200 45 -200 45 -200 45
5480939439.9067 -4.6818132 15.961732 -200 45 -200 45 -200 45
5481939556.5928 -4.6787519 15.95801 -200 45 -200 45 -200 45
5482939673.2789 -4.6796684 15.977083 -200 45 -200 45 -200 45
5483939789.965 -4.6858225 15.96799 -200 45 -200 45 -200 45
5484939906.6511 -4.6844554 15.94849 -200 45 -200 45 -200 45
5485940023.3372 -4.6818905 15.917635 -200 45 -200 45 -200 45
5486940140.0233 -4.6820292 15.875115 -200 45 -200 45 -200 45
5487940256.7095 -4.6890216 15.873616 -200 45 -200 45 -200 45
5488940373.3956 -4.7036777 15.865777 -200 45 -200 45 -200 45
5489940490.0817 -4.7173495 15.870689 -200 45 -200 45 -200 45
5490940606.7678 -4.7254262 15.882542 -200 45 -200 45 -200 45
5491940723.4539 -4.7271199 15.871107 -200 45 -200 45 -200 45
5492940840.14 -4.727787 15.850456 -200 45 -200 45 -200 45
5493940956.8261 -4.7277303 15.813956 -200 45 -200 45 -200 45
5494941073.5123 -4.7240462 15.788945 -200 45 -200 45 -200 45
5495941190.1984 -4.7155485 15.758435 -200 45 -200 45 -200 45
5496941306.8845 -4.7136402 15.739794 -200 45 -200 45 -200 45
5497941423.5706 -4.7129374 15.750797 -200 45 -200 45 -200 45
5498941540.2567 -4.7181172 15.745924 -200 45 -200 45 -200 45
5499941656.9428 -4.7211614 15.748333 -200 45 -200 45 -200 45
5500941773.6289 -4.7240624 15.714314 -200 45 -200 45 -200 45
5501941890.3151 -4.7196317 15.688533 -200 45 -200 45 -200 45
5502942007.0012 -4.723258 15.683757 -200 45 -200 45 -200 45
5503942123.6873 -4.7375298 15.675706 -200 45 -200 45 -200 45
5504942240.3734 -4.7521739 15.674494 -200 45 -200 45 -200 45
5505942357.0595 -4.7676024 15.684797 -200 45 -200 45 -200 45
5506942473.7456 -4.7739797 15.675801 -200 45 -200 45 -200 45
5507942590.4317 -4.7794509 15.672913 -200 45 -200 45 -200 45
5508942707.1179 -4.7769456 15.663676 -200 45 -200 45 -200 45
5509942823.804 -4.7741232 15.626464 -200 45 -200 45 -200 45
5510942940.4901 -4.7721972 15.620111 -200 45 -200 45 -200 45
5511943057.1762 -4.7669678 15.611497 -200 45 -200 45 -200 45
5512943173.8623 -4.7667089 15.597123 -200 45 -200 45 -200 45
5513943290.5484 -4.7691026 15.604537 -200 45 -200 45 -200 45
5514943407.2345 -4.7775536 15.621582 -200 45 -200 45 -200 45
5515943523.9207 -4.7775464 15.596929 -200 45 -200 45 -200 45
5516943640.6068 -4.7793832 15.580499 -200 45 -200 45 -200 45
5517943757.2929 -4.7768536 15.558779 -200 45 -200 45 -200 45
5518943873.979 -4.7859721 15.571746 -200 45 -200 45 -200 45
5519943990.6651 -4.8051639 15.570092 -200 45 -200 45 -200 45
5520944107.3512 -4.8230658 15.572626 -200 45 -200 45 -200 45
5521944224.0373 -4.8335547 15.593073 -200 45 -200 45 -200 45
5522944340.7235 -4.8373251 15.58782 -200 45 -200 45 -200 45
5523944457.4096 -4.8396058 15.586294 -200 45 -200 45 -200 45
5524944574.0957 -4.8382926 15.566009 -200 45 -200 45 -200 45
5525944690.7818 -4.8425045 15.539442 -200 45 -200 45 -200 45
5526944807.4679 -4.8375864 15.542809 -200 45 -200 45 -200 45
5527944924.154 -4.8325195 15.53651 -200 45 -200 45 -200 45
5528945040.8401 -4.8313255 15.538323 -200 45 -200 45 -200 45
5529945157.5263 -4.8363791 15.534035 -200 45 -200 45 -200 45
5530945274.2124 -4.8437147 15.552737 -200 45 -200 45 -200 45
5531945390.8985 -4.8423419 15.514471 -200 45 -200 45 -200 45
5532945507.5846 -4.844934 15.48938 -200 45 -200 45 -200 45
5533945624.2707 -4.8479285 15.478687 -200 45 -200 45 -200 45
5534945740.9568 -4.8583493 15.461406 -200 45 -200 45 -200 45
5535945857.6429 -4.8794489 15.499992 -200 45 -200 45 -200 45
5536945974.3291 -4.8940244 15.498819 -200 45 -200 45 -200 45
5537946091.0152 -4.9071374 15.490669 -200 45 -200 45 -200 45
5538946207.7013 -4.9096279 15.483069 -200 45 -200 45 -200 45
5539946324.3874 -4.9141517 15.453159 -200 45 -200 45 -200 45
5540946441.0735 -4.9170232 15.455581 -200 45 -200 45 -200 45
5541946557.7596 -4.9199352 15.427527 -200 45 -200 45 -200 45
5542946674.4457 -4.9215784 15.411226 -200 45 -200 45 -200 45
5543946791.1319 -4.9232745 15.430504 -200 45 -200 45 -200 45
5544946907.818 -4.9231949 15.414052 -200 45 -200 45 -200 45
5545947024.5041 -4.9317365 15.430369 -200 45 -200 45 -200 45
5546947141.1902 -4.9397187 15.421408 -200 45 -200 45 -200 45
5547947257.8763 -4.9428482 15.407338 -200 45 -200 45 -200 45
5548947374.5624 -4.9449196 15.378895 -200 45 -200 45 -200 45
5549947491.2485 -4.9583011 15.382396 -200 45 -200 45 -200 45
5550947607.9347 -4.9810419 15.394773 -200 45 -200 45 -200 45
5551947724.6208 -5.0036559 15.398471 -200 45 -200 45 -200 45
5552947841.3069 -5.0199575 15.405745 -200 45 -200 45 -200 45
5553947957.993 -5.0342016 15.425375 -200 45 -200 45 -200 45
5554948074.6791 -5.0453396 15.423235 -200 45 -200 45 -200 45
5555948191.3652 -5.0533185 15.411795 -200 45 -200 45 -200 45
5556948308.0513 -5.0637035 15.411525 -200 45 -200 45 -200 45
5557948424.7375 -5.07131 15.43388 -200 45 -200 45 -200 45
5558948541.4236 -5.0798306 15.430901 -200 45 -200 45 -200 45
5559948658.1097 -5.0877099 15.462828 -200 45 -200 45 -200 45
5560948774.7958 -5.0995469 15.49635 -200 45 -200 45 -200 45
5561948891.4819 -5.1158342 15.537142 -200 45 -200 45 -200 45
5562949008.168 -5.1332765 15.580579 -200 45 -200 45 -200 45
5563949124.8541 -5.147903 15.606282 -200 45 -200 45 -200 45
5564949241.5403 -5.1618409 15.653275 -200 45 -200 45 -200 45
5565949358.2264 -5.1862807 15.748812 -200 45 -200 45 -200 45
5566949474.9125 -5.2178164 15.86028 -200 45 -200 45 -200 45
5567949591.5986 -5.2492943 15.975113 -200 45 -200 45 -200 45
5568949708.2847 -5.2772093 16.140045 -200 45 -200 45 -200 45
5569949824.9708 -5.294529 16.277342 -200 45 -200 45 -200 45
5570949941.6569 -5.3094654 16.453333 -200 45 -200 45 -200 45
5571950058.3431 -5.318994 16.618654 -200 45 -200 45 -200 45
5572950175.0292 -5.3275623 16.850067 -200 45 -200 45 -200 45
5573950291.7153 -5.327826 17.078991 -200 45 -200 45 -200 45
5574950408.4014 -5.3218284 17.317297 -200 45 -200 45 -200 45
5575950525.0875 -5.3087039 17.549007 -200 45 -200 45 -200 45
5576950641.7736 -5.2951527 17.79689 -200 45 -200 45 -200 45
5577950758.4597 -5.2798944 18.009573 -200 45 -200 45 -200 45
5578950875.1459 -5.2589436 18.198448 -200 45 -200 45 -200 45
5579950991.832 -5.2376242 18.34177 -200 45 -200 45 -200 45
5580951108.5181 -5.2127833 18.495424 -200 45 -200 45 -200 45
5581951225.2042 -5.1955185 18.615271 -200 45 -200 45 -200 45
5582951341.8903 -5.1838155 18.749435 -200 45 -200 45 -200 45
5583951458.5764 -5.1666059 18.842127 -200 45 -200 45 -200 45
5584951575.2625 -5.1501989 18.88413 -200 45 -200 45 -200 45
5585951691.9487 -5.1262798 18.944538 -200 45 -200 45 -200 45
5586951808.6348 -5.0972366 18.93586 -200 45 -200 45 -200 45
5587951925.3209 -5.0724421 18.958319 -200 45 -200 45 -200 45
5588952042.007 -5.0486984 18.977695 -200 45 -200 45 -200 45
5589952158.6931 -5.022337 18.934942 -200 45 -200 45 -200 45
5590952275.3792 -4.9930501 18.921228 -200 45 -200 45 -200 45
5591952392.0653 -4.9691277 18.876549 -200 45 -200 45 -200 45
5592952508.7515 -4.9506807 18.839588 -200 45 -200 45 -200 45
5593952625.4376 -4.9335437 18.807989 -200 45 -200 45 -200 45
5594952742.1237 -4.9168367 18.745211 -200 45 -200 45 -200 45
5595952858.8098 -4.90236 18.676252 -200 45 -200 45 -200 45
5596952975.4959 -4.8932509 18.655659 -200 45 -200 45 -200 45
5597953092.182 -4.8848996 18.602156 -200 45 -200 45 -200 45
5598953208.8681 -4.8882565 18.543982 -200 45 -200 45 -200 45
5599953325.5543 -4.8885379 18.498064 -200 45 -200 45 -200 45
5600953442.2404 -4.8822389 18.435688 -200 45 -200 45 -200 45
5601953558.9265 -4.8706341 18.37565 -200 45 -200 45 -200 45
5602953675.6126 -4.8612661 18.294046 -200 45 -200 45 -200 45
5603953792.2987 -4.8553891 18.240156 -200 45 -200 45 -200 45
5604953908.9848 -4.84618 18.169256 -200 45 -200 45 -200 45
5605954025.6709 -4.8346419 18.092422 -200 45 -200 45 -200 45
5606954142.3571 -4.8228168 18.026793 -200 45 -200 45 -200 45
5607954259.0432 -4.8154187 17.951586 -200 45 -200 45 -200 45
5608954375.7293 -4.8131104 17.89526 -200 45 -200 45 -200 45
5609954492.4154 -4.8084073 17.837418 -200 45 -200 45 -200 45
5610954609.1015 -4.8066797 17.76668 -200 45 -200 45 -200 45
5611954725.7876 -4.8061471 17.704849 -200 45 -200 45 -200 45
5612954842.4737 -4.8105469 17.663776 -200 45 -200 45 -200 45
5613954959.1599 -4.8184962 17.634714 -200 45 -200 45 -200 45
5614955075.846 -4.8314619 17.558014 -200 45 -200 45 -200 45
5615955192.5321 -4.8407779 17.540997 -200 45 -200 45 -200 45
5616955309.2182 -4.8431048 17.492701 -200 45 -200 45 -200 45
5617955425.9043 -4.8439312 17.437431 -200 45 -200 45 -200 45
5618955542.5904 -4.8447652 17.395901 -200 45 -200 45 -200 45
5619955659.2765 -4.8448386 17.367208 -200 45 -200 45 -200 45
5620955775.9627 -4.8446355 17.332657 -200 45 -200 45 -200 45
5621955892.6488 -4.8377681 17.296095 -200 45 -200 45 -200 45
5622956009.3349 -4.8332629 17.224092 -200 45 -200 45 -200 45
5623956126.021 -4.8303018 17.189665 -200 45 -200 45 -200 45
5624956242.7071 -4.8324018 17.170349 -200 45 -200 45 -200 45
5625956359.3932 -4.8363242 17.138752 -200 45 -200 45 -200 45
5626956476.0793 -4.837163 17.116051 -200 45 -200 45 -200 45
5627956592.7655 -4.8394947 17.085741 -200 45 -200 45 -200 45
5628956709.4516 -4.8475561 17.047016 -200 45 -200 45 -200 45
5629956826.1377 -4.8617353 17.048061 -200 45 -200 45 -200 45
5630956942.8238 -4.8749208 17.016558 -200 45 -200 45 -200 45
5631957059.5099 -4.8845739 17.009457 -200 45 -200 45 -200 45
5632957176.196 -4.8883591 16.97933 -200 45 -200 45 -200 45
5633957292.8821 -4.892662 16.951017 -200 45 -200 45 -200 45
5634957409.5683 -4.8962154 16.936169 -200 45 -200 45 -200 45
5635957526.2544 -4.9002366 16.911036 -200 45 -200 45 -200 45
5636957642.9405 -4.8999009 16.877115 -200 45 -200 45 -200 45
5637957759.6266 -4.8912039 16.857061 -200 45 -200 45 -200 45
5638957876.3127 -4.8853173 16.818708 -200 45 -200 45 -200 45
5639957992.9988 -4.8890691 16.813971 -200 45 -200 45 -200 45
5640958109.6849 -4.8959899 16.794073 -200 45 -200 45 -200 45
5641958226.3711 -4.9007626 16.784763 -200 45 -200 45 -200 45
5642958343.0572 -4.9033122 16.738186 -200 45 -200 45 -200 45
5643958459.7433 -4.9098854 16.745424 -200 45 -200 45 -200 45
5644958576.4294 -4.9184122 16.736155 -200 45 -200 45 -200 45
5645958693.1155 -4.9343572 16.72723 -200 45 -200 45 -200 45
5646958809.8016 -4.9526854 16.728268 -200 45 -200 45 -200 45
5647958926.4877 -4.9591351 16.692747 -200 45 -200 45 -200 45
5648959043.1739 -4.966907 16.683264 -200 45 -200 45 -200 45
5649959159.86 -4.968009 16.662127 -200 45 -200 45 -200 45
5650959276.5461 -4.9783216 16.661493 -200 45 -200 45 -200 45
5651959393.2322 -4.9799914 16.626972 -200 45 -200 45 -200 45
5652959509.9183 -4.9807944 16.609222 -200 45 -200 45 -200 45
5653959626.6044 -4.9766555 16.593874 -200 45 -200 45 -200 45
5654959743.2905 -4.973381 16.561916 -200 45 -200 45 -200 45
5655959859.9767 -4.9820123 16.569359 -200 45 -200 45 -200 45
5656959976.6628 -4.9903259 16.560368 -200 45 -200 45 -200 45
5657960093.3489 -4.9979191 16.554544 -200 45 -200 45 -200 45
5658960210.035 -5.004127 16.547037 -200 45 -200 45 -200 45
5659960326.7211 -5.0154562 16.544325 -200 45 -200 45 -200 45
5660960443.4072 -5.0304718 16.551643 -200 45 -200 45 -200 45
5661960560.0933 -5.0475359 16.531158 -200 45 -200 45 -200 45
5662960676.7795 -5.0677905 16.513063 -200 45 -200 45 -200 45
5663960793.4656 -5.0783391 16.514097 -200 45 -200 45 -200 45
5664960910.1517 -5.0913596 16.522545 -200 45 -200 45 -200 45
5665961026.8378 -5.1027002 16.53924 -200 45 -200 45 -200 45
5666961143.5239 -5.1145935 16.53644 -200 45 -200 45 -200 45
5667961260.21 -5.1235547 16.54516 -200 45 -200 45 -200 45
5668961376.8961 -5.1281142 16.570221 -200 45 -200 45 -200 45
5669961493.5823 -5.1328697 16.575209 -200 45 -200 45 -200 45
5670961610.2684 -5.140367 16.592878 -200 45 -200 45 -200 45
5671961726.9545 -5.15625 16.646278 -200 45 -200 45 -200 45
5672961843.6406 -5.1718678 16.697758 -200 45 -200 45 -200 45
5673961960.3267 -5.1891093 16.757217 -200 45 -200 45 -200 45
5674962077.0128 -5.2038321 16.83654 -200 45 -200 45 -200 45
5675962193.6989 -5.2216516 16.92802 -200 45 -200 45 -200 45
5676962310.3851 -5.2471533 17.026716 -200 45 -200 45 -200 45
5677962427.0712 -5.2695818 17.146435 -200 45 -200 45 -200 45
5678962543.7573 -5.2908635 17.263788 -200 45 -200 45 -200 45
5679962660.4434 -5.3048868 17.435156 -200 45 -200 45 -200 45
5680962777.1295 -5.3107319 17.59111 -200 45 -200 45 -200 45
5681962893.8156 -5.3152275 17.77701 -200 45 -200 45 -200 45
5682963010.5018 -5.3180966 17.956436 -200 45 -200 45 -200 45
5683963127.1879 -5.3097901 18.13386 -200 45 -200 45 -200 45
5684963243.874 -5.2927346 18.301493 -200 45 -200 45 -200 45
5685963360.5601 -5.2772264 18.448214 -200 45 -200 45 -200 45
5686963477.2462 -5.2580462 18.619719 -200 45 -200 45 -200 45
5687963593.9323 -5.2436962 18.768606 -200 45 -200 45 -200 45
5688963710.6184 -5.2282672 18.882092 -200 45 -200 45 -200 45
5689963827.3046 -5.2079644 18.985399 -200 45 -200 45 -200 45
5690963943.9907 -5.1870227 19.045349 -200 45 -200 45 -200 45
5691964060.6768 -5.1718106 19.11783 -200 45 -200 45 -200 45
5692964177.3629 -5.162787 19.170465 -200 45 -200 45 -200 45
5693964294.049 -5.1534896 19.176079 -200 45 -200 45 -200 45
5694964410.7351 -5.1425014 19.199085 -200 45 -200 45 -200 45
5695964527.4212 -5.1266155 19.206015 -200 45 -200 45 -200 45
5696964644.1074 -5.1134133 19.221848 -200 45 -200 45 -200 45
5697964760.7935 -5.0982761 19.208649 -200 45 -200 45 -200 45
5698964877.4796 -5.083004 19.194887 -200 45 -200 45 -200 45
5699964994.1657 -5.0682406 19.166105 -200 45 -200 45 -200 45
5700965110.8518 -5.0450678 19.135262 -200 45 -200 45 -200 45
5701965227.5379 -5.0251751 19.10807 -200 45 -200 45 -200 45
5702965344.224 -5.0152116 19.084652 -200 45 -200 45 -200 45
5703965460.9102 -5.0080361 19.076498 -200 45 -200 45 -200 45
5704965577.5963 -5.0007286 19.061903 -200 45 -200 45 -200 45
5705965694.2824 -4.9895172 19.035219 -200 45 -200 45 -200 45
5706965810.9685 -4.9823523 19.012983 -200 45 -200 45 -200 45
5707965927.6546 -4.9798265 18.977335 -200 45 -200 45 -200 45
5708966044.3407 -4.9832611 18.949375 -200 45 -200 45 -200 45
5709966161.0268 -4.9847054 18.925419 -200 45 -200 45 -200 45
5710966277.713 -4.9833069 18.872734 -200 45 -200 45 -200 45
5711966394.3991 -4.9746451 18.821566 -200 45 -200 45 -200 45
5712966511.0852 -4.9706903 18.801601 -200 45 -200 45 -200 45
5713966627.7713 -4.9660254 18.755682 -200 45 -200 45 -200 45
5714966744.4574 -4.9593816 18.714254 -200 45 -200 45 -200 45
5715966861.1435 -4.9465947 18.643383 -200 45 -200 45 -200 45
5716966977.8296 -4.9344435 18.576281 -200 45 -200 45 -200 45
5717967094.5158 -4.9226632 18.535809 -200 45 -200 45 -200 45
5718967211.2019 -4.9226179 18.484425 -200 45 -200 45 -200 45
5719967327.888 -4.9246969 18.468479 -200 45 -200 45 -200 45
5720967444.5741 -4.9224949 18.410667 -200 45 -200 45 -200 45
5721967561.2602 -4.9211307 18.373419 -200 45 -200 45 -200 45
5722967677.9463 -4.9282527 18.349957 -200 45 -200 45 -200 45
5723967794.6324 -4.9330072 18.322235 -200 45 -200 45 -200 45
5724967911.3186 -4.9429836 18.286028 -200 45 -200 45 -200 45
5725968028.0047 -4.9523878 18.258265 -200 45 -200 45 -200 45
5726968144.6908 -4.954917 18.237755 -200 45 -200 45 -200 45
5727968261.3769 -4.9575601 18.202511 -200 45 -200 45 -200 45
5728968378.063 -4.9595165 18.182392 -200 45 -200 45 -200 45
5729968494.7491 -4.9603968 18.163486 -200 45 -200 45 -200 45
5730968611.4352 -4.9606314 18.1476 -200 45 -200 45 -200 45
5731968728.1214 -4.9477425 18.087364 -200 45 -200 45 -200 45
5732968844.8075 -4.9429374 18.06719 -200 45 -200 45 -200 45
5733968961.4936 -4.9371829 18.033926 -200 45 -200 45 -200 45
5734969078.1797 -4.9390268 18.010349 -200 45 -200 45 -200 45
5735969194.8658 -4.9434795 18.022873 -200 45 -200 45 -200 45
5736969311.5519 -4.945962 17.99968 -200 45 -200 45 -200 45
5737969428.238 -4.9469523 17.972219 -200 45 -200 45 -200 45
5738969544.9242 -4.9520001 17.975925 -200 45 -200 45 -200 45
5739969661.6103 -4.962666 17.970284 -200 45 -200 45 -200 45
5740969778.2964 -4.9754105 17.950851 -200 45 -200 45 -200 45
5741969894.9825 -4.9860311 17.949419 -200 45 -200 45 -200 45
5742970011.6686 -4.9873867 17.939791 -200 45 -200 45 -200 45
5743970128.3547 -4.9901757 17.941111 -200 45 -200 45 -200 45
5744970245.0408 -4.9947395 17.943176 -200 45 -200 45 -200 45
5745970361.727 -4.9941521 17.935513 -200 45 -200 45 -200 45
5746970478.4131 -4.9871373 17.907187 -200 45 -200 45 -200 45
5747970595.0992 -4.9787641 17.883074 -200 45 -200 45 -200 45
5748970711.7853 -4.9719539 17.87335 -200 45 -200 45 -200 45
5749970828.4714 -4.9718318 17.876442 -200 45 -200 45 -200 45
5750970945.1575 -4.9731393 17.883278 -200 45 -200 45 -200 45
5751971061.8436 -4.9826331 17.901449 -200 45 -200 45 -200 45
5752971178.5298 -4.9818749 17.882851 -200 45 -200 45 -200 45
5753971295.2159 -4.9808736 17.86595 -200 45 -200 45 -200 45
5754971411.902 -4.9861946 17.867689 -200 45 -200 45 -200 45
5755971528.5881 -4.9965711 17.841785 -200 45 -200 45 -200 45
5756971645.2742 -5.0066342 17.848253 -200 45 -200 45 -200 45
5757971761.9603 -5.0173106 17.826435 -200 45 -200 45 -200 45
5758971878.6464 -5.0205803 17.837591 -200 45 -200 45 -200 45
5759971995.3326 -5.0200305 17.856216 -200 45 -200 45 -200 45
5760972112.0187 -5.0236073 17.841854 -200 45 -200 45 -200 45
5761972228.7048 -5.0223217 17.839176 -200 45 -200 45 -200 45
5762972345.3909 -5.0152841 17.809265 -200 45 -200 45 -200 45
5763972462.077 -5.0061369 17.78397 -200 45 -200 45 -200 45
5764972578.7631 -4.9993849 17.787134 -200 45 -200 45 -200 45
5765972695.4492 -5.0011811 17.778303 -200 45 -200 45 -200 45
5766972812.1354 -5.0053444 17.809879 -200 45 -200 45 -200 45
5767972928.8215 -5.0069718 17.815203 -200 45 -200 45 -200 45
5768973045.5076 -5.0106487 17.793558 -200 45 -200 45 -200 45
5769973162.1937 -5.0127606 17.797647 -200 45 -200 45 -200 45
5770973278.8798 -5.0185394 17.793034 -200 45 -200 45 -200 45
5771973395.5659 -5.0297275 17.784668 -200 45 -200 45 -200 45
5772973512.252 -5.0438609 17.76597 -200 45 -200 45 -200 45
5773973628.9382 -5.0503855 17.796309 -200 45 -200 45 -200 45
5774973745.6243 -5.0552278 17.797697 -200 45 -200 45 -200 45
5775973862.3104 -5.0539203 17.800882 -200 45 -200 45 -200 45
5776973978.9965 -5.0570817 17.793655 -200 45 -200 45 -200 45
5777974095.6826 -5.0529046 17.784697 -200 45 -200 45 -200 45
5778974212.3687 -5.0428486 17.768808 -200 45 -200 45 -200 45
5779974329.0548 -5.0362649 17.744059 -200 45 -200 45 -200 45
5780974445.741 -5.0353642 17.752956 -200 45 -200 45 -200 45
5781974562.4271 -5.0384197 17.766785 -200 45 -200 45 -200 45
5782974679.1132 -5.0453753 17.767355 -200 45 -200 45 -200 45
5783974795.7993 -5.0431523 17.79142 -200 45 -200 45 -200 45
5784974912.4854 -5.0430355 17.760002 -200 45 -200 45 -200 45
5785975029.1715 -5.0499306 17.783449 -200 45 -200 45 -200 45
5786975145.8576 -5.055717 17.766621 -200 45 -200 45 -200 45
5787975262.5438 -5.0697398 17.756929 -200 45 -200 45 -200 45
5788975379.2299 -5.0821338 17.777355 -200 45 -200 45 -200 45
5789975495.916 -5.088593 17.781624 -200 45 -200 45 -200 45
5790975612.6021 -5.0912781 17.797161 -200 45 -200 45 -200 45
5791975729.2882 -5.0934925 17.805653 -200 45 -200 45 -200 45
5792975845.9743 -5.0933161 17.807495 -200 45 -200 45 -200 45
5793975962.6604 -5.0896344 17.765661 -200 45 -200 45 -200 45
5794976079.3466 -5.0785751 17.746021 -200 45 -200 45 -200 45
5795976196.0327 -5.0737414 17.753887 -200 45 -200 45 -200 45
5796976312.7188 -5.0753961 17.768932 -200 45 -200 45 -200 45
5797976429.4049 -5.0783925 17.807905 -200 45 -200 45 -200 45
5798976546.091 -5.0830002 17.800291 -200 45 -200 45 -200 45
5799976662.7771 -5.0843534 17.785753 -200 45 -200 45 -200 45
5800976779.4632 -5.080543 17.780592 -200 45 -200 45 -200 45
5801976896.1494 -5.0847235 17.794931 -200 45 -200 45 -200 45
5802977012.8355 -5.0942869 17.77379 -200 45 -200 45 -200 45
5803977129.5216 -5.1095252 17.77722 -200 45 -200 45 -200 45
5804977246.2077 -5.121285 17.823561 -200 45 -200 45 -200 45
5805977362.8938 -5.1266699 17.824881 -200 45 -200 45 -200 45
5806977479.5799 -5.1263151 17.826601 -200 45 -200 45 -200 45
5807977596.266 -5.1289511 17.837875 -200 45 -200 45 -200 45
5808977712.9522 -5.1259952 17.822277 -200 45 -200 45 -200 45
5809977829.6383 -5.1202011 17.803011 -200 45 -200 45 -200 45
5810977946.3244 -5.1102009 17.792288 -200 45 -200 45 -200 45
5811978063.0105 -5.106133 17.796106 -200 45 -200 45 -200 45
5812978179.6966 -5.1091962 17.821409 -200 45 -200 45 -200 45
5813978296.3827 -5.1120005 17.84798 -200 45 -200 45 -200 45
5814978413.0688 -5.1172853 17.825657 -200 45 -200 45 -200 45
5815978529.755 -5.1156673 17.834707 -200 45 -200 45 -200 45
5816978646.4411 -5.1159253 17.799938 -200 45 -200 45 -200 45
5817978763.1272 -5.1217661 17.789076 -200 45 -200 45 -200 45
5818978879.8133 -5.1334147 17.826918 -200 45 -200 45 -200 45
5819978996.4994 -5.1505451 17.846502 -200 45 -200 45 -200 45
5820979113.1855 -5.1604605 17.85335 -200 45 -200 45 -200 45
5821979229.8716 -5.1633282 17.85605 -200 45 -200 45 -200 45
5822979346.5578 -5.1659155 17.862831 -200 45 -200 45 -200 45
5823979463.2439 -5.1654077 17.855608 -200 45 -200 45 -200 45
5824979579.93 -5.1599326 17.826986 -200 45 -200 45 -200 45
5825979696.6161 -5.153801 17.814667 -200 45 -200 45 -200 45
5826979813.3022 -5.146903 17.813833 -200 45 -200 45 -200 45
5827979929.9883 -5.1433406 17.832863 -200 45 -200 45 -200 45
5828980046.6744 -5.1478801 17.866795 -200 45 -200 45 -200 45
5829980163.3606 -5.152513 17.876196 -200 45 -200 45 -200 45
5830980280.0467 -5.1550369 17.857868 -200 45 -200 45 -200 45
5831980396.7328 -5.1513019 17.836336 -200 45 -200 45 -200 45
5832980513.4189 -5.1495371 17.847656 -200 45 -200 45 -200 45
5833980630.105 -5.1596303 17.84535 -200 45 -200 45 -200 45
5834980746.7911 -5.1746187 17.867079 -200 45 -200 45 -200 45
5835980863.4772 -5.1882358 17.867338 -200 45 -200 45 -200 45
5836980980.1634 -5.1970401 17.883759 -200 45 -200 45 -200 45
5837981096.8495 -5.1999903 17.890888 -200 45 -200 45 -200 45
5838981213.5356 -5.1993866 17.882849 -200 45 -200 45 -200 45
5839981330.2217 -5.1963949 17.892527 -200 45 -200 45 -200 45
5840981446.9078 -5.1918015 17.84009 -200 45 -200 45 -200 45
5841981563.5939 -5.18608 17.856369 -200 45 -200 45 -200 45
5842981680.28 -5.1870699 17.862619 -200 45 -200 45 -200 45
5843981796.9662 -5.1833673 17.877434 -200 45 -200 45 -200 45
5844981913.6523 -5.1909986 17.894878 -200 45 -200 45 -200 45
5845982030.3384 -5.193789 17.910536 -200 45 -200 45 -200 45
5846982147.0245 -5.1953168 17.882082 -200 45 -200 45 -200 45
5847982263.7106 -5.1936793 17.879553 -200 45 -200 45 -200 45
5848982380.3967 -5.1983967 17.863785 -200 45 -200 45 -200 45
5849982497.0828 -5.2146311 17.895023 -200 45 -200 45 -200 45
5850982613.769 -5.2304926 17.926388 -200 45 -200 45 -200 45
5851982730.4551 -5.2440634 17.958019 -200 45 -200 45 -200 45
5852982847.1412 -5.2489958 17.963472 -200 45 -200 45 -200 45
5853982963.8273 -5.2521906 17.963371 -200 45 -200 45 -200 45
5854983080.5134 -5.2562637 17.942408 -200 45 -200 45 -200 45
5855983197.1995 -5.2549024 17.938477 -200 45 -200 45 -200 45
5856983313.8856 -5.2522836 17.945438 -200 45 -200 45 -200 45
5857983430.5718 -5.2483053 17.964161 -200 45 -200 45 -200 45
5858983547.2579 -5.2478962 18.009136 -200 45 -200 45 -200 45
5859983663.944 -5.253396 18.023031 -200 45 -200 45 -200 45
5860983780.6301 -5.2565193 18.068729 -200 45 -200 45 -200 45
5861983897.3162 -5.2603679 18.087193 -200 45 -200 45 -200 45
5862984014.0023 -5.2626424 18.099831 -200 45 -200 45 -200 45
5863984130.6884 -5.2634573 18.099108 -200 45 -200 45 -200 45
5864984247.3746 -5.2747922 18.15246 -200 45 -200 45 -200 45
5865984364.0607 -5.2911944 18.217409 -200 45 -200 45 -200 45
5866984480.7468 -5.3086576 18.261736 -200 45 -200 45 -200 45
5867984597.4329 -5.3211651 18.325516 -200 45 -200 45 -200 45
5868984714.119 -5.3201022 18.380301 -200 45 -200 45 -200 45
5869984830.8051 -5.3236332 18.41927 -200 45 -200 45 -200 45
5870984947.4912 -5.3194656 18.445522 -200 45 -200 45 -200 45
5871985064.1774 -5.3174691 18.503675 -200 45 -200 45 -200 45
5872985180.8635 -5.3146849 18.555759 -200 45 -200 45 -200 45
5873985297.5496 -5.3058147 18.610929 -200 45 -200 45 -200 45
5874985414.2357 -5.298255 18.662901 -200 45 -200 45 -200 45
5875985530.9218 -5.294661 18.710493 -200 45 -200 45 -200 45
5876985647.6079 -5.2918358 18.760237 -200 45 -200 45 -200 45
5877985764.294 -5.2871313 18.790112 -200 45 -200 45 -200 45
5878985880.9802 -5.2779131 18.807335 -200 45 -200 45 -200 45
5879985997.6663 -5.2740092 18.838795 -200 45 -200 45 -200 45
5880986114.3524 -5.280684 18.887407 -200 45 -200 45 -200 45
5881986231.0385 -5.2895074 18.93861 -200 45 -200 45 -200 45
5882986347.7246 -5.2902741 18.957809 -200 45 -200 45 -200 45
5883986464.4107 -5.2910385 18.953815 -200 45 -200 45 -200 45
5884986581.0968 -5.2852612 18.977734 -200 45 -200 45 -200 45
5885986697.783 -5.2810402 18.968296 -200 45 -200 45 -200 45
5886986814.4691 -5.2715092 18.984182 -200 45 -200 45 -200 45
5887986931.1552 -5.2665114 18.977821 -200 45 -200 45 -200 45
5888987047.8413 -5.2563334 18.986174 -200 45 -200 45 -200 45
5889987164.5274 -5.2453556 18.983816 -200 45 -200 45 -200 45
5890987281.2135 -5.2365961 18.994574 -200 45 -200 45 -200 45
5891987397.8997 -5.2338724 18.985477 -200 45 -200 45 -200 45
5892987514.5858 -5.2328291 18.980593 -200 45 -200 45 -200 45
5893987631.2719 -5.2285733 18.952875 -200 45 -200 45 -200 45
5894987747.958 -5.2228198 18.952421 -200 45 -200 45 -200 45
5895987864.6441 -5.2278624 18.957024 -200 45 -200 45 -200 45
5896987981.3302 -5.2330899 18.993803 -200 45 -200 45 -200 45
5897988098.0163 -5.2429566 18.988449 -200 45 -200 45 -200 45
5898988214.7025 -5.2530065 18.986282 -200 45 -200 45 -200 45
5899988331.3886 -5.2509623 18.99864 -200 45 -200 45 -200 45
5900988448.0747 -5.2507219 18.964048 -200 45 -200 45 -200 45
5901988564.7608 -5.2475467 18.959169 -200 45 -200 45 -200 45
5902988681.4469 -5.2445869 18.950798 -200 45 -200 45 -200 45
5903988798.133 -5.2423396 18.961102 -200 45 -200 45 -200 45
5904988914.8191 -5.2323017 18.946875 -200 45 -200 45 -200 45
5905989031.5053 -5.2241206 18.935995 -200 45 -200 45 -200 45
5906989148.1914 -5.2212267 18.933857 -200 45 -200 45 -200 45
5907989264.8775 -5.2182665 18.930038 -200 45 -200 45 -200 45
5908989381.5636 -5.2208419 18.926563 -200 45 -200 45 -200 45
5909989498.2497 -5.2170205 18.893534 -200 45 -200 45 -200 45
5910989614.9358 -5.2157183 18.893963 -200 45 -200 45 -200 45
5911989731.6219 -5.2226605 18.90711 -200 45 -200 45 -200 45
5912989848.3081 -5.2342706 18.911335 -200 45 -200 45 -200 45
5913989964.9942 -5.2403135 18.917627 -200 45 -200 45 -200 45
5914990081.6803 -5.2493634 18.903118 -200 45 -200 45 -200 45
5915990198.3664 -5.2499032 18.879103 -200 45 -200 45 -200 45
5916990315.0525 -5.2461429 18.879139 -200 45 -200 45 -200 45
5917990431.7386 -5.2457056 18.867069 -200 45 -200 45 -200 45
5918990548.4247 -5.2488737 18.878643 -200 45 -200 45 -200 45
5919990665.1109 -5.2449584 18.853565 -200 45 -200 45 -200 45
5920990781.797 -5.2342367 18.847513 -200 45 -200 45 -200 45
5921990898.4831 -5.2278757 18.834461 -200 45 -200 45 -200 45
5922991015.1692 -5.2280641 18.835796 -200 45 -200 45 -200 45
5923991131.8553 -5.2282004 18.825251 -200 45 -200 45 -200 45
5924991248.5414 -5.2296543 18.822348 -200 45 -200 45 -200 45
5925991365.2275 -5.2300978 18.811972 -200 45 -200 45 -200 45
5926991481.9137 -5.2327895 18.812651 -200 45 -200 45 -200 45
5927991598.5998 -5.2424808 18.824902 -200 45 -200 45 -200 45
5928991715.2859 -5.2518921 18.819836 -200 45 -200 45 -200 45
5929991831.972 -5.2651405 18.804598 -200 45 -200 45 -200 45
5930991948.6581 -5.2701335 18.811153 -200 45 -200 45 -200 45
5931992065.3442 -5.2725596 18.793627 -200 45 -200 45 -200 45
5932992182.0303 -5.2741632 18.797314 -200 45 -200 45 -200 45
5933992298.7165 -5.2750196 18.79286 -200 45 -200 45 -200 45
5934992415.4026 -5.2777572 18.814688 -200 45 -200 45 -200 45
5935992532.0887 -5.274199 18.796854 -200 45 -200 45 -200 45
5936992648.7748 -5.2631769 18.745251 -200 45 -200 45 -200 45
5937992765.4609 -5.2566271 18.759161 -200 45 -200 45 -200 45
5938992882.147 -5.2618494 18.766665 -200 45 -200 45 -200 45
5939992998.8331 -5.2615929 18.769102 -200 45 -200 45 -200 45
5940993115.5193 -5.2655921 18.756483 -200 45 -200 45 -200 45
5941993232.2054 -5.2705069 18.763081 -200 45 -200 45 -200 45
5942993348.8915 -5.2752185 18.778175 -200 45 -200 45 -200 45
5943993465.5776 -5.2825308 18.760372 -200 45 -200 45 -200 45
5944993582.2637 -5.2927117 18.778915 -200 45 -200 45 -200 45
5945993698.9498 -5.3034759 18.773333 -200 45 -200 45 -200 45
5946993815.6359 -5.3115163 18.762705 -200 45 -200 45 -200 45
5947993932.3221 -5.3138056 18.776285 -200 45 -200 45 -200 45
5948994049.0082 -5.3198309 18.790365 -200 45 -200 45 -200 45
5949994165.6943 -5.3237066 18.811829 -200 45 -200 45 -200 45
5950994282.3804 -5.3228688 18.818701 -200 45 -200 45 -200 45
5951994399.0665 -5.316081 18.807093 -200 45 -200 45 -200 45
5952994515.7526 -5.3091149 18.792536 -200 45 -200 45 -200 45
5953994632.4387 -5.3069057 18.794338 -200 45 -200 45 -200 45
5954994749.1249 -5.3102713 18.822086 -200 45 -200 45 -200 45
5955994865.811 -5.3166442 18.85391 -200 45 -200 45 -200 45
5956994982.4971 -5.3210549 18.864103 -200 45 -200 45 -200 45
5957995099.1832 -5.3257604 18.891367 -200 45 -200 45 -200 45
5958995215.8693 -5.3319936 18.909386 -200 45 -200 45 -200 45
5959995332.5554 -5.342577 18.937979 -200 45 -200 45 -200 45
5960995449.2415 -5.3509159 18.973619 -200 45 -200 45 -200 45
5961995565.9277 -5.3641486 18.988697 -200 45 -200 45 -200 45
5962995682.6138 -5.3709278 19.012844 -200 45 -200 45 -200 45
5963995799.2999 -5.369678 19.062201 -200 45 -200 45 -200 45
5964995915.986 -5.3728814 19.116901 -200 45 -200 45 -200 45
5965996032.6721 -5.3709393 19.169504 -200 45 -200 45 -200 45
5966996149.3582 -5.3652697 19.183969 -200 45 -200 45 -200 45
5967996266.0443 -5.3518949 19.189032 -200 45 -200 45 -200 45
5968996382.7305 -5.3397202 19.208538 -200 45 -200 45 -200 45
5969996499.4166 -5.3322239 19.238554 -200 45 -200 45 -200 45
5970996616.1027 -5.3301992 19.277382 -200 45 -200 45 -200 45
5971996732.7888 -5.3321223 19.300611 -200 45 -200 45 -200 45
5972996849.4749 -5.3280439 19.327473 -200 45 -200 45 -200 45
5973996966.161 -5.3233533 19.346649 -200 45 -200 45 -200 45
5974997082.8471 -5.3233418 19.34621 -200 45 -200 45 -200 45
5975997199.5333 -5.3308916 19.328997 -200 45 -200 45 -200 45
5976997316.2194 -5.3351493 19.344873 -200 45 -200 45 -200 45
5977997432.9055 -5.3409085 19.357304 -200 45 -200 45 -200 45
5978997549.5916 -5.3451681 19.378071 -200 45 -200 45 -200 45
5979997666.2777 -5.342339 19.378757 -200 45 -200 45 -200 45
5980997782.9638 -5.3427691 19.366446 -200 45 -200 45 -200 45
5981997899.6499 -5.3402247 19.3729 -200 45 -200 45 -200 45
5982998016.3361 -5.3303189 19.346626 -200 45 -200 45 -200 45
5983998133.0222 -5.3156047 19.305096 -200 45 -200 45 -200 45
5984998249.7083 -5.3068895 19.320702 -200 45 -200 45 -200 45
5985998366.3944 -5.3079925 19.329294 -200 45 -200 45 -200 45
5986998483.0805 -5.312418 19.357189 -200 45 -200 45 -200 45
5987998599.7666 -5.3102393 19.354856 -200 45 -200 45 -200 45
5988998716.4527 -5.3107586 19.354225 -200 45 -200 45 -200 45
5989998833.1389 -5.3104177 19.333691 -200 45 -200 45 -200 45
5990998949.825 -5.3106785 19.320612 -200 45 -200 45 -200 45
5991999066.5111 -5.3204408 19.329523 -200 45 -200 45 -200 45
5992999183.1972 -5.331574 19.324541 -200 45 -200 45 -200 45
5993999299.8833 -5.3407698 19.327841 -200 45 -200 45 -200 45
5994999416.5694 -5.3425312 19.358702 -200 45 -200 45 -200 45
5995999533.2555 -5.3420157 19.375778 -200 45 -200 45 -200 45
5996999649.9417 -5.3409638 19.3591 -200 45 -200 45 -200 45
5997999766.6278 -5.3357706 19.340939 -200 45 -200 45 -200 45
5998999883.3139 -5.325808 19.313185 -200 45 -200 45 -200 45
6000000000 -5.3143811 19.29784 -200 45 -200 45 -200 45
