!Keysight Technologies,P9374A,MY57304198,A.17.20.09
!Date: Thursday, August 15, 2024 13:02:40
!Correction: S11(C  1-Port  ) 
!S21(C  1-Port  ) 
!S12(Off) 
!S22(Off) 
!S2P File: Measurements: S11, S21, S12, S22:
# Hz S  dB   R 50
300000 -0.00036785519 -0.024913317 -200 45 -200 45 -200 45
1300116.6861144 -0.00042222068 -0.063766345 -200 45 -200 45 -200 45
2300233.3722287 6.2125881e-005 -0.11451593 -200 45 -200 45 -200 45
3300350.0583431 0.0021764645 -0.17011471 -200 45 -200 45 -200 45
4300466.7444574 0.0023156591 -0.22141211 -200 45 -200 45 -200 45
5300583.4305718 0.0021930232 -0.29026392 -200 45 -200 45 -200 45
6300700.1166861 0.00039137821 -0.36784118 -200 45 -200 45 -200 45
7300816.8028005 -0.0056548459 -0.42431867 -200 45 -200 45 -200 45
8300933.4889148 -0.012231503 -0.45228055 -200 45 -200 45 -200 45
9301050.1750292 -0.0077717048 -0.48192066 -200 45 -200 45 -200 45
10301166.861144 -0.00069431716 -0.52751613 -200 45 -200 45 -200 45
11301283.547258 0.00054201833 -0.57703936 -200 45 -200 45 -200 45
12301400.233372 -0.0039051003 -0.62732297 -200 45 -200 45 -200 45
13301516.919487 -0.0038804866 -0.67258918 -200 45 -200 45 -200 45
14301633.605601 -0.0025663164 -0.72535211 -200 45 -200 45 -200 45
15301750.291715 -0.0044883569 -0.78149253 -200 45 -200 45 -200 45
16301866.97783 -0.0029393106 -0.81520975 -200 45 -200 45 -200 45
17301983.663944 -0.0065815737 -0.87658715 -200 45 -200 45 -200 45
18302100.350058 -0.0027525506 -0.92156285 -200 45 -200 45 -200 45
19302217.036173 -0.0024440642 -0.97648817 -200 45 -200 45 -200 45
20302333.722287 -0.0030763424 -1.0226085 -200 45 -200 45 -200 45
21302450.408401 -0.0041349214 -1.079499 -200 45 -200 45 -200 45
22302567.094516 -0.0075497297 -1.1195027 -200 45 -200 45 -200 45
23302683.78063 -0.0056693605 -1.1649163 -200 45 -200 45 -200 45
24302800.466744 -0.0075881076 -1.2283347 -200 45 -200 45 -200 45
25302917.152859 -0.0075899228 -1.2576793 -200 45 -200 45 -200 45
26303033.838973 -0.0095152259 -1.3136584 -200 45 -200 45 -200 45
27303150.525088 -0.0075134262 -1.3739896 -200 45 -200 45 -200 45
28303267.211202 -0.0090148188 -1.4236531 -200 45 -200 45 -200 45
29303383.897316 -0.008972019 -1.4740425 -200 45 -200 45 -200 45
30303500.583431 -0.010235457 -1.5234613 -200 45 -200 45 -200 45
31303617.269545 -0.012145839 -1.5662868 -200 45 -200 45 -200 45
32303733.955659 -0.010757802 -1.6152835 -200 45 -200 45 -200 45
33303850.641774 -0.011196381 -1.6557213 -200 45 -200 45 -200 45
34303967.327888 -0.01180346 -1.7259073 -200 45 -200 45 -200 45
35304084.014002 -0.013575347 -1.7567412 -200 45 -200 45 -200 45
36304200.700117 -0.014940907 -1.8060585 -200 45 -200 45 -200 45
37304317.386231 -0.012060177 -1.8643177 -200 45 -200 45 -200 45
38304434.072345 -0.016650669 -1.9026941 -200 45 -200 45 -200 45
39304550.75846 -0.016026804 -1.962775 -200 45 -200 45 -200 45
40304667.444574 -0.017094783 -2.0113285 -200 45 -200 45 -200 45
41304784.130688 -0.018590134 -2.0561757 -200 45 -200 45 -200 45
42304900.816803 -0.018382942 -2.1136072 -200 45 -200 45 -200 45
43305017.502917 -0.020204848 -2.1545146 -200 45 -200 45 -200 45
44305134.189032 -0.019050306 -2.2158377 -200 45 -200 45 -200 45
45305250.875146 -0.020703426 -2.2559345 -200 45 -200 45 -200 45
46305367.56126 -0.022564035 -2.3046298 -200 45 -200 45 -200 45
47305484.247375 -0.023620607 -2.3625889 -200 45 -200 45 -200 45
48305600.933489 -0.023031134 -2.4032748 -200 45 -200 45 -200 45
49305717.619603 -0.024013376 -2.4616485 -200 45 -200 45 -200 45
50305834.305718 -0.02543534 -2.5061026 -200 45 -200 45 -200 45
51305950.991832 -0.026264209 -2.5695808 -200 45 -200 45 -200 45
52306067.677946 -0.026672322 -2.6209395 -200 45 -200 45 -200 45
53306184.364061 -0.026952058 -2.6590812 -200 45 -200 45 -200 45
54306301.050175 -0.028921667 -2.7130885 -200 45 -200 45 -200 45
55306417.736289 -0.029393619 -2.7656007 -200 45 -200 45 -200 45
56306534.422404 -0.029795511 -2.8363793 -200 45 -200 45 -200 45
57306651.108518 -0.030795969 -2.8795176 -200 45 -200 45 -200 45
58306767.794632 -0.032320559 -2.9239297 -200 45 -200 45 -200 45
59306884.480747 -0.031347387 -2.9818943 -200 45 -200 45 -200 45
60307001.166861 -0.036457147 -3.036042 -200 45 -200 45 -200 45
61307117.852975 -0.038879506 -3.0906174 -200 45 -200 45 -200 45
62307234.53909 -0.036847159 -3.1504776 -200 45 -200 45 -200 45
63307351.225204 -0.037728868 -3.2005806 -200 45 -200 45 -200 45
64307467.911319 -0.039065737 -3.2472122 -200 45 -200 45 -200 45
65307584.597433 -0.041744895 -3.309206 -200 45 -200 45 -200 45
66307701.283547 -0.041665182 -3.3420603 -200 45 -200 45 -200 45
67307817.969662 -0.04385772 -3.4121826 -200 45 -200 45 -200 45
68307934.655776 -0.044794466 -3.4549463 -200 45 -200 45 -200 45
69308051.34189 -0.045769874 -3.5103028 -200 45 -200 45 -200 45
70308168.028005 -0.048396368 -3.5606129 -200 45 -200 45 -200 45
71308284.714119 -0.047396034 -3.6099381 -200 45 -200 45 -200 45
72308401.400233 -0.047058456 -3.6678646 -200 45 -200 45 -200 45
73308518.086348 -0.051129222 -3.7135768 -200 45 -200 45 -200 45
74308634.772462 -0.052608043 -3.7592208 -200 45 -200 45 -200 45
75308751.458576 -0.055188864 -3.8077323 -200 45 -200 45 -200 45
76308868.144691 -0.056183916 -3.8647823 -200 45 -200 45 -200 45
77308984.830805 -0.059251782 -3.8995245 -200 45 -200 45 -200 45
78309101.516919 -0.058351524 -3.9483223 -200 45 -200 45 -200 45
79309218.203034 -0.059015088 -4.0095615 -200 45 -200 45 -200 45
80309334.889148 -0.059577189 -4.0692286 -200 45 -200 45 -200 45
81309451.575263 -0.061728377 -4.1113367 -200 45 -200 45 -200 45
82309568.261377 -0.064289927 -4.1415987 -200 45 -200 45 -200 45
83309684.947491 -0.064501427 -4.1899066 -200 45 -200 45 -200 45
84309801.633606 -0.06736958 -4.2569623 -200 45 -200 45 -200 45
85309918.31972 -0.068131283 -4.3012538 -200 45 -200 45 -200 45
86310035.005834 -0.070956841 -4.3373456 -200 45 -200 45 -200 45
87310151.691949 -0.071406014 -4.397501 -200 45 -200 45 -200 45
88310268.378063 -0.069611959 -4.4446769 -200 45 -200 45 -200 45
89310385.064177 -0.076460928 -4.4941816 -200 45 -200 45 -200 45
90310501.750292 -0.07461264 -4.513423 -200 45 -200 45 -200 45
91310618.436406 -0.074507833 -4.5625396 -200 45 -200 45 -200 45
92310735.12252 -0.079260275 -4.6211381 -200 45 -200 45 -200 45
93310851.808635 -0.080085509 -4.6538086 -200 45 -200 45 -200 45
94310968.494749 -0.080133766 -4.7132883 -200 45 -200 45 -200 45
95311085.180863 -0.082089923 -4.7452765 -200 45 -200 45 -200 45
96311201.866978 -0.08308772 -4.7929211 -200 45 -200 45 -200 45
97311318.553092 -0.08854381 -4.842309 -200 45 -200 45 -200 45
98311435.239207 -0.088779211 -4.8744545 -200 45 -200 45 -200 45
99311551.925321 -0.090940423 -4.9231873 -200 45 -200 45 -200 45
100311668.61144 -0.091205038 -4.9641638 -200 45 -200 45 -200 45
101311785.29755 -0.093912855 -5.0060978 -200 45 -200 45 -200 45
102311901.98366 -0.094264679 -5.0576987 -200 45 -200 45 -200 45
103312018.66978 -0.096909299 -5.1021004 -200 45 -200 45 -200 45
104312135.35589 -0.099099189 -5.1337948 -200 45 -200 45 -200 45
105312252.04201 -0.099751793 -5.1731691 -200 45 -200 45 -200 45
106312368.72812 -0.10000952 -5.2258945 -200 45 -200 45 -200 45
107312485.41424 -0.10265657 -5.2519493 -200 45 -200 45 -200 45
108312602.10035 -0.10315304 -5.3089066 -200 45 -200 45 -200 45
109312718.78646 -0.10615136 -5.3354397 -200 45 -200 45 -200 45
110312835.47258 -0.10495942 -5.3977733 -200 45 -200 45 -200 45
111312952.15869 -0.11016057 -5.4434729 -200 45 -200 45 -200 45
112313068.84481 -0.10986214 -5.4739933 -200 45 -200 45 -200 45
113313185.53092 -0.11288794 -5.5163918 -200 45 -200 45 -200 45
114313302.21704 -0.11420695 -5.567522 -200 45 -200 45 -200 45
115313418.90315 -0.11859363 -5.6010103 -200 45 -200 45 -200 45
116313535.58926 -0.12014378 -5.6445036 -200 45 -200 45 -200 45
117313652.27538 -0.12225863 -5.6933813 -200 45 -200 45 -200 45
118313768.96149 -0.12257015 -5.7399631 -200 45 -200 45 -200 45
119313885.64761 -0.12612391 -5.7911305 -200 45 -200 45 -200 45
120314002.33372 -0.12796679 -5.8273973 -200 45 -200 45 -200 45
121314119.01984 -0.13012439 -5.8850522 -200 45 -200 45 -200 45
122314235.70595 -0.13227266 -5.9115496 -200 45 -200 45 -200 45
123314352.39207 -0.13609745 -5.9698849 -200 45 -200 45 -200 45
124314469.07818 -0.13651869 -6.0176697 -200 45 -200 45 -200 45
125314585.76429 -0.1385977 -6.0476842 -200 45 -200 45 -200 45
126314702.45041 -0.14044027 -6.093174 -200 45 -200 45 -200 45
127314819.13652 -0.14480616 -6.1417446 -200 45 -200 45 -200 45
128314935.82264 -0.14431186 -6.1809425 -200 45 -200 45 -200 45
129315052.50875 -0.14799273 -6.2355289 -200 45 -200 45 -200 45
130315169.19487 -0.15016165 -6.2677617 -200 45 -200 45 -200 45
131315285.88098 -0.15069628 -6.3269753 -200 45 -200 45 -200 45
132315402.56709 -0.15265124 -6.3876739 -200 45 -200 45 -200 45
133315519.25321 -0.15478842 -6.4231791 -200 45 -200 45 -200 45
134315635.93932 -0.1568625 -6.4838734 -200 45 -200 45 -200 45
135315752.62544 -0.16010709 -6.5134959 -200 45 -200 45 -200 45
136315869.31155 -0.16265211 -6.5742474 -200 45 -200 45 -200 45
137315985.99767 -0.16461514 -6.6346645 -200 45 -200 45 -200 45
138316102.68378 -0.16652635 -6.6752057 -200 45 -200 45 -200 45
139316219.36989 -0.16660435 -6.7185841 -200 45 -200 45 -200 45
140316336.05601 -0.16808939 -6.7825241 -200 45 -200 45 -200 45
141316452.74212 -0.17118701 -6.8254356 -200 45 -200 45 -200 45
142316569.42824 -0.17257881 -6.860991 -200 45 -200 45 -200 45
143316686.11435 -0.17565753 -6.9190259 -200 45 -200 45 -200 45
144316802.80047 -0.17877755 -6.960834 -200 45 -200 45 -200 45
145316919.48658 -0.18051527 -7.0268555 -200 45 -200 45 -200 45
146317036.1727 -0.18395177 -7.089478 -200 45 -200 45 -200 45
147317152.85881 -0.18426289 -7.1273685 -200 45 -200 45 -200 45
148317269.54492 -0.18490708 -7.1838703 -200 45 -200 45 -200 45
149317386.23104 -0.18845978 -7.2324386 -200 45 -200 45 -200 45
150317502.91715 -0.19039395 -7.3032317 -200 45 -200 45 -200 45
151317619.60327 -0.19582495 -7.3438435 -200 45 -200 45 -200 45
152317736.28938 -0.19337924 -7.3907242 -200 45 -200 45 -200 45
153317852.9755 -0.1982864 -7.4420938 -200 45 -200 45 -200 45
154317969.66161 -0.20044616 -7.4828205 -200 45 -200 45 -200 45
155318086.34772 -0.2028199 -7.5335913 -200 45 -200 45 -200 45
156318203.03384 -0.20402354 -7.5722656 -200 45 -200 45 -200 45
157318319.71995 -0.2078336 -7.6340394 -200 45 -200 45 -200 45
158318436.40607 -0.20810325 -7.6777201 -200 45 -200 45 -200 45
159318553.09218 -0.20995519 -7.7164454 -200 45 -200 45 -200 45
160318669.7783 -0.212625 -7.7640443 -200 45 -200 45 -200 45
161318786.46441 -0.21617191 -7.812613 -200 45 -200 45 -200 45
162318903.15053 -0.21674818 -7.8440328 -200 45 -200 45 -200 45
163319019.83664 -0.22284248 -7.898633 -200 45 -200 45 -200 45
164319136.52275 -0.2221643 -7.934401 -200 45 -200 45 -200 45
165319253.20887 -0.22643264 -7.9885535 -200 45 -200 45 -200 45
166319369.89498 -0.22896361 -8.0249424 -200 45 -200 45 -200 45
167319486.5811 -0.2325187 -8.0574436 -200 45 -200 45 -200 45
168319603.26721 -0.23155013 -8.1216049 -200 45 -200 45 -200 45
169319719.95333 -0.23556288 -8.1581984 -200 45 -200 45 -200 45
170319836.63944 -0.23718542 -8.201992 -200 45 -200 45 -200 45
171319953.32555 -0.23833573 -8.236021 -200 45 -200 45 -200 45
172320070.01167 -0.23960696 -8.2551908 -200 45 -200 45 -200 45
173320186.69778 -0.24267255 -8.327817 -200 45 -200 45 -200 45
174320303.3839 -0.24687971 -8.3381529 -200 45 -200 45 -200 45
175320420.07001 -0.24861778 -8.3827419 -200 45 -200 45 -200 45
176320536.75613 -0.25078079 -8.4192686 -200 45 -200 45 -200 45
177320653.44224 -0.25344014 -8.4462862 -200 45 -200 45 -200 45
178320770.12835 -0.2566292 -8.4944124 -200 45 -200 45 -200 45
179320886.81447 -0.25943312 -8.5261831 -200 45 -200 45 -200 45
180321003.50058 -0.26060116 -8.5740633 -200 45 -200 45 -200 45
181321120.1867 -0.26247615 -8.6002455 -200 45 -200 45 -200 45
182321236.87281 -0.26582184 -8.636405 -200 45 -200 45 -200 45
183321353.55893 -0.2684001 -8.6756735 -200 45 -200 45 -200 45
184321470.24504 -0.27135825 -8.7165508 -200 45 -200 45 -200 45
185321586.93116 -0.27450752 -8.7324772 -200 45 -200 45 -200 45
186321703.61727 -0.27571908 -8.7603636 -200 45 -200 45 -200 45
187321820.30338 -0.2798866 -8.8028812 -200 45 -200 45 -200 45
188321936.9895 -0.28244811 -8.8307781 -200 45 -200 45 -200 45
189322053.67561 -0.2843442 -8.8684483 -200 45 -200 45 -200 45
190322170.36173 -0.28534395 -8.9011927 -200 45 -200 45 -200 45
191322287.04784 -0.28957802 -8.9450397 -200 45 -200 45 -200 45
192322403.73396 -0.29276299 -8.9715185 -200 45 -200 45 -200 45
193322520.42007 -0.29458654 -9.0051031 -200 45 -200 45 -200 45
194322637.10618 -0.2976194 -9.0339384 -200 45 -200 45 -200 45
195322753.7923 -0.30259919 -9.0744572 -200 45 -200 45 -200 45
196322870.47841 -0.30331504 -9.1131229 -200 45 -200 45 -200 45
197322987.16453 -0.30777007 -9.1499767 -200 45 -200 45 -200 45
198323103.85064 -0.3104187 -9.1787767 -200 45 -200 45 -200 45
199323220.53676 -0.31341308 -9.2160873 -200 45 -200 45 -200 45
200323337.22287 -0.31600168 -9.2519979 -200 45 -200 45 -200 45
201323453.90898 -0.31945267 -9.3021421 -200 45 -200 45 -200 45
202323570.5951 -0.32131398 -9.3416853 -200 45 -200 45 -200 45
203323687.28121 -0.32564968 -9.3614616 -200 45 -200 45 -200 45
204323803.96733 -0.32575095 -9.3978968 -200 45 -200 45 -200 45
205323920.65344 -0.32876545 -9.4306469 -200 45 -200 45 -200 45
206324037.33956 -0.3331019 -9.4775848 -200 45 -200 45 -200 45
207324154.02567 -0.33441347 -9.5292902 -200 45 -200 45 -200 45
208324270.71179 -0.33829746 -9.5557451 -200 45 -200 45 -200 45
209324387.3979 -0.34192026 -9.5877266 -200 45 -200 45 -200 45
210324504.08401 -0.34304625 -9.6553669 -200 45 -200 45 -200 45
211324620.77013 -0.34807423 -9.6913242 -200 45 -200 45 -200 45
212324737.45624 -0.35020009 -9.7553511 -200 45 -200 45 -200 45
213324854.14236 -0.35571763 -9.7829723 -200 45 -200 45 -200 45
214324970.82847 -0.35691381 -9.8208179 -200 45 -200 45 -200 45
215325087.51459 -0.36234787 -9.8846388 -200 45 -200 45 -200 45
216325204.2007 -0.36288169 -9.9291677 -200 45 -200 45 -200 45
217325320.88681 -0.36477211 -9.9754314 -200 45 -200 45 -200 45
218325437.57293 -0.36832127 -10.017806 -200 45 -200 45 -200 45
219325554.25904 -0.37123576 -10.068131 -200 45 -200 45 -200 45
220325670.94516 -0.3755869 -10.108326 -200 45 -200 45 -200 45
221325787.63127 -0.37801993 -10.156594 -200 45 -200 45 -200 45
222325904.31739 -0.3801184 -10.187051 -200 45 -200 45 -200 45
223326021.0035 -0.38409185 -10.231599 -200 45 -200 45 -200 45
224326137.68961 -0.38860169 -10.297519 -200 45 -200 45 -200 45
225326254.37573 -0.3885026 -10.354792 -200 45 -200 45 -200 45
226326371.06184 -0.39279684 -10.398844 -200 45 -200 45 -200 45
227326487.74796 -0.39586702 -10.441446 -200 45 -200 45 -200 45
228326604.43407 -0.39624786 -10.497861 -200 45 -200 45 -200 45
229326721.12019 -0.40022334 -10.543633 -200 45 -200 45 -200 45
230326837.8063 -0.40557262 -10.595124 -200 45 -200 45 -200 45
231326954.49242 -0.40671271 -10.646798 -200 45 -200 45 -200 45
232327071.17853 -0.40840048 -10.69523 -200 45 -200 45 -200 45
233327187.86464 -0.41196612 -10.746523 -200 45 -200 45 -200 45
234327304.55076 -0.41478047 -10.777545 -200 45 -200 45 -200 45
235327421.23687 -0.41778046 -10.834431 -200 45 -200 45 -200 45
236327537.92299 -0.42108658 -10.867072 -200 45 -200 45 -200 45
237327654.6091 -0.42469889 -10.931572 -200 45 -200 45 -200 45
238327771.29522 -0.42627317 -10.969126 -200 45 -200 45 -200 45
239327887.98133 -0.42988667 -11.010861 -200 45 -200 45 -200 45
240328004.66744 -0.43452129 -11.046661 -200 45 -200 45 -200 45
241328121.35356 -0.43573052 -11.090644 -200 45 -200 45 -200 45
242328238.03967 -0.43791318 -11.13615 -200 45 -200 45 -200 45
243328354.72579 -0.4406957 -11.187791 -200 45 -200 45 -200 45
244328471.4119 -0.44539493 -11.232562 -200 45 -200 45 -200 45
245328588.09802 -0.44830826 -11.268767 -200 45 -200 45 -200 45
246328704.78413 -0.44964248 -11.307109 -200 45 -200 45 -200 45
247328821.47025 -0.45337 -11.349841 -200 45 -200 45 -200 45
248328938.15636 -0.45903093 -11.380788 -200 45 -200 45 -200 45
249329054.84247 -0.45828781 -11.426509 -200 45 -200 45 -200 45
250329171.52859 -0.46250421 -11.454099 -200 45 -200 45 -200 45
251329288.2147 -0.46430972 -11.486499 -200 45 -200 45 -200 45
252329404.90082 -0.46914074 -11.519216 -200 45 -200 45 -200 45
253329521.58693 -0.47030714 -11.557997 -200 45 -200 45 -200 45
254329638.27305 -0.4738524 -11.582938 -200 45 -200 45 -200 45
255329754.95916 -0.47743174 -11.617791 -200 45 -200 45 -200 45
256329871.64527 -0.48013791 -11.642886 -200 45 -200 45 -200 45
257329988.33139 -0.48213592 -11.67623 -200 45 -200 45 -200 45
258330105.0175 -0.48534754 -11.699236 -200 45 -200 45 -200 45
259330221.70362 -0.48836684 -11.724323 -200 45 -200 45 -200 45
260330338.38973 -0.49304897 -11.75055 -200 45 -200 45 -200 45
261330455.07585 -0.49503696 -11.785465 -200 45 -200 45 -200 45
262330571.76196 -0.49714774 -11.799253 -200 45 -200 45 -200 45
263330688.44807 -0.5020532 -11.843905 -200 45 -200 45 -200 45
264330805.13419 -0.50422031 -11.851754 -200 45 -200 45 -200 45
265330921.8203 -0.50772911 -11.883154 -200 45 -200 45 -200 45
266331038.50642 -0.51187581 -11.910577 -200 45 -200 45 -200 45
267331155.19253 -0.5139823 -11.936382 -200 45 -200 45 -200 45
268331271.87865 -0.51787806 -11.950909 -200 45 -200 45 -200 45
269331388.56476 -0.5179078 -11.973748 -200 45 -200 45 -200 45
270331505.25088 -0.5220319 -11.998301 -200 45 -200 45 -200 45
271331621.93699 -0.52856773 -12.022647 -200 45 -200 45 -200 45
272331738.6231 -0.53002888 -12.045952 -200 45 -200 45 -200 45
273331855.30922 -0.53222609 -12.067146 -200 45 -200 45 -200 45
274331971.99533 -0.53716755 -12.088357 -200 45 -200 45 -200 45
275332088.68145 -0.53965539 -12.105016 -200 45 -200 45 -200 45
276332205.36756 -0.54267955 -12.129566 -200 45 -200 45 -200 45
277332322.05368 -0.5466857 -12.161966 -200 45 -200 45 -200 45
278332438.73979 -0.5501129 -12.186553 -200 45 -200 45 -200 45
279332555.4259 -0.55438268 -12.212617 -200 45 -200 45 -200 45
280332672.11202 -0.55736798 -12.240081 -200 45 -200 45 -200 45
281332788.79813 -0.55987889 -12.261187 -200 45 -200 45 -200 45
282332905.48425 -0.56391388 -12.286395 -200 45 -200 45 -200 45
283333022.17036 -0.56696504 -12.333316 -200 45 -200 45 -200 45
284333138.85648 -0.57020164 -12.354519 -200 45 -200 45 -200 45
285333255.54259 -0.57266945 -12.389933 -200 45 -200 45 -200 45
286333372.2287 -0.57710546 -12.408786 -200 45 -200 45 -200 45
287333488.91482 -0.58051264 -12.440583 -200 45 -200 45 -200 45
288333605.60093 -0.58159363 -12.475117 -200 45 -200 45 -200 45
289333722.28705 -0.58739883 -12.510575 -200 45 -200 45 -200 45
290333838.97316 -0.59083515 -12.542785 -200 45 -200 45 -200 45
291333955.65928 -0.59302068 -12.58519 -200 45 -200 45 -200 45
292334072.34539 -0.59775764 -12.625284 -200 45 -200 45 -200 45
293334189.03151 -0.59918135 -12.657203 -200 45 -200 45 -200 45
294334305.71762 -0.60423946 -12.709282 -200 45 -200 45 -200 45
295334422.40373 -0.60880136 -12.737163 -200 45 -200 45 -200 45
296334539.08985 -0.61186129 -12.76965 -200 45 -200 45 -200 45
297334655.77596 -0.61849529 -12.828097 -200 45 -200 45 -200 45
298334772.46208 -0.61957413 -12.841631 -200 45 -200 45 -200 45
299334889.14819 -0.6220454 -12.896403 -200 45 -200 45 -200 45
300335005.83431 -0.62538099 -12.942253 -200 45 -200 45 -200 45
301335122.52042 -0.62791508 -12.988794 -200 45 -200 45 -200 45
302335239.20653 -0.6327678 -13.027225 -200 45 -200 45 -200 45
303335355.89265 -0.63646746 -13.063498 -200 45 -200 45 -200 45
304335472.57876 -0.63970828 -13.118285 -200 45 -200 45 -200 45
305335589.26488 -0.64141768 -13.161401 -200 45 -200 45 -200 45
306335705.95099 -0.64556229 -13.200967 -200 45 -200 45 -200 45
307335822.63711 -0.64891303 -13.249495 -200 45 -200 45 -200 45
308335939.32322 -0.65320832 -13.297328 -200 45 -200 45 -200 45
309336056.00933 -0.65653062 -13.340178 -200 45 -200 45 -200 45
310336172.69545 -0.65922064 -13.393122 -200 45 -200 45 -200 45
311336289.38156 -0.66304475 -13.44164 -200 45 -200 45 -200 45
312336406.06768 -0.66506445 -13.487345 -200 45 -200 45 -200 45
313336522.75379 -0.67043138 -13.544817 -200 45 -200 45 -200 45
314336639.43991 -0.67191267 -13.590964 -200 45 -200 45 -200 45
315336756.12602 -0.67565274 -13.608533 -200 45 -200 45 -200 45
316336872.81214 -0.67785984 -13.674163 -200 45 -200 45 -200 45
317336989.49825 -0.68246645 -13.715489 -200 45 -200 45 -200 45
318337106.18436 -0.68270999 -13.754743 -200 45 -200 45 -200 45
319337222.87048 -0.68660039 -13.803235 -200 45 -200 45 -200 45
320337339.55659 -0.6904251 -13.828358 -200 45 -200 45 -200 45
321337456.24271 -0.69377357 -13.88479 -200 45 -200 45 -200 45
322337572.92882 -0.69444817 -13.919519 -200 45 -200 45 -200 45
323337689.61494 -0.69851023 -13.956871 -200 45 -200 45 -200 45
324337806.30105 -0.70221823 -14.005295 -200 45 -200 45 -200 45
325337922.98716 -0.70505327 -14.038954 -200 45 -200 45 -200 45
326338039.67328 -0.70956904 -14.092875 -200 45 -200 45 -200 45
327338156.35939 -0.71173465 -14.119686 -200 45 -200 45 -200 45
328338273.04551 -0.71674216 -14.155917 -200 45 -200 45 -200 45
329338389.73162 -0.71696776 -14.186277 -200 45 -200 45 -200 45
330338506.41774 -0.71901149 -14.220744 -200 45 -200 45 -200 45
331338623.10385 -0.72249675 -14.23958 -200 45 -200 45 -200 45
332338739.78997 -0.72640061 -14.278988 -200 45 -200 45 -200 45
333338856.47608 -0.72710598 -14.306623 -200 45 -200 45 -200 45
334338973.16219 -0.73421311 -14.333992 -200 45 -200 45 -200 45
335339089.84831 -0.73450679 -14.350177 -200 45 -200 45 -200 45
336339206.53442 -0.73747224 -14.364717 -200 45 -200 45 -200 45
337339323.22054 -0.74127412 -14.410384 -200 45 -200 45 -200 45
338339439.90665 -0.74059039 -14.436203 -200 45 -200 45 -200 45
339339556.59277 -0.74715573 -14.457113 -200 45 -200 45 -200 45
340339673.27888 -0.74996525 -14.480723 -200 45 -200 45 -200 45
341339789.96499 -0.75288957 -14.508046 -200 45 -200 45 -200 45
342339906.65111 -0.75509191 -14.516728 -200 45 -200 45 -200 45
343340023.33722 -0.75892103 -14.535849 -200 45 -200 45 -200 45
344340140.02334 -0.76326853 -14.549404 -200 45 -200 45 -200 45
345340256.70945 -0.76834571 -14.576454 -200 45 -200 45 -200 45
346340373.39557 -0.76897758 -14.589095 -200 45 -200 45 -200 45
347340490.08168 -0.77436161 -14.604015 -200 45 -200 45 -200 45
348340606.76779 -0.77701259 -14.612064 -200 45 -200 45 -200 45
349340723.45391 -0.78089768 -14.633991 -200 45 -200 45 -200 45
350340840.14002 -0.7834655 -14.646301 -200 45 -200 45 -200 45
351340956.82614 -0.78585565 -14.656586 -200 45 -200 45 -200 45
352341073.51225 -0.7890833 -14.671759 -200 45 -200 45 -200 45
353341190.19837 -0.79315281 -14.681152 -200 45 -200 45 -200 45
354341306.88448 -0.79684585 -14.696141 -200 45 -200 45 -200 45
355341423.5706 -0.80098993 -14.703567 -200 45 -200 45 -200 45
356341540.25671 -0.80151665 -14.718596 -200 45 -200 45 -200 45
357341656.94282 -0.80824435 -14.74275 -200 45 -200 45 -200 45
358341773.62894 -0.81322962 -14.754385 -200 45 -200 45 -200 45
359341890.31505 -0.81534564 -14.767976 -200 45 -200 45 -200 45
360342007.00117 -0.81752092 -14.776083 -200 45 -200 45 -200 45
361342123.68728 -0.82251841 -14.818799 -200 45 -200 45 -200 45
362342240.3734 -0.82668048 -14.821322 -200 45 -200 45 -200 45
363342357.05951 -0.83026922 -14.836747 -200 45 -200 45 -200 45
364342473.74562 -0.83340585 -14.86585 -200 45 -200 45 -200 45
365342590.43174 -0.83881891 -14.874728 -200 45 -200 45 -200 45
366342707.11785 -0.84140211 -14.889132 -200 45 -200 45 -200 45
367342823.80397 -0.84549206 -14.933449 -200 45 -200 45 -200 45
368342940.49008 -0.84662533 -14.94402 -200 45 -200 45 -200 45
369343057.1762 -0.85221487 -14.971345 -200 45 -200 45 -200 45
370343173.86231 -0.8565824 -14.982922 -200 45 -200 45 -200 45
371343290.54842 -0.85863799 -15.02559 -200 45 -200 45 -200 45
372343407.23454 -0.86534077 -15.051533 -200 45 -200 45 -200 45
373343523.92065 -0.8691811 -15.07774 -200 45 -200 45 -200 45
374343640.60677 -0.87179476 -15.108871 -200 45 -200 45 -200 45
375343757.29288 -0.87746626 -15.133129 -200 45 -200 45 -200 45
376343873.979 -0.88046151 -15.158949 -200 45 -200 45 -200 45
377343990.66511 -0.88519555 -15.19588 -200 45 -200 45 -200 45
378344107.35123 -0.88802469 -15.241553 -200 45 -200 45 -200 45
379344224.03734 -0.890297 -15.267792 -200 45 -200 45 -200 45
380344340.72345 -0.89693904 -15.307155 -200 45 -200 45 -200 45
381344457.40957 -0.8991527 -15.33366 -200 45 -200 45 -200 45
382344574.09568 -0.90359259 -15.374102 -200 45 -200 45 -200 45
383344690.7818 -0.90769655 -15.41431 -200 45 -200 45 -200 45
384344807.46791 -0.91117829 -15.438434 -200 45 -200 45 -200 45
385344924.15403 -0.91425216 -15.484522 -200 45 -200 45 -200 45
386345040.84014 -0.9147532 -15.525524 -200 45 -200 45 -200 45
387345157.52625 -0.92248714 -15.577313 -200 45 -200 45 -200 45
388345274.21237 -0.92443424 -15.618363 -200 45 -200 45 -200 45
389345390.89848 -0.92933482 -15.667925 -200 45 -200 45 -200 45
390345507.5846 -0.93316603 -15.695886 -200 45 -200 45 -200 45
391345624.27071 -0.93527943 -15.731946 -200 45 -200 45 -200 45
392345740.95683 -0.93952727 -15.780225 -200 45 -200 45 -200 45
393345857.64294 -0.94238943 -15.842306 -200 45 -200 45 -200 45
394345974.32905 -0.94626248 -15.870797 -200 45 -200 45 -200 45
395346091.01517 -0.9510147 -15.924158 -200 45 -200 45 -200 45
396346207.70128 -0.95354718 -15.967607 -200 45 -200 45 -200 45
397346324.3874 -0.95649058 -16.00223 -200 45 -200 45 -200 45
398346441.07351 -0.95945889 -16.046312 -200 45 -200 45 -200 45
399346557.75963 -0.96190906 -16.07984 -200 45 -200 45 -200 45
400346674.44574 -0.96320468 -16.110195 -200 45 -200 45 -200 45
401346791.13186 -0.96544135 -16.161701 -200 45 -200 45 -200 45
402346907.81797 -0.96627426 -16.195261 -200 45 -200 45 -200 45
403347024.50408 -0.97404677 -16.257538 -200 45 -200 45 -200 45
404347141.1902 -0.97572738 -16.26347 -200 45 -200 45 -200 45
405347257.87631 -0.98035854 -16.316336 -200 45 -200 45 -200 45
406347374.56243 -0.9828738 -16.350965 -200 45 -200 45 -200 45
407347491.24854 -0.98653263 -16.384701 -200 45 -200 45 -200 45
408347607.93466 -0.98868352 -16.419735 -200 45 -200 45 -200 45
409347724.62077 -0.9929654 -16.459124 -200 45 -200 45 -200 45
410347841.30688 -0.99453849 -16.482241 -200 45 -200 45 -200 45
411347957.993 -0.99607825 -16.503237 -200 45 -200 45 -200 45
412348074.67911 -0.99951035 -16.542133 -200 45 -200 45 -200 45
413348191.36523 -1.0029866 -16.568832 -200 45 -200 45 -200 45
414348308.05134 -1.0041242 -16.582071 -200 45 -200 45 -200 45
415348424.73746 -1.0064085 -16.600304 -200 45 -200 45 -200 45
416348541.42357 -1.0064496 -16.631552 -200 45 -200 45 -200 45
417348658.10968 -1.0123047 -16.653316 -200 45 -200 45 -200 45
418348774.7958 -1.014245 -16.674204 -200 45 -200 45 -200 45
419348891.48191 -1.0159521 -16.70731 -200 45 -200 45 -200 45
420349008.16803 -1.0197819 -16.712936 -200 45 -200 45 -200 45
421349124.85414 -1.0212384 -16.728958 -200 45 -200 45 -200 45
422349241.54026 -1.024642 -16.741386 -200 45 -200 45 -200 45
423349358.22637 -1.0292836 -16.770164 -200 45 -200 45 -200 45
424349474.91249 -1.0327963 -16.764969 -200 45 -200 45 -200 45
425349591.5986 -1.0339942 -16.787638 -200 45 -200 45 -200 45
426349708.28471 -1.0370735 -16.784729 -200 45 -200 45 -200 45
427349824.97083 -1.0414149 -16.800526 -200 45 -200 45 -200 45
428349941.65694 -1.04488 -16.795465 -200 45 -200 45 -200 45
429350058.34306 -1.046422 -16.81484 -200 45 -200 45 -200 45
430350175.02917 -1.0493206 -16.821249 -200 45 -200 45 -200 45
431350291.71529 -1.0526872 -16.830177 -200 45 -200 45 -200 45
432350408.4014 -1.0550982 -16.826424 -200 45 -200 45 -200 45
433350525.08751 -1.0572695 -16.831144 -200 45 -200 45 -200 45
434350641.77363 -1.0612675 -16.823111 -200 45 -200 45 -200 45
435350758.45974 -1.0640744 -16.8339 -200 45 -200 45 -200 45
436350875.14586 -1.0678235 -16.845358 -200 45 -200 45 -200 45
437350991.83197 -1.07183 -16.846315 -200 45 -200 45 -200 45
438351108.51809 -1.0758597 -16.855564 -200 45 -200 45 -200 45
439351225.2042 -1.0780444 -16.86964 -200 45 -200 45 -200 45
440351341.89032 -1.0804336 -16.87442 -200 45 -200 45 -200 45
441351458.57643 -1.0841224 -16.900135 -200 45 -200 45 -200 45
442351575.26254 -1.0882324 -16.884394 -200 45 -200 45 -200 45
443351691.94866 -1.0935419 -16.894278 -200 45 -200 45 -200 45
444351808.63477 -1.0965344 -16.90555 -200 45 -200 45 -200 45
445351925.32089 -1.0982845 -16.917458 -200 45 -200 45 -200 45
446352042.007 -1.1047121 -16.938377 -200 45 -200 45 -200 45
447352158.69312 -1.106416 -16.939964 -200 45 -200 45 -200 45
448352275.37923 -1.1093295 -16.965696 -200 45 -200 45 -200 45
449352392.06534 -1.1139388 -16.966934 -200 45 -200 45 -200 45
450352508.75146 -1.1161889 -16.980547 -200 45 -200 45 -200 45
451352625.43757 -1.1214563 -16.999794 -200 45 -200 45 -200 45
452352742.12369 -1.1256434 -17.022228 -200 45 -200 45 -200 45
453352858.8098 -1.1291207 -17.033001 -200 45 -200 45 -200 45
454352975.49592 -1.1331549 -17.064901 -200 45 -200 45 -200 45
455353092.18203 -1.1378726 -17.088818 -200 45 -200 45 -200 45
456353208.86814 -1.1440307 -17.120819 -200 45 -200 45 -200 45
457353325.55426 -1.1472449 -17.141031 -200 45 -200 45 -200 45
458353442.24037 -1.150686 -17.153463 -200 45 -200 45 -200 45
459353558.92649 -1.1549436 -17.193556 -200 45 -200 45 -200 45
460353675.6126 -1.1589657 -17.205444 -200 45 -200 45 -200 45
461353792.29872 -1.1634892 -17.244295 -200 45 -200 45 -200 45
462353908.98483 -1.1653532 -17.280926 -200 45 -200 45 -200 45
463354025.67095 -1.16922 -17.308876 -200 45 -200 45 -200 45
464354142.35706 -1.1726187 -17.330004 -200 45 -200 45 -200 45
465354259.04317 -1.1763948 -17.360357 -200 45 -200 45 -200 45
466354375.72929 -1.1760806 -17.407568 -200 45 -200 45 -200 45
467354492.4154 -1.1826527 -17.448612 -200 45 -200 45 -200 45
468354609.10152 -1.1856009 -17.4893 -200 45 -200 45 -200 45
469354725.78763 -1.1909174 -17.534338 -200 45 -200 45 -200 45
470354842.47375 -1.1934676 -17.559906 -200 45 -200 45 -200 45
471354959.15986 -1.1977701 -17.609116 -200 45 -200 45 -200 45
472355075.84597 -1.2000809 -17.658039 -200 45 -200 45 -200 45
473355192.53209 -1.2049836 -17.683979 -200 45 -200 45 -200 45
474355309.2182 -1.2081654 -17.72736 -200 45 -200 45 -200 45
475355425.90432 -1.2105113 -17.772779 -200 45 -200 45 -200 45
476355542.59043 -1.215453 -17.813292 -200 45 -200 45 -200 45
477355659.27655 -1.2178012 -17.852161 -200 45 -200 45 -200 45
478355775.96266 -1.2179303 -17.909872 -200 45 -200 45 -200 45
479355892.64877 -1.2236201 -17.939444 -200 45 -200 45 -200 45
480356009.33489 -1.2254781 -17.979971 -200 45 -200 45 -200 45
481356126.021 -1.227185 -18.027653 -200 45 -200 45 -200 45
482356242.70712 -1.2301265 -18.058178 -200 45 -200 45 -200 45
483356359.39323 -1.2340771 -18.099072 -200 45 -200 45 -200 45
484356476.07935 -1.2339567 -18.144032 -200 45 -200 45 -200 45
485356592.76546 -1.2362235 -18.172052 -200 45 -200 45 -200 45
486356709.45158 -1.2409123 -18.213442 -200 45 -200 45 -200 45
487356826.13769 -1.2437128 -18.268316 -200 45 -200 45 -200 45
488356942.8238 -1.2458924 -18.271275 -200 45 -200 45 -200 45
489357059.50992 -1.2481009 -18.323563 -200 45 -200 45 -200 45
490357176.19603 -1.2500497 -18.370533 -200 45 -200 45 -200 45
491357292.88215 -1.2543896 -18.396952 -200 45 -200 45 -200 45
492357409.56826 -1.2554551 -18.424332 -200 45 -200 45 -200 45
493357526.25438 -1.2586814 -18.446556 -200 45 -200 45 -200 45
494357642.94049 -1.2600125 -18.471457 -200 45 -200 45 -200 45
495357759.6266 -1.2600579 -18.504112 -200 45 -200 45 -200 45
496357876.31272 -1.2650154 -18.531492 -200 45 -200 45 -200 45
497357992.99883 -1.2634808 -18.548691 -200 45 -200 45 -200 45
498358109.68495 -1.2681656 -18.579172 -200 45 -200 45 -200 45
499358226.37106 -1.2689207 -18.583317 -200 45 -200 45 -200 45
500358343.05718 -1.2714006 -18.618473 -200 45 -200 45 -200 45
501358459.74329 -1.2732749 -18.62743 -200 45 -200 45 -200 45
502358576.4294 -1.2774506 -18.646061 -200 45 -200 45 -200 45
503358693.11552 -1.2773116 -18.656904 -200 45 -200 45 -200 45
504358809.80163 -1.2811995 -18.661774 -200 45 -200 45 -200 45
505358926.48775 -1.2846459 -18.666994 -200 45 -200 45 -200 45
506359043.17386 -1.2868457 -18.687405 -200 45 -200 45 -200 45
507359159.85998 -1.2884481 -18.703697 -200 45 -200 45 -200 45
508359276.54609 -1.2921667 -18.6994 -200 45 -200 45 -200 45
509359393.23221 -1.2948232 -18.718136 -200 45 -200 45 -200 45
510359509.91832 -1.2965035 -18.713419 -200 45 -200 45 -200 45
511359626.60443 -1.2983556 -18.716743 -200 45 -200 45 -200 45
512359743.29055 -1.3015486 -18.72382 -200 45 -200 45 -200 45
513359859.97666 -1.3053319 -18.732206 -200 45 -200 45 -200 45
514359976.66278 -1.3058697 -18.733078 -200 45 -200 45 -200 45
515360093.34889 -1.3082799 -18.73185 -200 45 -200 45 -200 45
516360210.03501 -1.3124726 -18.718121 -200 45 -200 45 -200 45
517360326.72112 -1.3141093 -18.723524 -200 45 -200 45 -200 45
518360443.40723 -1.3185242 -18.737209 -200 45 -200 45 -200 45
519360560.09335 -1.3211812 -18.728989 -200 45 -200 45 -200 45
520360676.77946 -1.3256164 -18.724251 -200 45 -200 45 -200 45
521360793.46558 -1.3295386 -18.722042 -200 45 -200 45 -200 45
522360910.15169 -1.3301919 -18.736509 -200 45 -200 45 -200 45
523361026.83781 -1.3361504 -18.718872 -200 45 -200 45 -200 45
524361143.52392 -1.3393825 -18.73539 -200 45 -200 45 -200 45
525361260.21004 -1.3438561 -18.750704 -200 45 -200 45 -200 45
526361376.89615 -1.3451854 -18.743881 -200 45 -200 45 -200 45
527361493.58226 -1.3505852 -18.740404 -200 45 -200 45 -200 45
528361610.26838 -1.3548677 -18.738249 -200 45 -200 45 -200 45
529361726.95449 -1.3575827 -18.73354 -200 45 -200 45 -200 45
530361843.64061 -1.3616432 -18.754101 -200 45 -200 45 -200 45
531361960.32672 -1.3611035 -18.759577 -200 45 -200 45 -200 45
532362077.01284 -1.366771 -18.768513 -200 45 -200 45 -200 45
533362193.69895 -1.3719476 -18.777517 -200 45 -200 45 -200 45
534362310.38506 -1.3763053 -18.778326 -200 45 -200 45 -200 45
535362427.07118 -1.3788947 -18.807291 -200 45 -200 45 -200 45
536362543.75729 -1.3826361 -18.800688 -200 45 -200 45 -200 45
537362660.44341 -1.3875389 -18.82856 -200 45 -200 45 -200 45
538362777.12952 -1.3920623 -18.85113 -200 45 -200 45 -200 45
539362893.81564 -1.3969487 -18.870594 -200 45 -200 45 -200 45
540363010.50175 -1.4015713 -18.905928 -200 45 -200 45 -200 45
541363127.18786 -1.4046715 -18.903528 -200 45 -200 45 -200 45
542363243.87398 -1.4097637 -18.931952 -200 45 -200 45 -200 45
543363360.56009 -1.4134691 -18.954735 -200 45 -200 45 -200 45
544363477.24621 -1.4171449 -18.990444 -200 45 -200 45 -200 45
545363593.93232 -1.4202297 -19.01545 -200 45 -200 45 -200 45
546363710.61844 -1.4214146 -19.049549 -200 45 -200 45 -200 45
547363827.30455 -1.4260271 -19.065443 -200 45 -200 45 -200 45
548363943.99067 -1.4295254 -19.099842 -200 45 -200 45 -200 45
549364060.67678 -1.4313663 -19.144802 -200 45 -200 45 -200 45
550364177.36289 -1.4371977 -19.171789 -200 45 -200 45 -200 45
551364294.04901 -1.4387571 -19.217796 -200 45 -200 45 -200 45
552364410.73512 -1.4422649 -19.245159 -200 45 -200 45 -200 45
553364527.42124 -1.4460235 -19.281633 -200 45 -200 45 -200 45
554364644.10735 -1.449002 -19.330793 -200 45 -200 45 -200 45
555364760.79347 -1.4520502 -19.35494 -200 45 -200 45 -200 45
556364877.47958 -1.4572887 -19.409763 -200 45 -200 45 -200 45
557364994.16569 -1.4606574 -19.442575 -200 45 -200 45 -200 45
558365110.85181 -1.4615977 -19.493347 -200 45 -200 45 -200 45
559365227.53792 -1.4670351 -19.528778 -200 45 -200 45 -200 45
560365344.22404 -1.4669422 -19.561398 -200 45 -200 45 -200 45
561365460.91015 -1.4706011 -19.616369 -200 45 -200 45 -200 45
562365577.59627 -1.4717206 -19.655844 -200 45 -200 45 -200 45
563365694.28238 -1.473436 -19.688839 -200 45 -200 45 -200 45
564365810.96849 -1.4761784 -19.734594 -200 45 -200 45 -200 45
565365927.65461 -1.4784621 -19.770092 -200 45 -200 45 -200 45
566366044.34072 -1.4806726 -19.813828 -200 45 -200 45 -200 45
567366161.02684 -1.4819636 -19.860275 -200 45 -200 45 -200 45
568366277.71295 -1.4853196 -19.882587 -200 45 -200 45 -200 45
569366394.39907 -1.4871607 -19.932373 -200 45 -200 45 -200 45
570366511.08518 -1.4883399 -19.949619 -200 45 -200 45 -200 45
571366627.7713 -1.4922633 -19.980921 -200 45 -200 45 -200 45
572366744.45741 -1.4942077 -20.040756 -200 45 -200 45 -200 45
573366861.14352 -1.4960365 -20.054247 -200 45 -200 45 -200 45
574366977.82964 -1.4971998 -20.097057 -200 45 -200 45 -200 45
575367094.51575 -1.4989917 -20.109646 -200 45 -200 45 -200 45
576367211.20187 -1.5006188 -20.160349 -200 45 -200 45 -200 45
577367327.88798 -1.5010146 -20.171761 -200 45 -200 45 -200 45
578367444.5741 -1.502975 -20.186764 -200 45 -200 45 -200 45
579367561.26021 -1.5034616 -20.219067 -200 45 -200 45 -200 45
580367677.94632 -1.503626 -20.237619 -200 45 -200 45 -200 45
581367794.63244 -1.5082622 -20.261213 -200 45 -200 45 -200 45
582367911.31855 -1.5073651 -20.268469 -200 45 -200 45 -200 45
583368028.00467 -1.511453 -20.297007 -200 45 -200 45 -200 45
584368144.69078 -1.5147759 -20.302223 -200 45 -200 45 -200 45
585368261.3769 -1.5155787 -20.312748 -200 45 -200 45 -200 45
586368378.06301 -1.5160029 -20.328306 -200 45 -200 45 -200 45
587368494.74912 -1.5187967 -20.33194 -200 45 -200 45 -200 45
588368611.43524 -1.5207185 -20.345804 -200 45 -200 45 -200 45
589368728.12135 -1.5222619 -20.349245 -200 45 -200 45 -200 45
590368844.80747 -1.5260737 -20.352507 -200 45 -200 45 -200 45
591368961.49358 -1.5267156 -20.350689 -200 45 -200 45 -200 45
592369078.1797 -1.5278629 -20.360279 -200 45 -200 45 -200 45
593369194.86581 -1.530732 -20.360102 -200 45 -200 45 -200 45
594369311.55193 -1.5335017 -20.355261 -200 45 -200 45 -200 45
595369428.23804 -1.5343077 -20.345398 -200 45 -200 45 -200 45
596369544.92415 -1.5382781 -20.342268 -200 45 -200 45 -200 45
597369661.61027 -1.539151 -20.340015 -200 45 -200 45 -200 45
598369778.29638 -1.5428934 -20.333626 -200 45 -200 45 -200 45
599369894.9825 -1.5465516 -20.324482 -200 45 -200 45 -200 45
600370011.66861 -1.5488921 -20.332968 -200 45 -200 45 -200 45
601370128.35473 -1.5518973 -20.327484 -200 45 -200 45 -200 45
602370245.04084 -1.5521312 -20.315935 -200 45 -200 45 -200 45
603370361.72695 -1.5577887 -20.316603 -200 45 -200 45 -200 45
604370478.41307 -1.5606632 -20.303507 -200 45 -200 45 -200 45
605370595.09918 -1.5621997 -20.313608 -200 45 -200 45 -200 45
606370711.7853 -1.565631 -20.29804 -200 45 -200 45 -200 45
607370828.47141 -1.5698032 -20.295771 -200 45 -200 45 -200 45
608370945.15753 -1.5737668 -20.298212 -200 45 -200 45 -200 45
609371061.84364 -1.5794969 -20.29483 -200 45 -200 45 -200 45
610371178.52976 -1.581297 -20.282846 -200 45 -200 45 -200 45
611371295.21587 -1.5853864 -20.28009 -200 45 -200 45 -200 45
612371411.90198 -1.5860338 -20.303988 -200 45 -200 45 -200 45
613371528.5881 -1.5902182 -20.294258 -200 45 -200 45 -200 45
614371645.27421 -1.5953552 -20.292349 -200 45 -200 45 -200 45
615371761.96033 -1.5994196 -20.306162 -200 45 -200 45 -200 45
616371878.64644 -1.6014163 -20.309393 -200 45 -200 45 -200 45
617371995.33256 -1.6067131 -20.316511 -200 45 -200 45 -200 45
618372112.01867 -1.6121612 -20.332083 -200 45 -200 45 -200 45
619372228.70478 -1.6138744 -20.338688 -200 45 -200 45 -200 45
620372345.3909 -1.6191424 -20.353859 -200 45 -200 45 -200 45
621372462.07701 -1.6232461 -20.369768 -200 45 -200 45 -200 45
622372578.76313 -1.6252372 -20.379946 -200 45 -200 45 -200 45
623372695.44924 -1.6311204 -20.395948 -200 45 -200 45 -200 45
624372812.13536 -1.6345686 -20.421919 -200 45 -200 45 -200 45
625372928.82147 -1.6383878 -20.448143 -200 45 -200 45 -200 45
626373045.50758 -1.6416891 -20.475632 -200 45 -200 45 -200 45
627373162.1937 -1.6441332 -20.492687 -200 45 -200 45 -200 45
628373278.87981 -1.6482579 -20.537769 -200 45 -200 45 -200 45
629373395.56593 -1.6498896 -20.544668 -200 45 -200 45 -200 45
630373512.25204 -1.6545945 -20.576637 -200 45 -200 45 -200 45
631373628.93816 -1.6587937 -20.612499 -200 45 -200 45 -200 45
632373745.62427 -1.6614012 -20.63982 -200 45 -200 45 -200 45
633373862.31039 -1.6668955 -20.675795 -200 45 -200 45 -200 45
634373978.9965 -1.6700785 -20.717972 -200 45 -200 45 -200 45
635374095.68261 -1.6717292 -20.748522 -200 45 -200 45 -200 45
636374212.36873 -1.6750258 -20.792229 -200 45 -200 45 -200 45
637374329.05484 -1.6793468 -20.825216 -200 45 -200 45 -200 45
638374445.74096 -1.6839998 -20.861616 -200 45 -200 45 -200 45
639374562.42707 -1.6865327 -20.907789 -200 45 -200 45 -200 45
640374679.11319 -1.6898746 -20.955051 -200 45 -200 45 -200 45
641374795.7993 -1.6894679 -20.985752 -200 45 -200 45 -200 45
642374912.48541 -1.6951077 -21.027288 -200 45 -200 45 -200 45
643375029.17153 -1.695098 -21.066555 -200 45 -200 45 -200 45
644375145.85764 -1.6979961 -21.113642 -200 45 -200 45 -200 45
645375262.54376 -1.6976207 -21.159468 -200 45 -200 45 -200 45
646375379.22987 -1.699966 -21.209251 -200 45 -200 45 -200 45
647375495.91599 -1.7017375 -21.228764 -200 45 -200 45 -200 45
648375612.6021 -1.7045035 -21.28861 -200 45 -200 45 -200 45
649375729.28821 -1.7065132 -21.321741 -200 45 -200 45 -200 45
650375845.97433 -1.7083664 -21.353798 -200 45 -200 45 -200 45
651375962.66044 -1.7117505 -21.399052 -200 45 -200 45 -200 45
652376079.34656 -1.7118909 -21.445856 -200 45 -200 45 -200 45
653376196.03267 -1.713695 -21.483839 -200 45 -200 45 -200 45
654376312.71879 -1.7153993 -21.505287 -200 45 -200 45 -200 45
655376429.4049 -1.7184988 -21.534729 -200 45 -200 45 -200 45
656376546.09102 -1.7199464 -21.582388 -200 45 -200 45 -200 45
657376662.77713 -1.7192519 -21.594877 -200 45 -200 45 -200 45
658376779.46324 -1.7215753 -21.631943 -200 45 -200 45 -200 45
659376896.14936 -1.7205365 -21.654291 -200 45 -200 45 -200 45
660377012.83547 -1.7225258 -21.695148 -200 45 -200 45 -200 45
661377129.52159 -1.7209128 -21.721401 -200 45 -200 45 -200 45
662377246.2077 -1.7234724 -21.732183 -200 45 -200 45 -200 45
663377362.89382 -1.7253263 -21.753199 -200 45 -200 45 -200 45
664377479.57993 -1.7252636 -21.767838 -200 45 -200 45 -200 45
665377596.26604 -1.7281529 -21.768358 -200 45 -200 45 -200 45
666377712.95216 -1.7309802 -21.796722 -200 45 -200 45 -200 45
667377829.63827 -1.7312435 -21.807396 -200 45 -200 45 -200 45
668377946.32439 -1.7301973 -21.818665 -200 45 -200 45 -200 45
669378063.0105 -1.7339967 -21.823772 -200 45 -200 45 -200 45
670378179.69662 -1.7355108 -21.824781 -200 45 -200 45 -200 45
671378296.38273 -1.7348673 -21.832481 -200 45 -200 45 -200 45
672378413.06884 -1.7391289 -21.83988 -200 45 -200 45 -200 45
673378529.75496 -1.7386531 -21.831739 -200 45 -200 45 -200 45
674378646.44107 -1.7397506 -21.843725 -200 45 -200 45 -200 45
675378763.12719 -1.7411164 -21.833094 -200 45 -200 45 -200 45
676378879.8133 -1.7417612 -21.828123 -200 45 -200 45 -200 45
677378996.49942 -1.7431825 -21.832586 -200 45 -200 45 -200 45
678379113.18553 -1.7445942 -21.817186 -200 45 -200 45 -200 45
679379229.87165 -1.7470648 -21.809553 -200 45 -200 45 -200 45
680379346.55776 -1.7485839 -21.812531 -200 45 -200 45 -200 45
681379463.24387 -1.750136 -21.804386 -200 45 -200 45 -200 45
682379579.92999 -1.7532482 -21.800362 -200 45 -200 45 -200 45
683379696.6161 -1.7567132 -21.783548 -200 45 -200 45 -200 45
684379813.30222 -1.7591112 -21.781191 -200 45 -200 45 -200 45
685379929.98833 -1.7598879 -21.771315 -200 45 -200 45 -200 45
686380046.67445 -1.7648126 -21.755095 -200 45 -200 45 -200 45
687380163.36056 -1.7683978 -21.733879 -200 45 -200 45 -200 45
688380280.04667 -1.7669903 -21.73897 -200 45 -200 45 -200 45
689380396.73279 -1.772038 -21.73595 -200 45 -200 45 -200 45
690380513.4189 -1.7743225 -21.731468 -200 45 -200 45 -200 45
691380630.10502 -1.7811143 -21.721083 -200 45 -200 45 -200 45
692380746.79113 -1.7820526 -21.710297 -200 45 -200 45 -200 45
693380863.47725 -1.7849718 -21.706089 -200 45 -200 45 -200 45
694380980.16336 -1.7862648 -21.688324 -200 45 -200 45 -200 45
695381096.84947 -1.7912399 -21.695925 -200 45 -200 45 -200 45
696381213.53559 -1.7947252 -21.69404 -200 45 -200 45 -200 45
697381330.2217 -1.7972487 -21.698029 -200 45 -200 45 -200 45
698381446.90782 -1.800784 -21.701019 -200 45 -200 45 -200 45
699381563.59393 -1.8063215 -21.703928 -200 45 -200 45 -200 45
700381680.28005 -1.8074995 -21.704168 -200 45 -200 45 -200 45
701381796.96616 -1.8142054 -21.720528 -200 45 -200 45 -200 45
702381913.65228 -1.8185433 -21.713095 -200 45 -200 45 -200 45
703382030.33839 -1.8218025 -21.733368 -200 45 -200 45 -200 45
704382147.0245 -1.8263187 -21.733135 -200 45 -200 45 -200 45
705382263.71062 -1.8321885 -21.756983 -200 45 -200 45 -200 45
706382380.39673 -1.833282 -21.773903 -200 45 -200 45 -200 45
707382497.08285 -1.8363117 -21.78928 -200 45 -200 45 -200 45
708382613.76896 -1.8418366 -21.824018 -200 45 -200 45 -200 45
709382730.45508 -1.843173 -21.829157 -200 45 -200 45 -200 45
710382847.14119 -1.8470029 -21.856497 -200 45 -200 45 -200 45
711382963.8273 -1.8506355 -21.887075 -200 45 -200 45 -200 45
712383080.51342 -1.854983 -21.919554 -200 45 -200 45 -200 45
713383197.19953 -1.8576728 -21.944847 -200 45 -200 45 -200 45
714383313.88565 -1.8645554 -21.9811 -200 45 -200 45 -200 45
715383430.57176 -1.8662602 -22.01059 -200 45 -200 45 -200 45
716383547.25788 -1.8688898 -22.044508 -200 45 -200 45 -200 45
717383663.94399 -1.8731973 -22.082687 -200 45 -200 45 -200 45
718383780.63011 -1.8756677 -22.116251 -200 45 -200 45 -200 45
719383897.31622 -1.8791405 -22.166208 -200 45 -200 45 -200 45
720384014.00233 -1.8817699 -22.206696 -200 45 -200 45 -200 45
721384130.68845 -1.8869057 -22.25065 -200 45 -200 45 -200 45
722384247.37456 -1.8900126 -22.280581 -200 45 -200 45 -200 45
723384364.06068 -1.8911843 -22.322802 -200 45 -200 45 -200 45
724384480.74679 -1.8948377 -22.355108 -200 45 -200 45 -200 45
725384597.43291 -1.8962339 -22.409321 -200 45 -200 45 -200 45
726384714.11902 -1.8978926 -22.450613 -200 45 -200 45 -200 45
727384830.80513 -1.9006116 -22.481337 -200 45 -200 45 -200 45
728384947.49125 -1.9006498 -22.521027 -200 45 -200 45 -200 45
729385064.17736 -1.9056762 -22.578281 -200 45 -200 45 -200 45
730385180.86348 -1.9056159 -22.612947 -200 45 -200 45 -200 45
731385297.54959 -1.9075782 -22.645248 -200 45 -200 45 -200 45
732385414.23571 -1.9075273 -22.690544 -200 45 -200 45 -200 45
733385530.92182 -1.9120169 -22.734566 -200 45 -200 45 -200 45
734385647.60793 -1.9124315 -22.789034 -200 45 -200 45 -200 45
735385764.29405 -1.9137955 -22.820812 -200 45 -200 45 -200 45
736385880.98016 -1.9147239 -22.857555 -200 45 -200 45 -200 45
737385997.66628 -1.9168046 -22.900181 -200 45 -200 45 -200 45
738386114.35239 -1.9183524 -22.9263 -200 45 -200 45 -200 45
739386231.03851 -1.919488 -22.961493 -200 45 -200 45 -200 45
740386347.72462 -1.9207684 -23.002056 -200 45 -200 45 -200 45
741386464.41074 -1.9198312 -23.017824 -200 45 -200 45 -200 45
742386581.09685 -1.9159651 -23.046104 -200 45 -200 45 -200 45
743386697.78296 -1.9220126 -23.082081 -200 45 -200 45 -200 45
744386814.46908 -1.9219191 -23.099173 -200 45 -200 45 -200 45
745386931.15519 -1.9214751 -23.121403 -200 45 -200 45 -200 45
746387047.84131 -1.9253064 -23.143745 -200 45 -200 45 -200 45
747387164.52742 -1.9254 -23.177221 -200 45 -200 45 -200 45
748387281.21354 -1.9249947 -23.187487 -200 45 -200 45 -200 45
749387397.89965 -1.9265051 -23.206224 -200 45 -200 45 -200 45
750387514.58576 -1.928552 -23.202682 -200 45 -200 45 -200 45
751387631.27188 -1.9273459 -23.222378 -200 45 -200 45 -200 45
752387747.95799 -1.929846 -23.236095 -200 45 -200 45 -200 45
753387864.64411 -1.9306895 -23.235668 -200 45 -200 45 -200 45
754387981.33022 -1.9302133 -23.244419 -200 45 -200 45 -200 45
755388098.01634 -1.933905 -23.248442 -200 45 -200 45 -200 45
756388214.70245 -1.9326744 -23.242271 -200 45 -200 45 -200 45
757388331.38856 -1.9345382 -23.262398 -200 45 -200 45 -200 45
758388448.07468 -1.9340634 -23.237259 -200 45 -200 45 -200 45
759388564.76079 -1.9352431 -23.233141 -200 45 -200 45 -200 45
760388681.44691 -1.9368376 -23.248125 -200 45 -200 45 -200 45
761388798.13302 -1.9389819 -23.248198 -200 45 -200 45 -200 45
762388914.81914 -1.9389645 -23.23678 -200 45 -200 45 -200 45
763389031.50525 -1.9399974 -23.226202 -200 45 -200 45 -200 45
764389148.19137 -1.9444041 -23.206881 -200 45 -200 45 -200 45
765389264.87748 -1.9470701 -23.20018 -200 45 -200 45 -200 45
766389381.56359 -1.9490175 -23.171852 -200 45 -200 45 -200 45
767389498.24971 -1.9540423 -23.182829 -200 45 -200 45 -200 45
768389614.93582 -1.9543647 -23.166018 -200 45 -200 45 -200 45
769389731.62194 -1.9570904 -23.149014 -200 45 -200 45 -200 45
770389848.30805 -1.9590306 -23.141361 -200 45 -200 45 -200 45
771389964.99417 -1.9607606 -23.116488 -200 45 -200 45 -200 45
772390081.68028 -1.966049 -23.097654 -200 45 -200 45 -200 45
773390198.36639 -1.9680656 -23.090389 -200 45 -200 45 -200 45
774390315.05251 -1.9674695 -23.082273 -200 45 -200 45 -200 45
775390431.73862 -1.9728707 -23.084295 -200 45 -200 45 -200 45
776390548.42474 -1.9765368 -23.060953 -200 45 -200 45 -200 45
777390665.11085 -1.9801605 -23.04866 -200 45 -200 45 -200 45
778390781.79697 -1.9833189 -23.045597 -200 45 -200 45 -200 45
779390898.48308 -1.9846528 -23.038919 -200 45 -200 45 -200 45
780391015.16919 -1.9901851 -23.033632 -200 45 -200 45 -200 45
781391131.85531 -1.9949467 -23.037605 -200 45 -200 45 -200 45
782391248.54142 -1.9965279 -23.033323 -200 45 -200 45 -200 45
783391365.22754 -2.00102 -23.04347 -200 45 -200 45 -200 45
784391481.91365 -2.0085242 -23.044004 -200 45 -200 45 -200 45
785391598.59977 -2.0096929 -23.039371 -200 45 -200 45 -200 45
786391715.28588 -2.0166392 -23.05608 -200 45 -200 45 -200 45
787391831.972 -2.0188687 -23.067261 -200 45 -200 45 -200 45
788391948.65811 -2.0220785 -23.072113 -200 45 -200 45 -200 45
789392065.34422 -2.0256882 -23.094912 -200 45 -200 45 -200 45
790392182.03034 -2.029856 -23.09926 -200 45 -200 45 -200 45
791392298.71645 -2.0336246 -23.134691 -200 45 -200 45 -200 45
792392415.40257 -2.0372236 -23.140224 -200 45 -200 45 -200 45
793392532.08868 -2.0413096 -23.173466 -200 45 -200 45 -200 45
794392648.7748 -2.0444083 -23.188917 -200 45 -200 45 -200 45
795392765.46091 -2.0484593 -23.213951 -200 45 -200 45 -200 45
796392882.14702 -2.0525465 -23.228268 -200 45 -200 45 -200 45
797392998.83314 -2.0537751 -23.280275 -200 45 -200 45 -200 45
798393115.51925 -2.0606642 -23.30555 -200 45 -200 45 -200 45
799393232.20537 -2.0623651 -23.334991 -200 45 -200 45 -200 45
800393348.89148 -2.0667675 -23.370821 -200 45 -200 45 -200 45
801393465.5776 -2.0679238 -23.406944 -200 45 -200 45 -200 45
802393582.26371 -2.0709074 -23.461004 -200 45 -200 45 -200 45
803393698.94983 -2.0760343 -23.513327 -200 45 -200 45 -200 45
804393815.63594 -2.0790389 -23.542444 -200 45 -200 45 -200 45
805393932.32205 -2.0808532 -23.589975 -200 45 -200 45 -200 45
806394049.00817 -2.083451 -23.614695 -200 45 -200 45 -200 45
807394165.69428 -2.0855467 -23.664541 -200 45 -200 45 -200 45
808394282.3804 -2.0868959 -23.725029 -200 45 -200 45 -200 45
809394399.06651 -2.0911798 -23.76413 -200 45 -200 45 -200 45
810394515.75263 -2.0923529 -23.800674 -200 45 -200 45 -200 45
811394632.43874 -2.0944512 -23.847218 -200 45 -200 45 -200 45
812394749.12485 -2.0946693 -23.897764 -200 45 -200 45 -200 45
813394865.81097 -2.0997965 -23.94161 -200 45 -200 45 -200 45
814394982.49708 -2.099328 -23.968864 -200 45 -200 45 -200 45
815395099.1832 -2.101249 -24.028563 -200 45 -200 45 -200 45
816395215.86931 -2.1034513 -24.066444 -200 45 -200 45 -200 45
817395332.55543 -2.1070232 -24.098898 -200 45 -200 45 -200 45
818395449.24154 -2.1060779 -24.145922 -200 45 -200 45 -200 45
819395565.92765 -2.1081755 -24.1873 -200 45 -200 45 -200 45
820395682.61377 -2.1072891 -24.23353 -200 45 -200 45 -200 45
821395799.29988 -2.1075282 -24.271957 -200 45 -200 45 -200 45
822395915.986 -2.1065052 -24.297119 -200 45 -200 45 -200 45
823396032.67211 -2.1079321 -24.342676 -200 45 -200 45 -200 45
824396149.35823 -2.1090274 -24.372084 -200 45 -200 45 -200 45
825396266.04434 -2.1101799 -24.406212 -200 45 -200 45 -200 45
826396382.73046 -2.1106851 -24.432344 -200 45 -200 45 -200 45
827396499.41657 -2.1103687 -24.451023 -200 45 -200 45 -200 45
828396616.10268 -2.1110506 -24.474943 -200 45 -200 45 -200 45
829396732.7888 -2.1102676 -24.488501 -200 45 -200 45 -200 45
830396849.47491 -2.1115746 -24.515753 -200 45 -200 45 -200 45
831396966.16103 -2.1139612 -24.550158 -200 45 -200 45 -200 45
832397082.84714 -2.1156907 -24.554169 -200 45 -200 45 -200 45
833397199.53326 -2.1149399 -24.558594 -200 45 -200 45 -200 45
834397316.21937 -2.1158278 -24.579487 -200 45 -200 45 -200 45
835397432.90548 -2.1170697 -24.597189 -200 45 -200 45 -200 45
836397549.5916 -2.1174946 -24.612333 -200 45 -200 45 -200 45
837397666.27771 -2.1188078 -24.605675 -200 45 -200 45 -200 45
838397782.96383 -2.1190679 -24.616262 -200 45 -200 45 -200 45
839397899.64994 -2.1192002 -24.617868 -200 45 -200 45 -200 45
840398016.33606 -2.1199 -24.612024 -200 45 -200 45 -200 45
841398133.02217 -2.1198084 -24.584127 -200 45 -200 45 -200 45
842398249.70828 -2.1218152 -24.599756 -200 45 -200 45 -200 45
843398366.3944 -2.1235166 -24.583572 -200 45 -200 45 -200 45
844398483.08051 -2.1267419 -24.57679 -200 45 -200 45 -200 45
845398599.76663 -2.1271152 -24.572086 -200 45 -200 45 -200 45
846398716.45274 -2.1309948 -24.55761 -200 45 -200 45 -200 45
847398833.13886 -2.133301 -24.548908 -200 45 -200 45 -200 45
848398949.82497 -2.1373756 -24.528658 -200 45 -200 45 -200 45
849399066.51109 -2.1378441 -24.528692 -200 45 -200 45 -200 45
850399183.1972 -2.1406553 -24.511086 -200 45 -200 45 -200 45
851399299.88331 -2.1439033 -24.492834 -200 45 -200 45 -200 45
852399416.56943 -2.1449888 -24.470242 -200 45 -200 45 -200 45
853399533.25554 -2.1473305 -24.467953 -200 45 -200 45 -200 45
854399649.94166 -2.1500235 -24.442301 -200 45 -200 45 -200 45
855399766.62777 -2.149863 -24.435028 -200 45 -200 45 -200 45
856399883.31389 -2.1568489 -24.415222 -200 45 -200 45 -200 45
857400000 -2.1604102 -24.40062 -200 45 -200 45 -200 45
858400116.68611 -2.1627247 -24.384514 -200 45 -200 45 -200 45
859400233.37223 -2.1664557 -24.371069 -200 45 -200 45 -200 45
860400350.05834 -2.1706727 -24.35446 -200 45 -200 45 -200 45
861400466.74446 -2.1750007 -24.352892 -200 45 -200 45 -200 45
862400583.43057 -2.1793473 -24.343807 -200 45 -200 45 -200 45
863400700.11669 -2.1853087 -24.326113 -200 45 -200 45 -200 45
864400816.8028 -2.1884558 -24.320129 -200 45 -200 45 -200 45
865400933.48891 -2.1946514 -24.327417 -200 45 -200 45 -200 45
866401050.17503 -2.1974735 -24.314756 -200 45 -200 45 -200 45
867401166.86114 -2.2029672 -24.30735 -200 45 -200 45 -200 45
868401283.54726 -2.2081118 -24.311495 -200 45 -200 45 -200 45
869401400.23337 -2.2131817 -24.290195 -200 45 -200 45 -200 45
870401516.91949 -2.2159708 -24.304113 -200 45 -200 45 -200 45
871401633.6056 -2.2169871 -24.307039 -200 45 -200 45 -200 45
872401750.29172 -2.2249334 -24.306097 -200 45 -200 45 -200 45
873401866.97783 -2.2268791 -24.293127 -200 45 -200 45 -200 45
874401983.66394 -2.2307885 -24.309153 -200 45 -200 45 -200 45
875402100.35006 -2.2378106 -24.332142 -200 45 -200 45 -200 45
876402217.03617 -2.2428746 -24.340872 -200 45 -200 45 -200 45
877402333.72229 -2.2465134 -24.367405 -200 45 -200 45 -200 45
878402450.4084 -2.2509859 -24.35774 -200 45 -200 45 -200 45
879402567.09452 -2.2555242 -24.382822 -200 45 -200 45 -200 45
880402683.78063 -2.2578049 -24.397676 -200 45 -200 45 -200 45
881402800.46674 -2.261739 -24.422117 -200 45 -200 45 -200 45
882402917.15286 -2.2664645 -24.444418 -200 45 -200 45 -200 45
883403033.83897 -2.2676086 -24.472765 -200 45 -200 45 -200 45
884403150.52509 -2.2712624 -24.496313 -200 45 -200 45 -200 45
885403267.2112 -2.2735217 -24.523495 -200 45 -200 45 -200 45
886403383.89732 -2.276037 -24.545698 -200 45 -200 45 -200 45
887403500.58343 -2.2769163 -24.575706 -200 45 -200 45 -200 45
888403617.26954 -2.2778111 -24.620474 -200 45 -200 45 -200 45
889403733.95566 -2.2788539 -24.642698 -200 45 -200 45 -200 45
890403850.64177 -2.2788577 -24.683174 -200 45 -200 45 -200 45
891403967.32789 -2.2808294 -24.70709 -200 45 -200 45 -200 45
892404084.014 -2.2823756 -24.760107 -200 45 -200 45 -200 45
893404200.70012 -2.2812891 -24.786898 -200 45 -200 45 -200 45
894404317.38623 -2.282717 -24.832941 -200 45 -200 45 -200 45
895404434.07235 -2.283797 -24.865734 -200 45 -200 45 -200 45
896404550.75846 -2.28368 -24.913256 -200 45 -200 45 -200 45
897404667.44457 -2.2855344 -24.952969 -200 45 -200 45 -200 45
898404784.13069 -2.2864084 -24.998383 -200 45 -200 45 -200 45
899404900.8168 -2.2847085 -25.041405 -200 45 -200 45 -200 45
900405017.50292 -2.2864957 -25.080765 -200 45 -200 45 -200 45
901405134.18903 -2.2855182 -25.120277 -200 45 -200 45 -200 45
902405250.87515 -2.2843099 -25.16221 -200 45 -200 45 -200 45
903405367.56126 -2.2835617 -25.200016 -200 45 -200 45 -200 45
904405484.24737 -2.2801685 -25.233561 -200 45 -200 45 -200 45
905405600.93349 -2.2800596 -25.272478 -200 45 -200 45 -200 45
906405717.6196 -2.2785664 -25.30723 -200 45 -200 45 -200 45
907405834.30572 -2.2777708 -25.339899 -200 45 -200 45 -200 45
908405950.99183 -2.2765954 -25.377485 -200 45 -200 45 -200 45
909406067.67795 -2.2747447 -25.401009 -200 45 -200 45 -200 45
910406184.36406 -2.2731664 -25.445679 -200 45 -200 45 -200 45
911406301.05018 -2.2745578 -25.471617 -200 45 -200 45 -200 45
912406417.73629 -2.2738748 -25.489828 -200 45 -200 45 -200 45
913406534.4224 -2.2721303 -25.522438 -200 45 -200 45 -200 45
914406651.10852 -2.272675 -25.540411 -200 45 -200 45 -200 45
915406767.79463 -2.2707198 -25.559761 -200 45 -200 45 -200 45
916406884.48075 -2.2681534 -25.577456 -200 45 -200 45 -200 45
917407001.16686 -2.2688656 -25.587534 -200 45 -200 45 -200 45
918407117.85298 -2.2681189 -25.614262 -200 45 -200 45 -200 45
919407234.53909 -2.2690542 -25.619213 -200 45 -200 45 -200 45
920407351.2252 -2.2677641 -25.619232 -200 45 -200 45 -200 45
921407467.91132 -2.2661865 -25.633312 -200 45 -200 45 -200 45
922407584.59743 -2.264173 -25.639795 -200 45 -200 45 -200 45
923407701.28355 -2.2655649 -25.651585 -200 45 -200 45 -200 45
924407817.96966 -2.2656591 -25.642519 -200 45 -200 45 -200 45
925407934.65578 -2.2648189 -25.653 -200 45 -200 45 -200 45
926408051.34189 -2.2667522 -25.623549 -200 45 -200 45 -200 45
927408168.028 -2.2659636 -25.631819 -200 45 -200 45 -200 45
928408284.71412 -2.2688875 -25.623915 -200 45 -200 45 -200 45
929408401.40023 -2.2689607 -25.611155 -200 45 -200 45 -200 45
930408518.08635 -2.2697425 -25.61665 -200 45 -200 45 -200 45
931408634.77246 -2.270834 -25.606037 -200 45 -200 45 -200 45
932408751.45858 -2.2724776 -25.590801 -200 45 -200 45 -200 45
933408868.14469 -2.2719202 -25.581173 -200 45 -200 45 -200 45
934408984.83081 -2.2715795 -25.569078 -200 45 -200 45 -200 45
935409101.51692 -2.2744188 -25.555346 -200 45 -200 45 -200 45
936409218.20303 -2.2776875 -25.541912 -200 45 -200 45 -200 45
937409334.88915 -2.2766709 -25.523348 -200 45 -200 45 -200 45
938409451.57526 -2.2815404 -25.516808 -200 45 -200 45 -200 45
939409568.26138 -2.283504 -25.512518 -200 45 -200 45 -200 45
940409684.94749 -2.2866294 -25.504593 -200 45 -200 45 -200 45
941409801.63361 -2.2882998 -25.483463 -200 45 -200 45 -200 45
942409918.31972 -2.2921247 -25.4774 -200 45 -200 45 -200 45
943410035.00583 -2.2946951 -25.451441 -200 45 -200 45 -200 45
944410151.69195 -2.298506 -25.45978 -200 45 -200 45 -200 45
945410268.37806 -2.3034127 -25.450741 -200 45 -200 45 -200 45
946410385.06418 -2.3075438 -25.447496 -200 45 -200 45 -200 45
947410501.75029 -2.3110266 -25.436182 -200 45 -200 45 -200 45
948410618.43641 -2.315556 -25.442495 -200 45 -200 45 -200 45
949410735.12252 -2.3198316 -25.447384 -200 45 -200 45 -200 45
950410851.80863 -2.3227012 -25.446878 -200 45 -200 45 -200 45
951410968.49475 -2.3257568 -25.441273 -200 45 -200 45 -200 45
952411085.18086 -2.3289587 -25.438492 -200 45 -200 45 -200 45
953411201.86698 -2.3335333 -25.449381 -200 45 -200 45 -200 45
954411318.55309 -2.3376734 -25.456873 -200 45 -200 45 -200 45
955411435.23921 -2.3428752 -25.458834 -200 45 -200 45 -200 45
956411551.92532 -2.3468199 -25.469294 -200 45 -200 45 -200 45
957411668.61144 -2.3506072 -25.474091 -200 45 -200 45 -200 45
958411785.29755 -2.3551412 -25.515423 -200 45 -200 45 -200 45
959411901.98366 -2.3612866 -25.515894 -200 45 -200 45 -200 45
960412018.66978 -2.3642302 -25.532818 -200 45 -200 45 -200 45
961412135.35589 -2.3675697 -25.557234 -200 45 -200 45 -200 45
962412252.04201 -2.3743241 -25.576403 -200 45 -200 45 -200 45
963412368.72812 -2.3754106 -25.590618 -200 45 -200 45 -200 45
964412485.41424 -2.3801403 -25.630424 -200 45 -200 45 -200 45
965412602.10035 -2.3832517 -25.670099 -200 45 -200 45 -200 45
966412718.78646 -2.3855538 -25.695274 -200 45 -200 45 -200 45
967412835.47258 -2.390964 -25.73435 -200 45 -200 45 -200 45
968412952.15869 -2.3920827 -25.7554 -200 45 -200 45 -200 45
969413068.84481 -2.3925476 -25.797583 -200 45 -200 45 -200 45
970413185.53092 -2.397136 -25.838434 -200 45 -200 45 -200 45
971413302.21704 -2.3990402 -25.870499 -200 45 -200 45 -200 45
972413418.90315 -2.4010663 -25.930128 -200 45 -200 45 -200 45
973413535.58926 -2.4042635 -25.968224 -200 45 -200 45 -200 45
974413652.27538 -2.4079049 -25.998362 -200 45 -200 45 -200 45
975413768.96149 -2.4086607 -26.044594 -200 45 -200 45 -200 45
976413885.64761 -2.4105523 -26.102764 -200 45 -200 45 -200 45
977414002.33372 -2.4140837 -26.1231 -200 45 -200 45 -200 45
978414119.01984 -2.4150908 -26.166517 -200 45 -200 45 -200 45
979414235.70595 -2.4149854 -26.220148 -200 45 -200 45 -200 45
980414352.39207 -2.4160979 -26.253862 -200 45 -200 45 -200 45
981414469.07818 -2.4187334 -26.301018 -200 45 -200 45 -200 45
982414585.76429 -2.4185784 -26.338369 -200 45 -200 45 -200 45
983414702.45041 -2.4177783 -26.400467 -200 45 -200 45 -200 45
984414819.13652 -2.4160285 -26.430788 -200 45 -200 45 -200 45
985414935.82264 -2.4185846 -26.463957 -200 45 -200 45 -200 45
986415052.50875 -2.417114 -26.510902 -200 45 -200 45 -200 45
987415169.19487 -2.417654 -26.539818 -200 45 -200 45 -200 45
988415285.88098 -2.4146619 -26.58144 -200 45 -200 45 -200 45
989415402.56709 -2.4143219 -26.620241 -200 45 -200 45 -200 45
990415519.25321 -2.4151733 -26.660742 -200 45 -200 45 -200 45
991415635.93932 -2.4158549 -26.70339 -200 45 -200 45 -200 45
992415752.62544 -2.4132764 -26.738935 -200 45 -200 45 -200 45
993415869.31155 -2.4137082 -26.756794 -200 45 -200 45 -200 45
994415985.99767 -2.4139149 -26.786743 -200 45 -200 45 -200 45
995416102.68378 -2.4113297 -26.827688 -200 45 -200 45 -200 45
996416219.36989 -2.4109468 -26.842131 -200 45 -200 45 -200 45
997416336.05601 -2.4116888 -26.86017 -200 45 -200 45 -200 45
998416452.74212 -2.4072568 -26.881744 -200 45 -200 45 -200 45
999416569.42824 -2.410697 -26.899065 -200 45 -200 45 -200 45
1000416686.1144 -2.404269 -26.907284 -200 45 -200 45 -200 45
1001416802.8005 -2.4061317 -26.929329 -200 45 -200 45 -200 45
1002416919.4866 -2.4036386 -26.935856 -200 45 -200 45 -200 45
1003417036.1727 -2.4019136 -26.936434 -200 45 -200 45 -200 45
1004417152.8588 -2.4017251 -26.956184 -200 45 -200 45 -200 45
1005417269.5449 -2.3992076 -26.963343 -200 45 -200 45 -200 45
1006417386.231 -2.3980167 -26.967705 -200 45 -200 45 -200 45
1007417502.9172 -2.396837 -26.9807 -200 45 -200 45 -200 45
1008417619.6033 -2.3969381 -26.976839 -200 45 -200 45 -200 45
1009417736.2894 -2.4037583 -26.977224 -200 45 -200 45 -200 45
1010417852.9755 -2.4019415 -26.983175 -200 45 -200 45 -200 45
1011417969.6616 -2.401912 -26.996418 -200 45 -200 45 -200 45
1012418086.3477 -2.4022765 -26.961725 -200 45 -200 45 -200 45
1013418203.0338 -2.402024 -26.979258 -200 45 -200 45 -200 45
1014418319.72 -2.4036345 -26.956232 -200 45 -200 45 -200 45
1015418436.4061 -2.405683 -26.959751 -200 45 -200 45 -200 45
1016418553.0922 -2.404541 -26.956985 -200 45 -200 45 -200 45
1017418669.7783 -2.4067998 -26.936054 -200 45 -200 45 -200 45
1018418786.4644 -2.4066012 -26.916527 -200 45 -200 45 -200 45
1019418903.1505 -2.4069891 -26.900875 -200 45 -200 45 -200 45
1020419019.8366 -2.4106119 -26.881571 -200 45 -200 45 -200 45
1021419136.5228 -2.4122264 -26.878345 -200 45 -200 45 -200 45
1022419253.2089 -2.4143288 -26.884218 -200 45 -200 45 -200 45
1023419369.895 -2.4160767 -26.884085 -200 45 -200 45 -200 45
1024419486.5811 -2.4192073 -26.850986 -200 45 -200 45 -200 45
1025419603.2672 -2.4217007 -26.848175 -200 45 -200 45 -200 45
1026419719.9533 -2.4256051 -26.84317 -200 45 -200 45 -200 45
1027419836.6394 -2.4316602 -26.842356 -200 45 -200 45 -200 45
1028419953.3256 -2.4341931 -26.834194 -200 45 -200 45 -200 45
1029420070.0117 -2.4362793 -26.856142 -200 45 -200 45 -200 45
1030420186.6978 -2.4430118 -26.834972 -200 45 -200 45 -200 45
1031420303.3839 -2.4457843 -26.834057 -200 45 -200 45 -200 45
1032420420.07 -2.4493659 -26.839792 -200 45 -200 45 -200 45
1033420536.7561 -2.4547663 -26.829859 -200 45 -200 45 -200 45
1034420653.4422 -2.4592555 -26.833767 -200 45 -200 45 -200 45
1035420770.1284 -2.4646425 -26.844763 -200 45 -200 45 -200 45
1036420886.8145 -2.4676192 -26.848028 -200 45 -200 45 -200 45
1037421003.5006 -2.4755163 -26.853178 -200 45 -200 45 -200 45
1038421120.1867 -2.4792562 -26.85618 -200 45 -200 45 -200 45
1039421236.8728 -2.4829366 -26.85157 -200 45 -200 45 -200 45
1040421353.5589 -2.4910109 -26.869362 -200 45 -200 45 -200 45
1041421470.245 -2.4964974 -26.890562 -200 45 -200 45 -200 45
1042421586.9312 -2.5016289 -26.90749 -200 45 -200 45 -200 45
1043421703.6173 -2.5062313 -26.908144 -200 45 -200 45 -200 45
1044421820.3034 -2.5121953 -26.915344 -200 45 -200 45 -200 45
1045421936.9895 -2.5136635 -26.963959 -200 45 -200 45 -200 45
1046422053.6756 -2.5200367 -26.99785 -200 45 -200 45 -200 45
1047422170.3617 -2.5233269 -27.018986 -200 45 -200 45 -200 45
1048422287.0478 -2.5284712 -27.037745 -200 45 -200 45 -200 45
1049422403.734 -2.5310495 -27.059082 -200 45 -200 45 -200 45
1050422520.4201 -2.5353682 -27.104929 -200 45 -200 45 -200 45
1051422637.1062 -2.5395668 -27.120375 -200 45 -200 45 -200 45
1052422753.7923 -2.5426757 -27.174404 -200 45 -200 45 -200 45
1053422870.4784 -2.5463741 -27.206171 -200 45 -200 45 -200 45
1054422987.1645 -2.5497558 -27.248482 -200 45 -200 45 -200 45
1055423103.8506 -2.5534751 -27.276812 -200 45 -200 45 -200 45
1056423220.5368 -2.5583544 -27.327137 -200 45 -200 45 -200 45
1057423337.2229 -2.5598271 -27.377693 -200 45 -200 45 -200 45
1058423453.909 -2.5640359 -27.408173 -200 45 -200 45 -200 45
1059423570.5951 -2.5663986 -27.455654 -200 45 -200 45 -200 45
1060423687.2812 -2.5683963 -27.474464 -200 45 -200 45 -200 45
1061423803.9673 -2.5723159 -27.546106 -200 45 -200 45 -200 45
1062423920.6534 -2.572793 -27.583464 -200 45 -200 45 -200 45
1063424037.3396 -2.5738318 -27.617384 -200 45 -200 45 -200 45
1064424154.0257 -2.5748665 -27.666059 -200 45 -200 45 -200 45
1065424270.7118 -2.5762203 -27.698498 -200 45 -200 45 -200 45
1066424387.3979 -2.5759032 -27.749571 -200 45 -200 45 -200 45
1067424504.084 -2.5781608 -27.778839 -200 45 -200 45 -200 45
1068424620.7701 -2.5785048 -27.810829 -200 45 -200 45 -200 45
1069424737.4562 -2.5793753 -27.863316 -200 45 -200 45 -200 45
1070424854.1424 -2.5806487 -27.918081 -200 45 -200 45 -200 45
1071424970.8285 -2.5824082 -27.94998 -200 45 -200 45 -200 45
1072425087.5146 -2.5795193 -27.979631 -200 45 -200 45 -200 45
1073425204.2007 -2.581651 -28.025084 -200 45 -200 45 -200 45
1074425320.8868 -2.5826995 -28.040142 -200 45 -200 45 -200 45
1075425437.5729 -2.5802488 -28.061506 -200 45 -200 45 -200 45
1076425554.259 -2.5809255 -28.105173 -200 45 -200 45 -200 45
1077425670.9452 -2.5793467 -28.131693 -200 45 -200 45 -200 45
1078425787.6313 -2.5800564 -28.144375 -200 45 -200 45 -200 45
1079425904.3174 -2.5784049 -28.176044 -200 45 -200 45 -200 45
1080426021.0035 -2.5805113 -28.219032 -200 45 -200 45 -200 45
1081426137.6896 -2.5769849 -28.220684 -200 45 -200 45 -200 45
1082426254.3757 -2.5778725 -28.244242 -200 45 -200 45 -200 45
1083426371.0618 -2.5737352 -28.244507 -200 45 -200 45 -200 45
1084426487.748 -2.5762284 -28.25938 -200 45 -200 45 -200 45
1085426604.4341 -2.5735898 -28.256454 -200 45 -200 45 -200 45
1086426721.1202 -2.5728064 -28.261459 -200 45 -200 45 -200 45
1087426837.8063 -2.5713439 -28.285662 -200 45 -200 45 -200 45
1088426954.4924 -2.5710571 -28.292759 -200 45 -200 45 -200 45
1089427071.1785 -2.5709906 -28.28525 -200 45 -200 45 -200 45
1090427187.8646 -2.5712423 -28.289717 -200 45 -200 45 -200 45
1091427304.5508 -2.572299 -28.289162 -200 45 -200 45 -200 45
1092427421.2369 -2.5712521 -28.287338 -200 45 -200 45 -200 45
1093427537.923 -2.5717881 -28.288296 -200 45 -200 45 -200 45
1094427654.6091 -2.5706453 -28.276957 -200 45 -200 45 -200 45
1095427771.2952 -2.5720015 -28.285349 -200 45 -200 45 -200 45
1096427887.9813 -2.5721745 -28.273554 -200 45 -200 45 -200 45
1097428004.6674 -2.5715773 -28.254051 -200 45 -200 45 -200 45
1098428121.3536 -2.5726516 -28.236631 -200 45 -200 45 -200 45
1099428238.0397 -2.5736158 -28.232731 -200 45 -200 45 -200 45
1100428354.7258 -2.5752728 -28.223372 -200 45 -200 45 -200 45
1101428471.4119 -2.5768087 -28.208918 -200 45 -200 45 -200 45
1102428588.098 -2.5790362 -28.192114 -200 45 -200 45 -200 45
1103428704.7841 -2.5812583 -28.169523 -200 45 -200 45 -200 45
1104428821.4702 -2.5829885 -28.162058 -200 45 -200 45 -200 45
1105428938.1564 -2.5855544 -28.170916 -200 45 -200 45 -200 45
1106429054.8425 -2.5890009 -28.146872 -200 45 -200 45 -200 45
1107429171.5286 -2.5923429 -28.121273 -200 45 -200 45 -200 45
1108429288.2147 -2.5956068 -28.126488 -200 45 -200 45 -200 45
1109429404.9008 -2.6004212 -28.112289 -200 45 -200 45 -200 45
1110429521.5869 -2.6023459 -28.103552 -200 45 -200 45 -200 45
1111429638.273 -2.6080444 -28.094786 -200 45 -200 45 -200 45
1112429754.9592 -2.6086524 -28.098339 -200 45 -200 45 -200 45
1113429871.6453 -2.6156933 -28.081614 -200 45 -200 45 -200 45
1114429988.3314 -2.6176903 -28.075642 -200 45 -200 45 -200 45
1115430105.0175 -2.6234202 -28.072138 -200 45 -200 45 -200 45
1116430221.7036 -2.6264405 -28.060375 -200 45 -200 45 -200 45
1117430338.3897 -2.6349187 -28.067459 -200 45 -200 45 -200 45
1118430455.0758 -2.6380041 -28.068878 -200 45 -200 45 -200 45
1119430571.762 -2.6462016 -28.067783 -200 45 -200 45 -200 45
1120430688.4481 -2.6511772 -28.069523 -200 45 -200 45 -200 45
1121430805.1342 -2.6607151 -28.078392 -200 45 -200 45 -200 45
1122430921.8203 -2.6647825 -28.074219 -200 45 -200 45 -200 45
1123431038.5064 -2.6734145 -28.057457 -200 45 -200 45 -200 45
1124431155.1925 -2.681016 -28.060982 -200 45 -200 45 -200 45
1125431271.8786 -2.6857991 -28.078928 -200 45 -200 45 -200 45
1126431388.5648 -2.6928384 -28.090559 -200 45 -200 45 -200 45
1127431505.2509 -2.7005155 -28.114159 -200 45 -200 45 -200 45
1128431621.937 -2.708493 -28.138912 -200 45 -200 45 -200 45
1129431738.6231 -2.7173219 -28.144274 -200 45 -200 45 -200 45
1130431855.3092 -2.7291017 -28.160292 -200 45 -200 45 -200 45
1131431971.9953 -2.7440252 -28.162254 -200 45 -200 45 -200 45
1132432088.6814 -2.7539265 -28.139252 -200 45 -200 45 -200 45
1133432205.3676 -2.7627797 -28.106663 -200 45 -200 45 -200 45
1134432322.0537 -2.7732725 -28.130096 -200 45 -200 45 -200 45
1135432438.7398 -2.7941875 -28.153124 -200 45 -200 45 -200 45
1136432555.4259 -2.8214271 -28.119442 -200 45 -200 45 -200 45
1137432672.112 -2.8643579 -27.924053 -200 45 -200 45 -200 45
1138432788.7981 -2.8749237 -27.41251 -200 45 -200 45 -200 45
1139432905.4842 -2.8232086 -27.052042 -200 45 -200 45 -200 45
1140433022.1704 -2.7708795 -26.971649 -200 45 -200 45 -200 45
1141433138.8565 -2.7227228 -26.984339 -200 45 -200 45 -200 45
1142433255.5426 -2.6854191 -27.130594 -200 45 -200 45 -200 45
1143433372.2287 -2.6518998 -27.215311 -200 45 -200 45 -200 45
1144433488.9148 -2.6149418 -27.439053 -200 45 -200 45 -200 45
1145433605.6009 -2.61218 -27.74004 -200 45 -200 45 -200 45
1146433722.287 -2.6163847 -27.819538 -200 45 -200 45 -200 45
1147433838.9732 -2.5949321 -27.893032 -200 45 -200 45 -200 45
1148433955.6593 -2.5727825 -28.139029 -200 45 -200 45 -200 45
1149434072.3454 -2.5716162 -28.411156 -200 45 -200 45 -200 45
1150434189.0315 -2.5808115 -28.625631 -200 45 -200 45 -200 45
1151434305.7176 -2.5885253 -28.799995 -200 45 -200 45 -200 45
1152434422.4037 -2.6096988 -28.934679 -200 45 -200 45 -200 45
1153434539.0898 -2.624233 -29.029789 -200 45 -200 45 -200 45
1154434655.776 -2.6344454 -29.068895 -200 45 -200 45 -200 45
1155434772.4621 -2.6436286 -29.129749 -200 45 -200 45 -200 45
1156434889.1482 -2.6513984 -29.172455 -200 45 -200 45 -200 45
1157435005.8343 -2.6565893 -29.213221 -200 45 -200 45 -200 45
1158435122.5204 -2.6603806 -29.250504 -200 45 -200 45 -200 45
1159435239.2065 -2.6634243 -29.284033 -200 45 -200 45 -200 45
1160435355.8926 -2.667069 -29.309349 -200 45 -200 45 -200 45
1161435472.5788 -2.6702614 -29.338976 -200 45 -200 45 -200 45
1162435589.2649 -2.6721911 -29.369926 -200 45 -200 45 -200 45
1163435705.951 -2.6716175 -29.39142 -200 45 -200 45 -200 45
1164435822.6371 -2.674587 -29.413067 -200 45 -200 45 -200 45
1165435939.3232 -2.6735303 -29.430906 -200 45 -200 45 -200 45
1166436056.0093 -2.6772192 -29.465761 -200 45 -200 45 -200 45
1167436172.6954 -2.6796317 -29.479216 -200 45 -200 45 -200 45
1168436289.3816 -2.6789412 -29.507473 -200 45 -200 45 -200 45
1169436406.0677 -2.6798317 -29.527018 -200 45 -200 45 -200 45
1170436522.7538 -2.6787317 -29.524076 -200 45 -200 45 -200 45
1171436639.4399 -2.6810174 -29.535913 -200 45 -200 45 -200 45
1172436756.126 -2.6816986 -29.530266 -200 45 -200 45 -200 45
1173436872.8121 -2.6842129 -29.535542 -200 45 -200 45 -200 45
1174436989.4982 -2.6829731 -29.540976 -200 45 -200 45 -200 45
1175437106.1844 -2.6850717 -29.5474 -200 45 -200 45 -200 45
1176437222.8705 -2.6839449 -29.553608 -200 45 -200 45 -200 45
1177437339.5566 -2.6838298 -29.543728 -200 45 -200 45 -200 45
1178437456.2427 -2.6849837 -29.517862 -200 45 -200 45 -200 45
1179437572.9288 -2.6875463 -29.526697 -200 45 -200 45 -200 45
1180437689.6149 -2.6881588 -29.522158 -200 45 -200 45 -200 45
1181437806.3011 -2.689754 -29.507759 -200 45 -200 45 -200 45
1182437922.9872 -2.6940417 -29.498384 -200 45 -200 45 -200 45
1183438039.6733 -2.6953859 -29.479149 -200 45 -200 45 -200 45
1184438156.3594 -2.6991718 -29.455427 -200 45 -200 45 -200 45
1185438273.0455 -2.7016404 -29.437351 -200 45 -200 45 -200 45
1186438389.7316 -2.7091904 -29.393881 -200 45 -200 45 -200 45
1187438506.4177 -2.7120795 -29.315073 -200 45 -200 45 -200 45
1188438623.1039 -2.705811 -29.270311 -200 45 -200 45 -200 45
1189438739.79 -2.7005651 -29.242416 -200 45 -200 45 -200 45
1190438856.4761 -2.6961589 -29.253574 -200 45 -200 45 -200 45
1191438973.1622 -2.6967974 -29.276838 -200 45 -200 45 -200 45
1192439089.8483 -2.7002933 -29.284454 -200 45 -200 45 -200 45
1193439206.5344 -2.7026048 -29.274952 -200 45 -200 45 -200 45
1194439323.2205 -2.7076223 -29.273296 -200 45 -200 45 -200 45
1195439439.9067 -2.7095387 -29.245483 -200 45 -200 45 -200 45
1196439556.5928 -2.7107446 -29.252037 -200 45 -200 45 -200 45
1197439673.2789 -2.7122667 -29.238523 -200 45 -200 45 -200 45
1198439789.965 -2.7157154 -29.251604 -200 45 -200 45 -200 45
1199439906.6511 -2.7224023 -29.246912 -200 45 -200 45 -200 45
1200440023.3372 -2.7281146 -29.25366 -200 45 -200 45 -200 45
1201440140.0233 -2.7334688 -29.240791 -200 45 -200 45 -200 45
1202440256.7095 -2.7354398 -29.245068 -200 45 -200 45 -200 45
1203440373.3956 -2.7394187 -29.237244 -200 45 -200 45 -200 45
1204440490.0817 -2.7441235 -29.239008 -200 45 -200 45 -200 45
1205440606.7678 -2.7513807 -29.228931 -200 45 -200 45 -200 45
1206440723.4539 -2.7561243 -29.243687 -200 45 -200 45 -200 45
1207440840.14 -2.7602797 -29.249687 -200 45 -200 45 -200 45
1208440956.8261 -2.7651145 -29.268185 -200 45 -200 45 -200 45
1209441073.5123 -2.770298 -29.264158 -200 45 -200 45 -200 45
1210441190.1984 -2.7749441 -29.289263 -200 45 -200 45 -200 45
1211441306.8845 -2.7786899 -29.286526 -200 45 -200 45 -200 45
1212441423.5706 -2.7812297 -29.295174 -200 45 -200 45 -200 45
1213441540.2567 -2.7854972 -29.318571 -200 45 -200 45 -200 45
1214441656.9428 -2.7898707 -29.346704 -200 45 -200 45 -200 45
1215441773.6289 -2.7946768 -29.362492 -200 45 -200 45 -200 45
1216441890.3151 -2.7977214 -29.388487 -200 45 -200 45 -200 45
1217442007.0012 -2.80141 -29.424732 -200 45 -200 45 -200 45
1218442123.6873 -2.8061221 -29.459959 -200 45 -200 45 -200 45
1219442240.3734 -2.8101006 -29.495667 -200 45 -200 45 -200 45
1220442357.0595 -2.8134916 -29.505068 -200 45 -200 45 -200 45
1221442473.7456 -2.816911 -29.54274 -200 45 -200 45 -200 45
1222442590.4317 -2.8208799 -29.594606 -200 45 -200 45 -200 45
1223442707.1179 -2.8229711 -29.615772 -200 45 -200 45 -200 45
1224442823.804 -2.8274748 -29.682585 -200 45 -200 45 -200 45
1225442940.4901 -2.8313985 -29.716476 -200 45 -200 45 -200 45
1226443057.1762 -2.8336239 -29.745474 -200 45 -200 45 -200 45
1227443173.8623 -2.8345177 -29.810099 -200 45 -200 45 -200 45
1228443290.5484 -2.8363535 -29.838037 -200 45 -200 45 -200 45
1229443407.2345 -2.8396297 -29.870142 -200 45 -200 45 -200 45
1230443523.9207 -2.8405004 -29.919254 -200 45 -200 45 -200 45
1231443640.6068 -2.8440387 -29.976925 -200 45 -200 45 -200 45
1232443757.2929 -2.8407726 -30.019802 -200 45 -200 45 -200 45
1233443873.979 -2.844522 -30.050497 -200 45 -200 45 -200 45
1234443990.6651 -2.8462057 -30.098421 -200 45 -200 45 -200 45
1235444107.3512 -2.8486927 -30.145672 -200 45 -200 45 -200 45
1236444224.0373 -2.8486147 -30.182487 -200 45 -200 45 -200 45
1237444340.7235 -2.8507905 -30.214899 -200 45 -200 45 -200 45
1238444457.4096 -2.8501918 -30.26239 -200 45 -200 45 -200 45
1239444574.0957 -2.8488324 -30.312168 -200 45 -200 45 -200 45
1240444690.7818 -2.8499801 -30.338089 -200 45 -200 45 -200 45
1241444807.4679 -2.8529985 -30.374395 -200 45 -200 45 -200 45
1242444924.154 -2.8512228 -30.42713 -200 45 -200 45 -200 45
1243445040.8401 -2.8494043 -30.45801 -200 45 -200 45 -200 45
1244445157.5263 -2.8485169 -30.474163 -200 45 -200 45 -200 45
1245445274.2124 -2.8500345 -30.52125 -200 45 -200 45 -200 45
1246445390.8985 -2.844872 -30.555357 -200 45 -200 45 -200 45
1247445507.5846 -2.845016 -30.575998 -200 45 -200 45 -200 45
1248445624.2707 -2.8456814 -30.611965 -200 45 -200 45 -200 45
1249445740.9568 -2.8436885 -30.629246 -200 45 -200 45 -200 45
1250445857.6429 -2.8441877 -30.655228 -200 45 -200 45 -200 45
1251445974.3291 -2.8455219 -30.683451 -200 45 -200 45 -200 45
1252446091.0152 -2.8436656 -30.68082 -200 45 -200 45 -200 45
1253446207.7013 -2.8440959 -30.706573 -200 45 -200 45 -200 45
1254446324.3874 -2.8425829 -30.726652 -200 45 -200 45 -200 45
1255446441.0735 -2.8423629 -30.729923 -200 45 -200 45 -200 45
1256446557.7596 -2.8418846 -30.753347 -200 45 -200 45 -200 45
1257446674.4457 -2.8420808 -30.750126 -200 45 -200 45 -200 45
1258446791.1319 -2.8419673 -30.767656 -200 45 -200 45 -200 45
1259446907.818 -2.8414185 -30.751495 -200 45 -200 45 -200 45
1260447024.5041 -2.8403041 -30.763639 -200 45 -200 45 -200 45
1261447141.1902 -2.8406334 -30.767778 -200 45 -200 45 -200 45
1262447257.8763 -2.8386886 -30.745424 -200 45 -200 45 -200 45
1263447374.5624 -2.8420515 -30.759678 -200 45 -200 45 -200 45
1264447491.2485 -2.8410032 -30.73344 -200 45 -200 45 -200 45
1265447607.9347 -2.8397572 -30.731699 -200 45 -200 45 -200 45
1266447724.6208 -2.8401 -30.729746 -200 45 -200 45 -200 45
1267447841.3069 -2.8443003 -30.725763 -200 45 -200 45 -200 45
1268447957.993 -2.8422234 -30.681606 -200 45 -200 45 -200 45
1269448074.6791 -2.8450603 -30.683615 -200 45 -200 45 -200 45
1270448191.3652 -2.8447707 -30.667652 -200 45 -200 45 -200 45
1271448308.0513 -2.8501124 -30.652912 -200 45 -200 45 -200 45
1272448424.7375 -2.8487859 -30.635759 -200 45 -200 45 -200 45
1273448541.4236 -2.8528557 -30.62089 -200 45 -200 45 -200 45
1274448658.1097 -2.8542848 -30.607674 -200 45 -200 45 -200 45
1275448774.7958 -2.8545756 -30.587452 -200 45 -200 45 -200 45
1276448891.4819 -2.8579879 -30.56019 -200 45 -200 45 -200 45
1277449008.168 -2.8594847 -30.556833 -200 45 -200 45 -200 45
1278449124.8541 -2.8632522 -30.537601 -200 45 -200 45 -200 45
1279449241.5403 -2.8673577 -30.517279 -200 45 -200 45 -200 45
1280449358.2264 -2.8683677 -30.50831 -200 45 -200 45 -200 45
1281449474.9125 -2.8727944 -30.501255 -200 45 -200 45 -200 45
1282449591.5986 -2.8771594 -30.481236 -200 45 -200 45 -200 45
1283449708.2847 -2.881793 -30.477161 -200 45 -200 45 -200 45
1284449824.9708 -2.8844488 -30.471134 -200 45 -200 45 -200 45
1285449941.6569 -2.8881791 -30.446934 -200 45 -200 45 -200 45
1286450058.3431 -2.8934782 -30.449793 -200 45 -200 45 -200 45
1287450175.0292 -2.8981411 -30.435886 -200 45 -200 45 -200 45
1288450291.7153 -2.9013925 -30.445974 -200 45 -200 45 -200 45
1289450408.4014 -2.9042971 -30.426783 -200 45 -200 45 -200 45
1290450525.0875 -2.9112248 -30.456087 -200 45 -200 45 -200 45
1291450641.7736 -2.916158 -30.447374 -200 45 -200 45 -200 45
1292450758.4597 -2.9151797 -30.448967 -200 45 -200 45 -200 45
1293450875.1459 -2.922024 -30.469536 -200 45 -200 45 -200 45
1294450991.832 -2.9259706 -30.485945 -200 45 -200 45 -200 45
1295451108.5181 -2.9290106 -30.476601 -200 45 -200 45 -200 45
1296451225.2042 -2.9353652 -30.505131 -200 45 -200 45 -200 45
1297451341.8903 -2.9373233 -30.495077 -200 45 -200 45 -200 45
1298451458.5764 -2.9440193 -30.513577 -200 45 -200 45 -200 45
1299451575.2625 -2.9457998 -30.536003 -200 45 -200 45 -200 45
1300451691.9487 -2.9507539 -30.564274 -200 45 -200 45 -200 45
1301451808.6348 -2.955358 -30.596573 -200 45 -200 45 -200 45
1302451925.3209 -2.9578826 -30.621655 -200 45 -200 45 -200 45
1303452042.007 -2.9625204 -30.65061 -200 45 -200 45 -200 45
1304452158.6931 -2.9686556 -30.691427 -200 45 -200 45 -200 45
1305452275.3792 -2.9702229 -30.714497 -200 45 -200 45 -200 45
1306452392.0653 -2.9727583 -30.745916 -200 45 -200 45 -200 45
1307452508.7515 -2.9763427 -30.771269 -200 45 -200 45 -200 45
1308452625.4376 -2.978246 -30.800482 -200 45 -200 45 -200 45
1309452742.1237 -2.9798157 -30.854027 -200 45 -200 45 -200 45
1310452858.8098 -2.9811552 -30.882198 -200 45 -200 45 -200 45
1311452975.4959 -2.9861732 -30.922268 -200 45 -200 45 -200 45
1312453092.182 -2.9862678 -30.969778 -200 45 -200 45 -200 45
1313453208.8681 -2.989589 -31.010153 -200 45 -200 45 -200 45
1314453325.5543 -2.9902835 -31.060705 -200 45 -200 45 -200 45
1315453442.2404 -2.9938996 -31.084126 -200 45 -200 45 -200 45
1316453558.9265 -2.9942179 -31.135742 -200 45 -200 45 -200 45
1317453675.6126 -2.9953253 -31.183369 -200 45 -200 45 -200 45
1318453792.2987 -2.9969287 -31.22559 -200 45 -200 45 -200 45
1319453908.9848 -2.9972584 -31.26063 -200 45 -200 45 -200 45
1320454025.6709 -2.9978595 -31.298004 -200 45 -200 45 -200 45
1321454142.3571 -2.9978857 -31.336338 -200 45 -200 45 -200 45
1322454259.0432 -2.9962573 -31.375956 -200 45 -200 45 -200 45
1323454375.7293 -2.9987199 -31.42132 -200 45 -200 45 -200 45
1324454492.4154 -2.9974315 -31.457174 -200 45 -200 45 -200 45
1325454609.1015 -2.9933338 -31.495422 -200 45 -200 45 -200 45
1326454725.7876 -2.9948962 -31.537664 -200 45 -200 45 -200 45
1327454842.4737 -2.9954813 -31.571613 -200 45 -200 45 -200 45
1328454959.1599 -2.9940357 -31.596357 -200 45 -200 45 -200 45
1329455075.846 -2.9950943 -31.622747 -200 45 -200 45 -200 45
1330455192.5321 -2.9938757 -31.660864 -200 45 -200 45 -200 45
1331455309.2182 -2.991756 -31.69171 -200 45 -200 45 -200 45
1332455425.9043 -2.9919515 -31.710072 -200 45 -200 45 -200 45
1333455542.5904 -2.9908235 -31.737103 -200 45 -200 45 -200 45
1334455659.2765 -2.9898908 -31.756279 -200 45 -200 45 -200 45
1335455775.9627 -2.9883904 -31.778681 -200 45 -200 45 -200 45
1336455892.6488 -2.9896281 -31.795334 -200 45 -200 45 -200 45
1337456009.3349 -2.98788 -31.819843 -200 45 -200 45 -200 45
1338456126.021 -2.985965 -31.831297 -200 45 -200 45 -200 45
1339456242.7071 -2.9856164 -31.8449 -200 45 -200 45 -200 45
1340456359.3932 -2.9848897 -31.859104 -200 45 -200 45 -200 45
1341456476.0793 -2.9825356 -31.859222 -200 45 -200 45 -200 45
1342456592.7655 -2.9842591 -31.857714 -200 45 -200 45 -200 45
1343456709.4516 -2.983052 -31.860275 -200 45 -200 45 -200 45
1344456826.1377 -2.9806702 -31.88106 -200 45 -200 45 -200 45
1345456942.8238 -2.9807453 -31.874104 -200 45 -200 45 -200 45
1346457059.5099 -2.9815285 -31.879513 -200 45 -200 45 -200 45
1347457176.196 -2.9801519 -31.868755 -200 45 -200 45 -200 45
1348457292.8821 -2.9809761 -31.849777 -200 45 -200 45 -200 45
1349457409.5683 -2.9817984 -31.852966 -200 45 -200 45 -200 45
1350457526.2544 -2.9807494 -31.837851 -200 45 -200 45 -200 45
1351457642.9405 -2.9793565 -31.821518 -200 45 -200 45 -200 45
1352457759.6266 -2.9822187 -31.809586 -200 45 -200 45 -200 45
1353457876.3127 -2.9830027 -31.794168 -200 45 -200 45 -200 45
1354457992.9988 -2.9851384 -31.779022 -200 45 -200 45 -200 45
1355458109.6849 -2.9854672 -31.791494 -200 45 -200 45 -200 45
1356458226.3711 -2.9872966 -31.772549 -200 45 -200 45 -200 45
1357458343.0572 -2.9879584 -31.758289 -200 45 -200 45 -200 45
1358458459.7433 -2.9903433 -31.73127 -200 45 -200 45 -200 45
1359458576.4294 -2.9932868 -31.729027 -200 45 -200 45 -200 45
1360458693.1155 -2.9913216 -31.706869 -200 45 -200 45 -200 45
1361458809.8016 -2.9964483 -31.693499 -200 45 -200 45 -200 45
1362458926.4877 -2.9986937 -31.659952 -200 45 -200 45 -200 45
1363459043.1739 -3.0046465 -31.658955 -200 45 -200 45 -200 45
1364459159.86 -3.0075243 -31.635227 -200 45 -200 45 -200 45
1365459276.5461 -3.009908 -31.632809 -200 45 -200 45 -200 45
1366459393.2322 -3.0145147 -31.615591 -200 45 -200 45 -200 45
1367459509.9183 -3.0176754 -31.621788 -200 45 -200 45 -200 45
1368459626.6044 -3.021621 -31.605608 -200 45 -200 45 -200 45
1369459743.2905 -3.0252244 -31.590055 -200 45 -200 45 -200 45
1370459859.9767 -3.0274065 -31.584383 -200 45 -200 45 -200 45
1371459976.6628 -3.0315099 -31.598 -200 45 -200 45 -200 45
1372460093.3489 -3.0363677 -31.57478 -200 45 -200 45 -200 45
1373460210.035 -3.0397751 -31.571711 -200 45 -200 45 -200 45
1374460326.7211 -3.0425272 -31.574015 -200 45 -200 45 -200 45
1375460443.4072 -3.0492237 -31.570009 -200 45 -200 45 -200 45
1376460560.0933 -3.0529041 -31.572607 -200 45 -200 45 -200 45
1377460676.7795 -3.0572407 -31.578672 -200 45 -200 45 -200 45
1378460793.4656 -3.0624485 -31.597187 -200 45 -200 45 -200 45
1379460910.1517 -3.0654941 -31.615795 -200 45 -200 45 -200 45
1380461026.8378 -3.0714991 -31.598696 -200 45 -200 45 -200 45
1381461143.5239 -3.0745411 -31.644041 -200 45 -200 45 -200 45
1382461260.21 -3.0777261 -31.639725 -200 45 -200 45 -200 45
1383461376.8961 -3.0843327 -31.659979 -200 45 -200 45 -200 45
1384461493.5823 -3.0870519 -31.681717 -200 45 -200 45 -200 45
1385461610.2684 -3.0919785 -31.698112 -200 45 -200 45 -200 45
1386461726.9545 -3.09513 -31.718784 -200 45 -200 45 -200 45
1387461843.6406 -3.0991504 -31.745804 -200 45 -200 45 -200 45
1388461960.3267 -3.1013279 -31.783066 -200 45 -200 45 -200 45
1389462077.0128 -3.1061902 -31.821169 -200 45 -200 45 -200 45
1390462193.6989 -3.1098559 -31.862864 -200 45 -200 45 -200 45
1391462310.3851 -3.1107376 -31.869261 -200 45 -200 45 -200 45
1392462427.0712 -3.1154537 -31.878201 -200 45 -200 45 -200 45
1393462543.7573 -3.1153665 -31.939482 -200 45 -200 45 -200 45
1394462660.4434 -3.1199577 -31.948906 -200 45 -200 45 -200 45
1395462777.1295 -3.1220281 -31.997969 -200 45 -200 45 -200 45
1396462893.8156 -3.1246169 -32.032845 -200 45 -200 45 -200 45
1397463010.5018 -3.1254768 -32.073856 -200 45 -200 45 -200 45
1398463127.1879 -3.1290574 -32.121407 -200 45 -200 45 -200 45
1399463243.874 -3.1305566 -32.14389 -200 45 -200 45 -200 45
1400463360.5601 -3.1305828 -32.208302 -200 45 -200 45 -200 45
1401463477.2462 -3.1331708 -32.244484 -200 45 -200 45 -200 45
1402463593.9323 -3.1344683 -32.290363 -200 45 -200 45 -200 45
1403463710.6184 -3.134726 -32.333878 -200 45 -200 45 -200 45
1404463827.3046 -3.1350656 -32.355152 -200 45 -200 45 -200 45
1405463943.9907 -3.1360903 -32.404503 -200 45 -200 45 -200 45
1406464060.6768 -3.1364946 -32.455265 -200 45 -200 45 -200 45
1407464177.3629 -3.1348321 -32.493877 -200 45 -200 45 -200 45
1408464294.049 -3.1359065 -32.545609 -200 45 -200 45 -200 45
1409464410.7351 -3.1345644 -32.585308 -200 45 -200 45 -200 45
1410464527.4212 -3.1368418 -32.609104 -200 45 -200 45 -200 45
1411464644.1074 -3.1355999 -32.635628 -200 45 -200 45 -200 45
1412464760.7935 -3.1348641 -32.65818 -200 45 -200 45 -200 45
1413464877.4796 -3.1345534 -32.712772 -200 45 -200 45 -200 45
1414464994.1657 -3.1356118 -32.733456 -200 45 -200 45 -200 45
1415465110.8518 -3.1328053 -32.768723 -200 45 -200 45 -200 45
1416465227.5379 -3.1320338 -32.792027 -200 45 -200 45 -200 45
1417465344.224 -3.1300733 -32.826588 -200 45 -200 45 -200 45
1418465460.9102 -3.1281686 -32.842381 -200 45 -200 45 -200 45
1419465577.5963 -3.1294832 -32.865314 -200 45 -200 45 -200 45
1420465694.2824 -3.1280131 -32.875404 -200 45 -200 45 -200 45
1421465810.9685 -3.1263957 -32.904163 -200 45 -200 45 -200 45
1422465927.6546 -3.1252341 -32.912891 -200 45 -200 45 -200 45
1423466044.3407 -3.124609 -32.924068 -200 45 -200 45 -200 45
1424466161.0268 -3.1228385 -32.970181 -200 45 -200 45 -200 45
1425466277.713 -3.1209857 -32.962982 -200 45 -200 45 -200 45
1426466394.3991 -3.1217029 -32.968708 -200 45 -200 45 -200 45
1427466511.0852 -3.1191833 -32.979546 -200 45 -200 45 -200 45
1428466627.7713 -3.1214008 -32.981789 -200 45 -200 45 -200 45
1429466744.4574 -3.1177354 -32.981438 -200 45 -200 45 -200 45
1430466861.1435 -3.1179144 -32.97234 -200 45 -200 45 -200 45
1431466977.8296 -3.1154392 -32.985229 -200 45 -200 45 -200 45
1432467094.5158 -3.1175864 -32.97261 -200 45 -200 45 -200 45
1433467211.2019 -3.117106 -32.963299 -200 45 -200 45 -200 45
1434467327.888 -3.1157341 -32.965233 -200 45 -200 45 -200 45
1435467444.5741 -3.1150763 -32.940605 -200 45 -200 45 -200 45
1436467561.2602 -3.1153946 -32.929409 -200 45 -200 45 -200 45
1437467677.9463 -3.117991 -32.924587 -200 45 -200 45 -200 45
1438467794.6324 -3.1158113 -32.915951 -200 45 -200 45 -200 45
1439467911.3186 -3.115936 -32.912003 -200 45 -200 45 -200 45
1440468028.0047 -3.1181769 -32.894985 -200 45 -200 45 -200 45
1441468144.6908 -3.1185508 -32.866364 -200 45 -200 45 -200 45
1442468261.3769 -3.1203015 -32.854008 -200 45 -200 45 -200 45
1443468378.063 -3.1230712 -32.841782 -200 45 -200 45 -200 45
1444468494.7491 -3.1242969 -32.833843 -200 45 -200 45 -200 45
1445468611.4352 -3.125634 -32.803524 -200 45 -200 45 -200 45
1446468728.1214 -3.1293623 -32.775429 -200 45 -200 45 -200 45
1447468844.8075 -3.1315229 -32.766243 -200 45 -200 45 -200 45
1448468961.4936 -3.1333635 -32.759579 -200 45 -200 45 -200 45
1449469078.1797 -3.1377499 -32.751659 -200 45 -200 45 -200 45
1450469194.8658 -3.1390357 -32.71983 -200 45 -200 45 -200 45
1451469311.5519 -3.1407492 -32.709877 -200 45 -200 45 -200 45
1452469428.238 -3.1453152 -32.722672 -200 45 -200 45 -200 45
1453469544.9242 -3.1474853 -32.693882 -200 45 -200 45 -200 45
1454469661.6103 -3.1485906 -32.693836 -200 45 -200 45 -200 45
1455469778.2964 -3.154243 -32.689392 -200 45 -200 45 -200 45
1456469894.9825 -3.1594238 -32.691822 -200 45 -200 45 -200 45
1457470011.6686 -3.1613195 -32.67522 -200 45 -200 45 -200 45
1458470128.3547 -3.1654351 -32.663242 -200 45 -200 45 -200 45
1459470245.0408 -3.171952 -32.665798 -200 45 -200 45 -200 45
1460470361.727 -3.1754563 -32.661808 -200 45 -200 45 -200 45
1461470478.4131 -3.1792915 -32.663723 -200 45 -200 45 -200 45
1462470595.0992 -3.1828582 -32.668312 -200 45 -200 45 -200 45
1463470711.7853 -3.1891091 -32.677017 -200 45 -200 45 -200 45
1464470828.4714 -3.1907699 -32.670372 -200 45 -200 45 -200 45
1465470945.1575 -3.1958702 -32.689957 -200 45 -200 45 -200 45
1466471061.8436 -3.202188 -32.682556 -200 45 -200 45 -200 45
1467471178.5298 -3.2055786 -32.716312 -200 45 -200 45 -200 45
1468471295.2159 -3.2085397 -32.719555 -200 45 -200 45 -200 45
1469471411.902 -3.2143588 -32.739513 -200 45 -200 45 -200 45
1470471528.5881 -3.2169714 -32.760452 -200 45 -200 45 -200 45
1471471645.2742 -3.2216153 -32.790016 -200 45 -200 45 -200 45
1472471761.9603 -3.2241414 -32.834312 -200 45 -200 45 -200 45
1473471878.6464 -3.2273519 -32.831047 -200 45 -200 45 -200 45
1474471995.3326 -3.2315681 -32.852627 -200 45 -200 45 -200 45
1475472112.0187 -3.2367153 -32.904804 -200 45 -200 45 -200 45
1476472228.7048 -3.2398255 -32.921104 -200 45 -200 45 -200 45
1477472345.3909 -3.2416048 -32.954048 -200 45 -200 45 -200 45
1478472462.077 -3.2450693 -32.979771 -200 45 -200 45 -200 45
1479472578.7631 -3.2486537 -33.029289 -200 45 -200 45 -200 45
1480472695.4492 -3.2512431 -33.060928 -200 45 -200 45 -200 45
1481472812.1354 -3.2559633 -33.096146 -200 45 -200 45 -200 45
1482472928.8215 -3.2565944 -33.15284 -200 45 -200 45 -200 45
1483473045.5076 -3.2574575 -33.177395 -200 45 -200 45 -200 45
1484473162.1937 -3.25983 -33.212002 -200 45 -200 45 -200 45
1485473278.8798 -3.2623963 -33.264538 -200 45 -200 45 -200 45
1486473395.5659 -3.2626607 -33.305233 -200 45 -200 45 -200 45
1487473512.252 -3.2626169 -33.353325 -200 45 -200 45 -200 45
1488473628.9382 -3.2630618 -33.384888 -200 45 -200 45 -200 45
1489473745.6243 -3.2656274 -33.440876 -200 45 -200 45 -200 45
1490473862.3104 -3.2664173 -33.467098 -200 45 -200 45 -200 45
1491473978.9965 -3.2664273 -33.505116 -200 45 -200 45 -200 45
1492474095.6826 -3.265265 -33.550453 -200 45 -200 45 -200 45
1493474212.3687 -3.2673836 -33.600681 -200 45 -200 45 -200 45
1494474329.0548 -3.2677276 -33.635231 -200 45 -200 45 -200 45
1495474445.741 -3.2674227 -33.672363 -200 45 -200 45 -200 45
1496474562.4271 -3.2664654 -33.694496 -200 45 -200 45 -200 45
1497474679.1132 -3.2690625 -33.737503 -200 45 -200 45 -200 45
1498474795.7993 -3.2648981 -33.767338 -200 45 -200 45 -200 45
1499474912.4854 -3.2656257 -33.811184 -200 45 -200 45 -200 45
1500475029.1715 -3.2626119 -33.825329 -200 45 -200 45 -200 45
1501475145.8576 -3.2631941 -33.863388 -200 45 -200 45 -200 45
1502475262.5438 -3.2619781 -33.903435 -200 45 -200 45 -200 45
1503475379.2299 -3.2603378 -33.923538 -200 45 -200 45 -200 45
1504475495.916 -3.2571108 -33.948841 -200 45 -200 45 -200 45
1505475612.6021 -3.2597258 -33.979275 -200 45 -200 45 -200 45
1506475729.2882 -3.2587531 -33.992958 -200 45 -200 45 -200 45
1507475845.9743 -3.2550421 -34.02142 -200 45 -200 45 -200 45
1508475962.6604 -3.2543423 -34.02589 -200 45 -200 45 -200 45
1509476079.3466 -3.2534761 -34.035892 -200 45 -200 45 -200 45
1510476196.0327 -3.2545514 -34.045818 -200 45 -200 45 -200 45
1511476312.7188 -3.2521462 -34.058174 -200 45 -200 45 -200 45
1512476429.4049 -3.2531979 -34.077553 -200 45 -200 45 -200 45
1513476546.091 -3.2518251 -34.064098 -200 45 -200 45 -200 45
1514476662.7771 -3.2524927 -34.082859 -200 45 -200 45 -200 45
1515476779.4632 -3.2496183 -34.070988 -200 45 -200 45 -200 45
1516476896.1494 -3.2512705 -34.064064 -200 45 -200 45 -200 45
1517477012.8355 -3.2518961 -34.068829 -200 45 -200 45 -200 45
1518477129.5216 -3.2494605 -34.060833 -200 45 -200 45 -200 45
1519477246.2077 -3.2461796 -34.040775 -200 45 -200 45 -200 45
1520477362.8938 -3.2477946 -34.030449 -200 45 -200 45 -200 45
1521477479.5799 -3.2466953 -34.004768 -200 45 -200 45 -200 45
1522477596.266 -3.2475638 -33.988178 -200 45 -200 45 -200 45
1523477712.9522 -3.2502172 -33.980072 -200 45 -200 45 -200 45
1524477829.6383 -3.2483306 -33.966171 -200 45 -200 45 -200 45
1525477946.3244 -3.2510626 -33.938522 -200 45 -200 45 -200 45
1526478063.0105 -3.2509208 -33.930241 -200 45 -200 45 -200 45
1527478179.6966 -3.2570229 -33.907482 -200 45 -200 45 -200 45
1528478296.3827 -3.2562759 -33.904373 -200 45 -200 45 -200 45
1529478413.0688 -3.2572756 -33.875401 -200 45 -200 45 -200 45
1530478529.755 -3.2586806 -33.857883 -200 45 -200 45 -200 45
1531478646.4411 -3.2612803 -33.840572 -200 45 -200 45 -200 45
1532478763.1272 -3.2657216 -33.823341 -200 45 -200 45 -200 45
1533478879.8133 -3.2639635 -33.798473 -200 45 -200 45 -200 45
1534478996.4994 -3.2701948 -33.781017 -200 45 -200 45 -200 45
1535479113.1855 -3.2708504 -33.763165 -200 45 -200 45 -200 45
1536479229.8716 -3.2763851 -33.765652 -200 45 -200 45 -200 45
1537479346.5578 -3.2774253 -33.755245 -200 45 -200 45 -200 45
1538479463.2439 -3.2800484 -33.728642 -200 45 -200 45 -200 45
1539479579.93 -3.2855475 -33.697849 -200 45 -200 45 -200 45
1540479696.6161 -3.2880869 -33.693962 -200 45 -200 45 -200 45
1541479813.3022 -3.2932067 -33.688755 -200 45 -200 45 -200 45
1542479929.9883 -3.294157 -33.671467 -200 45 -200 45 -200 45
1543480046.6744 -3.3006334 -33.669209 -200 45 -200 45 -200 45
1544480163.3606 -3.305707 -33.669865 -200 45 -200 45 -200 45
1545480280.0467 -3.3092117 -33.671143 -200 45 -200 45 -200 45
1546480396.7328 -3.3131142 -33.667274 -200 45 -200 45 -200 45
1547480513.4189 -3.3158858 -33.67173 -200 45 -200 45 -200 45
1548480630.105 -3.3219709 -33.655338 -200 45 -200 45 -200 45
1549480746.7911 -3.3294973 -33.669804 -200 45 -200 45 -200 45
1550480863.4772 -3.3293693 -33.677174 -200 45 -200 45 -200 45
1551480980.1634 -3.3337359 -33.675301 -200 45 -200 45 -200 45
1552481096.8495 -3.3365028 -33.685112 -200 45 -200 45 -200 45
1553481213.5356 -3.3379238 -33.707951 -200 45 -200 45 -200 45
1554481330.2217 -3.3455422 -33.723778 -200 45 -200 45 -200 45
1555481446.9078 -3.3505428 -33.743111 -200 45 -200 45 -200 45
1556481563.5939 -3.3531168 -33.755653 -200 45 -200 45 -200 45
1557481680.28 -3.3568711 -33.78001 -200 45 -200 45 -200 45
1558481796.9662 -3.3626924 -33.808697 -200 45 -200 45 -200 45
1559481913.6523 -3.3649917 -33.834435 -200 45 -200 45 -200 45
1560482030.3384 -3.370904 -33.846806 -200 45 -200 45 -200 45
1561482147.0245 -3.3741298 -33.884254 -200 45 -200 45 -200 45
1562482263.7106 -3.3783908 -33.9133 -200 45 -200 45 -200 45
1563482380.3967 -3.380121 -33.952606 -200 45 -200 45 -200 45
1564482497.0828 -3.3797977 -33.975571 -200 45 -200 45 -200 45
1565482613.769 -3.3853431 -34.021347 -200 45 -200 45 -200 45
1566482730.4551 -3.3849926 -34.069199 -200 45 -200 45 -200 45
1567482847.1412 -3.3884315 -34.121738 -200 45 -200 45 -200 45
1568482963.8273 -3.3926985 -34.155006 -200 45 -200 45 -200 45
1569483080.5134 -3.3935626 -34.199371 -200 45 -200 45 -200 45
1570483197.1995 -3.3937242 -34.226269 -200 45 -200 45 -200 45
1571483313.8856 -3.3958771 -34.284248 -200 45 -200 45 -200 45
1572483430.5718 -3.3971038 -34.326965 -200 45 -200 45 -200 45
1573483547.2579 -3.3980601 -34.358284 -200 45 -200 45 -200 45
1574483663.944 -3.4006884 -34.383503 -200 45 -200 45 -200 45
1575483780.6301 -3.4010947 -34.456223 -200 45 -200 45 -200 45
1576483897.3162 -3.4027033 -34.476357 -200 45 -200 45 -200 45
1577484014.0023 -3.4034357 -34.513165 -200 45 -200 45 -200 45
1578484130.6884 -3.4015765 -34.552681 -200 45 -200 45 -200 45
1579484247.3746 -3.3995805 -34.586506 -200 45 -200 45 -200 45
1580484364.0607 -3.4016311 -34.65284 -200 45 -200 45 -200 45
1581484480.7468 -3.399951 -34.668293 -200 45 -200 45 -200 45
1582484597.4329 -3.4012275 -34.701458 -200 45 -200 45 -200 45
1583484714.119 -3.3963244 -34.73698 -200 45 -200 45 -200 45
1584484830.8051 -3.3994539 -34.76915 -200 45 -200 45 -200 45
1585484947.4912 -3.3963094 -34.809017 -200 45 -200 45 -200 45
1586485064.1774 -3.3977616 -34.830841 -200 45 -200 45 -200 45
1587485180.8635 -3.3953958 -34.867523 -200 45 -200 45 -200 45
1588485297.5496 -3.3922863 -34.904495 -200 45 -200 45 -200 45
1589485414.2357 -3.3920162 -34.90596 -200 45 -200 45 -200 45
1590485530.9218 -3.3906207 -34.943169 -200 45 -200 45 -200 45
1591485647.6079 -3.3903599 -34.956684 -200 45 -200 45 -200 45
1592485764.294 -3.3910208 -34.969292 -200 45 -200 45 -200 45
1593485880.9802 -3.3897216 -34.989983 -200 45 -200 45 -200 45
1594485997.6663 -3.3893454 -35.020679 -200 45 -200 45 -200 45
1595486114.3524 -3.3866992 -35.015804 -200 45 -200 45 -200 45
1596486231.0385 -3.3849738 -35.029362 -200 45 -200 45 -200 45
1597486347.7246 -3.3844998 -35.040043 -200 45 -200 45 -200 45
1598486464.4107 -3.3849852 -35.032379 -200 45 -200 45 -200 45
1599486581.0968 -3.3830464 -35.046638 -200 45 -200 45 -200 45
1600486697.783 -3.3815978 -35.025284 -200 45 -200 45 -200 45
1601486814.4691 -3.3808312 -35.033478 -200 45 -200 45 -200 45
1602486931.1552 -3.3797584 -35.029491 -200 45 -200 45 -200 45
1603487047.8413 -3.3787465 -35.022598 -200 45 -200 45 -200 45
1604487164.5274 -3.3817508 -35.012089 -200 45 -200 45 -200 45
1605487281.2135 -3.377389 -35.007034 -200 45 -200 45 -200 45
1606487397.8997 -3.3802569 -35.006454 -200 45 -200 45 -200 45
1607487514.5858 -3.3803773 -34.981129 -200 45 -200 45 -200 45
1608487631.2719 -3.3793952 -34.95911 -200 45 -200 45 -200 45
1609487747.958 -3.3832738 -34.948647 -200 45 -200 45 -200 45
1610487864.6441 -3.3824446 -34.947636 -200 45 -200 45 -200 45
1611487981.3302 -3.3840816 -34.923439 -200 45 -200 45 -200 45
1612488098.0163 -3.3865807 -34.896935 -200 45 -200 45 -200 45
1613488214.7025 -3.3836741 -34.87999 -200 45 -200 45 -200 45
1614488331.3886 -3.3858063 -34.850502 -200 45 -200 45 -200 45
1615488448.0747 -3.3871551 -34.849144 -200 45 -200 45 -200 45
1616488564.7608 -3.3916039 -34.828339 -200 45 -200 45 -200 45
1617488681.4469 -3.3930869 -34.800018 -200 45 -200 45 -200 45
1618488798.133 -3.3956385 -34.791553 -200 45 -200 45 -200 45
1619488914.8191 -3.3977196 -34.75893 -200 45 -200 45 -200 45
1620489031.5053 -3.3993728 -34.725624 -200 45 -200 45 -200 45
1621489148.1914 -3.4038584 -34.718224 -200 45 -200 45 -200 45
1622489264.8775 -3.4053457 -34.686085 -200 45 -200 45 -200 45
1623489381.5636 -3.40943 -34.673157 -200 45 -200 45 -200 45
1624489498.2497 -3.4123766 -34.660019 -200 45 -200 45 -200 45
1625489614.9358 -3.4186003 -34.63472 -200 45 -200 45 -200 45
1626489731.6219 -3.417726 -34.626434 -200 45 -200 45 -200 45
1627489848.3081 -3.4250317 -34.609932 -200 45 -200 45 -200 45
1628489964.9942 -3.4266226 -34.599434 -200 45 -200 45 -200 45
1629490081.6803 -3.4315825 -34.591557 -200 45 -200 45 -200 45
1630490198.3664 -3.4332125 -34.577385 -200 45 -200 45 -200 45
1631490315.0525 -3.4378762 -34.56424 -200 45 -200 45 -200 45
1632490431.7386 -3.4424062 -34.568336 -200 45 -200 45 -200 45
1633490548.4247 -3.4430501 -34.559803 -200 45 -200 45 -200 45
1634490665.1109 -3.4487729 -34.561764 -200 45 -200 45 -200 45
1635490781.797 -3.456352 -34.583504 -200 45 -200 45 -200 45
1636490898.4831 -3.4600403 -34.564972 -200 45 -200 45 -200 45
1637491015.1692 -3.463613 -34.598564 -200 45 -200 45 -200 45
1638491131.8553 -3.4672523 -34.592911 -200 45 -200 45 -200 45
1639491248.5414 -3.4707735 -34.613174 -200 45 -200 45 -200 45
1640491365.2275 -3.475457 -34.619656 -200 45 -200 45 -200 45
1641491481.9137 -3.4774966 -34.633186 -200 45 -200 45 -200 45
1642491598.5998 -3.482759 -34.669163 -200 45 -200 45 -200 45
1643491715.2859 -3.4871476 -34.667931 -200 45 -200 45 -200 45
1644491831.972 -3.4906256 -34.689301 -200 45 -200 45 -200 45
1645491948.6581 -3.4930029 -34.724796 -200 45 -200 45 -200 45
1646492065.3442 -3.4973407 -34.74659 -200 45 -200 45 -200 45
1647492182.0303 -3.5009549 -34.769962 -200 45 -200 45 -200 45
1648492298.7165 -3.5019524 -34.813 -200 45 -200 45 -200 45
1649492415.4026 -3.5056398 -34.828667 -200 45 -200 45 -200 45
1650492532.0887 -3.5078485 -34.873875 -200 45 -200 45 -200 45
1651492648.7748 -3.5084827 -34.897011 -200 45 -200 45 -200 45
1652492765.4609 -3.5139406 -34.940475 -200 45 -200 45 -200 45
1653492882.147 -3.513485 -34.986332 -200 45 -200 45 -200 45
1654492998.8331 -3.5167868 -35.019115 -200 45 -200 45 -200 45
1655493115.5193 -3.5157874 -35.051071 -200 45 -200 45 -200 45
1656493232.2054 -3.519711 -35.093918 -200 45 -200 45 -200 45
1657493348.8915 -3.5201778 -35.140263 -200 45 -200 45 -200 45
1658493465.5776 -3.5204277 -35.168102 -200 45 -200 45 -200 45
1659493582.2637 -3.5187368 -35.215004 -200 45 -200 45 -200 45
1660493698.9498 -3.5231979 -35.273773 -200 45 -200 45 -200 45
1661493815.6359 -3.5221689 -35.322319 -200 45 -200 45 -200 45
1662493932.3221 -3.5222242 -35.351589 -200 45 -200 45 -200 45
1663494049.0082 -3.5216837 -35.403679 -200 45 -200 45 -200 45
1664494165.6943 -3.5224304 -35.457275 -200 45 -200 45 -200 45
1665494282.3804 -3.5223358 -35.498108 -200 45 -200 45 -200 45
1666494399.0665 -3.5203998 -35.53236 -200 45 -200 45 -200 45
1667494515.7526 -3.5194032 -35.567036 -200 45 -200 45 -200 45
1668494632.4387 -3.5188229 -35.603626 -200 45 -200 45 -200 45
1669494749.1249 -3.5170503 -35.65398 -200 45 -200 45 -200 45
1670494865.811 -3.5161417 -35.691891 -200 45 -200 45 -200 45
1671494982.4971 -3.517261 -35.716515 -200 45 -200 45 -200 45
1672495099.1832 -3.5156741 -35.742981 -200 45 -200 45 -200 45
1673495215.8693 -3.5151639 -35.774658 -200 45 -200 45 -200 45
1674495332.5554 -3.5119894 -35.808693 -200 45 -200 45 -200 45
1675495449.2415 -3.513154 -35.825092 -200 45 -200 45 -200 45
1676495565.9277 -3.5088778 -35.853497 -200 45 -200 45 -200 45
1677495682.6138 -3.5087471 -35.880905 -200 45 -200 45 -200 45
1678495799.2999 -3.5068269 -35.895565 -200 45 -200 45 -200 45
1679495915.986 -3.5058217 -35.908867 -200 45 -200 45 -200 45
1680496032.6721 -3.503072 -35.914356 -200 45 -200 45 -200 45
1681496149.3582 -3.5018439 -35.936459 -200 45 -200 45 -200 45
1682496266.0443 -3.5001266 -35.937019 -200 45 -200 45 -200 45
1683496382.7305 -3.4982986 -35.945114 -200 45 -200 45 -200 45
1684496499.4166 -3.4978204 -35.941883 -200 45 -200 45 -200 45
1685496616.1027 -3.495373 -35.93454 -200 45 -200 45 -200 45
1686496732.7888 -3.4942498 -35.942245 -200 45 -200 45 -200 45
1687496849.4749 -3.4952295 -35.939953 -200 45 -200 45 -200 45
1688496966.161 -3.4931173 -35.926414 -200 45 -200 45 -200 45
1689497082.8471 -3.4923751 -35.909939 -200 45 -200 45 -200 45
1690497199.5333 -3.4931166 -35.916592 -200 45 -200 45 -200 45
1691497316.2194 -3.4945648 -35.909496 -200 45 -200 45 -200 45
1692497432.9055 -3.4919233 -35.869724 -200 45 -200 45 -200 45
1693497549.5916 -3.4937665 -35.863186 -200 45 -200 45 -200 45
1694497666.2777 -3.4942811 -35.843575 -200 45 -200 45 -200 45
1695497782.9638 -3.4937308 -35.815723 -200 45 -200 45 -200 45
1696497899.6499 -3.493552 -35.808773 -200 45 -200 45 -200 45
1697498016.3361 -3.496119 -35.785072 -200 45 -200 45 -200 45
1698498133.0222 -3.4972899 -35.776466 -200 45 -200 45 -200 45
1699498249.7083 -3.4976177 -35.732388 -200 45 -200 45 -200 45
1700498366.3944 -3.4963188 -35.712975 -200 45 -200 45 -200 45
1701498483.0805 -3.5006678 -35.688889 -200 45 -200 45 -200 45
1702498599.7666 -3.5033329 -35.664127 -200 45 -200 45 -200 45
1703498716.4527 -3.5039444 -35.64901 -200 45 -200 45 -200 45
1704498833.1389 -3.506367 -35.614849 -200 45 -200 45 -200 45
1705498949.825 -3.508965 -35.585049 -200 45 -200 45 -200 45
1706499066.5111 -3.5118382 -35.553726 -200 45 -200 45 -200 45
1707499183.1972 -3.5147011 -35.534145 -200 45 -200 45 -200 45
1708499299.8833 -3.5142996 -35.513832 -200 45 -200 45 -200 45
1709499416.5694 -3.5216036 -35.486134 -200 45 -200 45 -200 45
1710499533.2555 -3.5207865 -35.477104 -200 45 -200 45 -200 45
1711499649.9417 -3.5256023 -35.462307 -200 45 -200 45 -200 45
1712499766.6278 -3.5308247 -35.446884 -200 45 -200 45 -200 45
1713499883.3139 -3.5353811 -35.435226 -200 45 -200 45 -200 45
1714500000 -3.5391905 -35.40601 -200 45 -200 45 -200 45
1715500116.6861 -3.5427771 -35.408772 -200 45 -200 45 -200 45
1716500233.3722 -3.5451329 -35.397202 -200 45 -200 45 -200 45
1717500350.0583 -3.5479321 -35.387165 -200 45 -200 45 -200 45
1718500466.7445 -3.5548079 -35.380341 -200 45 -200 45 -200 45
1719500583.4306 -3.5596728 -35.381779 -200 45 -200 45 -200 45
1720500700.1167 -3.5624111 -35.371445 -200 45 -200 45 -200 45
1721500816.8028 -3.5664933 -35.35717 -200 45 -200 45 -200 45
1722500933.4889 -3.5718281 -35.389874 -200 45 -200 45 -200 45
1723501050.175 -3.57459 -35.370247 -200 45 -200 45 -200 45
1724501166.8611 -3.5804098 -35.386051 -200 45 -200 45 -200 45
1725501283.5473 -3.5836036 -35.417671 -200 45 -200 45 -200 45
1726501400.2334 -3.5892437 -35.426258 -200 45 -200 45 -200 45
1727501516.9195 -3.5932741 -35.449924 -200 45 -200 45 -200 45
1728501633.6056 -3.5973163 -35.449505 -200 45 -200 45 -200 45
1729501750.2917 -3.5994048 -35.472458 -200 45 -200 45 -200 45
1730501866.9778 -3.6016872 -35.503948 -200 45 -200 45 -200 45
1731501983.6639 -3.6066165 -35.526596 -200 45 -200 45 -200 45
1732502100.3501 -3.6110563 -35.54221 -200 45 -200 45 -200 45
1733502217.0362 -3.6136372 -35.584358 -200 45 -200 45 -200 45
1734502333.7223 -3.6158423 -35.58358 -200 45 -200 45 -200 45
1735502450.4084 -3.6203949 -35.636642 -200 45 -200 45 -200 45
1736502567.0945 -3.6209939 -35.675659 -200 45 -200 45 -200 45
1737502683.7806 -3.6221175 -35.697098 -200 45 -200 45 -200 45
1738502800.4667 -3.6216452 -35.755722 -200 45 -200 45 -200 45
1739502917.1529 -3.6250687 -35.81295 -200 45 -200 45 -200 45
1740503033.839 -3.6312282 -35.866325 -200 45 -200 45 -200 45
1741503150.5251 -3.6366649 -35.879505 -200 45 -200 45 -200 45
1742503267.2112 -3.6369901 -35.886753 -200 45 -200 45 -200 45
1743503383.8973 -3.6340957 -35.918736 -200 45 -200 45 -200 45
1744503500.5834 -3.628952 -35.982849 -200 45 -200 45 -200 45
1745503617.2695 -3.6304278 -36.020596 -200 45 -200 45 -200 45
1746503733.9557 -3.6280906 -36.091644 -200 45 -200 45 -200 45
1747503850.6418 -3.6303556 -36.129269 -200 45 -200 45 -200 45
1748503967.3279 -3.6262085 -36.181847 -200 45 -200 45 -200 45
1749504084.014 -3.6264572 -36.229443 -200 45 -200 45 -200 45
1750504200.7001 -3.6259677 -36.291321 -200 45 -200 45 -200 45
1751504317.3862 -3.6244614 -36.349064 -200 45 -200 45 -200 45
1752504434.0723 -3.6251628 -36.380745 -200 45 -200 45 -200 45
1753504550.7585 -3.6235383 -36.433369 -200 45 -200 45 -200 45
1754504667.4446 -3.62184 -36.448318 -200 45 -200 45 -200 45
1755504784.1307 -3.621433 -36.495003 -200 45 -200 45 -200 45
1756504900.8168 -3.6205642 -36.532986 -200 45 -200 45 -200 45
1757505017.5029 -3.6197808 -36.565887 -200 45 -200 45 -200 45
1758505134.189 -3.6192381 -36.629749 -200 45 -200 45 -200 45
1759505250.8751 -3.6162865 -36.643993 -200 45 -200 45 -200 45
1760505367.5613 -3.615731 -36.678974 -200 45 -200 45 -200 45
1761505484.2474 -3.615005 -36.697071 -200 45 -200 45 -200 45
1762505600.9335 -3.6107867 -36.731724 -200 45 -200 45 -200 45
1763505717.6196 -3.6093538 -36.757469 -200 45 -200 45 -200 45
1764505834.3057 -3.6070862 -36.769218 -200 45 -200 45 -200 45
1765505950.9918 -3.604161 -36.780838 -200 45 -200 45 -200 45
1766506067.6779 -3.6025817 -36.781796 -200 45 -200 45 -200 45
1767506184.3641 -3.6020074 -36.797768 -200 45 -200 45 -200 45
1768506301.0502 -3.6003981 -36.815258 -200 45 -200 45 -200 45
1769506417.7363 -3.5978 -36.806095 -200 45 -200 45 -200 45
1770506534.4224 -3.5970867 -36.802315 -200 45 -200 45 -200 45
1771506651.1085 -3.5943944 -36.823799 -200 45 -200 45 -200 45
1772506767.7946 -3.5931907 -36.795147 -200 45 -200 45 -200 45
1773506884.4807 -3.5928354 -36.809467 -200 45 -200 45 -200 45
1774507001.1669 -3.5889313 -36.790157 -200 45 -200 45 -200 45
1775507117.853 -3.5891678 -36.777676 -200 45 -200 45 -200 45
1776507234.5391 -3.5886979 -36.775089 -200 45 -200 45 -200 45
1777507351.2252 -3.5862226 -36.75869 -200 45 -200 45 -200 45
1778507467.9113 -3.5871279 -36.742306 -200 45 -200 45 -200 45
1779507584.5974 -3.5876329 -36.728092 -200 45 -200 45 -200 45
1780507701.2835 -3.5864887 -36.68824 -200 45 -200 45 -200 45
1781507817.9697 -3.5876889 -36.673428 -200 45 -200 45 -200 45
1782507934.6558 -3.5888577 -36.630623 -200 45 -200 45 -200 45
1783508051.3419 -3.5877028 -36.605545 -200 45 -200 45 -200 45
1784508168.028 -3.590462 -36.584915 -200 45 -200 45 -200 45
1785508284.7141 -3.5903366 -36.562122 -200 45 -200 45 -200 45
1786508401.4002 -3.59326 -36.530998 -200 45 -200 45 -200 45
1787508518.0863 -3.5933597 -36.509487 -200 45 -200 45 -200 45
1788508634.7725 -3.5965083 -36.461338 -200 45 -200 45 -200 45
1789508751.4586 -3.5974677 -36.45068 -200 45 -200 45 -200 45
1790508868.1447 -3.6000192 -36.396004 -200 45 -200 45 -200 45
1791508984.8308 -3.6019053 -36.398327 -200 45 -200 45 -200 45
1792509101.5169 -3.6055367 -36.350925 -200 45 -200 45 -200 45
1793509218.203 -3.6069946 -36.334679 -200 45 -200 45 -200 45
1794509334.8891 -3.609555 -36.311451 -200 45 -200 45 -200 45
1795509451.5753 -3.6122146 -36.290916 -200 45 -200 45 -200 45
1796509568.2614 -3.6153843 -36.271511 -200 45 -200 45 -200 45
1797509684.9475 -3.6195745 -36.244843 -200 45 -200 45 -200 45
1798509801.6336 -3.6236866 -36.238132 -200 45 -200 45 -200 45
1799509918.3197 -3.6253591 -36.213291 -200 45 -200 45 -200 45
1800510035.0058 -3.6313794 -36.181992 -200 45 -200 45 -200 45
1801510151.6919 -3.6340075 -36.188141 -200 45 -200 45 -200 45
1802510268.3781 -3.6370721 -36.153774 -200 45 -200 45 -200 45
1803510385.0642 -3.6438928 -36.170139 -200 45 -200 45 -200 45
1804510501.7503 -3.6486742 -36.159138 -200 45 -200 45 -200 45
1805510618.4364 -3.6505549 -36.130482 -200 45 -200 45 -200 45
1806510735.1225 -3.6570644 -36.152996 -200 45 -200 45 -200 45
1807510851.8086 -3.6609516 -36.151539 -200 45 -200 45 -200 45
1808510968.4947 -3.6656561 -36.172451 -200 45 -200 45 -200 45
1809511085.1809 -3.6703365 -36.185135 -200 45 -200 45 -200 45
1810511201.867 -3.6709085 -36.19685 -200 45 -200 45 -200 45
1811511318.5531 -3.6783903 -36.190792 -200 45 -200 45 -200 45
1812511435.2392 -3.6834028 -36.226261 -200 45 -200 45 -200 45
1813511551.9253 -3.6843126 -36.238995 -200 45 -200 45 -200 45
1814511668.6114 -3.690341 -36.271206 -200 45 -200 45 -200 45
1815511785.2975 -3.6953259 -36.293625 -200 45 -200 45 -200 45
1816511901.9837 -3.6993074 -36.324608 -200 45 -200 45 -200 45
1817512018.6698 -3.7037978 -36.357372 -200 45 -200 45 -200 45
1818512135.3559 -3.7050352 -36.375751 -200 45 -200 45 -200 45
1819512252.042 -3.7065916 -36.401306 -200 45 -200 45 -200 45
1820512368.7281 -3.7101481 -36.443375 -200 45 -200 45 -200 45
1821512485.4142 -3.712954 -36.463524 -200 45 -200 45 -200 45
1822512602.1004 -3.7162175 -36.522694 -200 45 -200 45 -200 45
1823512718.7865 -3.7175908 -36.571247 -200 45 -200 45 -200 45
1824512835.4726 -3.7184837 -36.616932 -200 45 -200 45 -200 45
1825512952.1587 -3.719363 -36.665981 -200 45 -200 45 -200 45
1826513068.8448 -3.7205834 -36.717903 -200 45 -200 45 -200 45
1827513185.5309 -3.7238448 -36.768326 -200 45 -200 45 -200 45
1828513302.217 -3.7246046 -36.811802 -200 45 -200 45 -200 45
1829513418.9032 -3.7284627 -36.89386 -200 45 -200 45 -200 45
1830513535.5893 -3.7275538 -36.934185 -200 45 -200 45 -200 45
1831513652.2754 -3.7275355 -36.998856 -200 45 -200 45 -200 45
1832513768.9615 -3.7284951 -37.030636 -200 45 -200 45 -200 45
1833513885.6476 -3.7273748 -37.105949 -200 45 -200 45 -200 45
1834514002.3337 -3.7271371 -37.149101 -200 45 -200 45 -200 45
1835514119.0198 -3.7254822 -37.205612 -200 45 -200 45 -200 45
1836514235.706 -3.7259295 -37.252277 -200 45 -200 45 -200 45
1837514352.3921 -3.7231011 -37.304012 -200 45 -200 45 -200 45
1838514469.0782 -3.720942 -37.337616 -200 45 -200 45 -200 45
1839514585.7643 -3.7215648 -37.379749 -200 45 -200 45 -200 45
1840514702.4504 -3.7184019 -37.424343 -200 45 -200 45 -200 45
1841514819.1365 -3.7177463 -37.461437 -200 45 -200 45 -200 45
1842514935.8226 -3.7146909 -37.509262 -200 45 -200 45 -200 45
1843515052.5088 -3.7122459 -37.548351 -200 45 -200 45 -200 45
1844515169.1949 -3.7095466 -37.575153 -200 45 -200 45 -200 45
1845515285.881 -3.7084088 -37.617188 -200 45 -200 45 -200 45
1846515402.5671 -3.7067528 -37.640621 -200 45 -200 45 -200 45
1847515519.2532 -3.7037487 -37.685051 -200 45 -200 45 -200 45
1848515635.9393 -3.7016282 -37.702805 -200 45 -200 45 -200 45
1849515752.6254 -3.6995687 -37.703072 -200 45 -200 45 -200 45
1850515869.3116 -3.6969013 -37.720062 -200 45 -200 45 -200 45
1851515985.9977 -3.6932189 -37.729733 -200 45 -200 45 -200 45
1852516102.6838 -3.6916587 -37.756847 -200 45 -200 45 -200 45
1853516219.3699 -3.6901252 -37.748196 -200 45 -200 45 -200 45
1854516336.056 -3.6874335 -37.739193 -200 45 -200 45 -200 45
1855516452.7421 -3.6797976 -37.732639 -200 45 -200 45 -200 45
1856516569.4282 -3.6808729 -37.73497 -200 45 -200 45 -200 45
1857516686.1144 -3.6780248 -37.739548 -200 45 -200 45 -200 45
1858516802.8005 -3.6763604 -37.735546 -200 45 -200 45 -200 45
1859516919.4866 -3.6731207 -37.716934 -200 45 -200 45 -200 45
1860517036.1727 -3.6745121 -37.704361 -200 45 -200 45 -200 45
1861517152.8588 -3.6720786 -37.697315 -200 45 -200 45 -200 45
1862517269.5449 -3.6706452 -37.666424 -200 45 -200 45 -200 45
1863517386.231 -3.6707323 -37.657818 -200 45 -200 45 -200 45
1864517502.9172 -3.6702573 -37.618626 -200 45 -200 45 -200 45
1865517619.6033 -3.66575 -37.589031 -200 45 -200 45 -200 45
1866517736.2894 -3.6699336 -37.564495 -200 45 -200 45 -200 45
1867517852.9755 -3.6684196 -37.546242 -200 45 -200 45 -200 45
1868517969.6616 -3.6679554 -37.517242 -200 45 -200 45 -200 45
1869518086.3477 -3.66979 -37.473465 -200 45 -200 45 -200 45
1870518203.0338 -3.6707003 -37.464565 -200 45 -200 45 -200 45
1871518319.72 -3.6718545 -37.421852 -200 45 -200 45 -200 45
1872518436.4061 -3.6721539 -37.392483 -200 45 -200 45 -200 45
1873518553.0922 -3.6729591 -37.337971 -200 45 -200 45 -200 45
1874518669.7783 -3.6742551 -37.32346 -200 45 -200 45 -200 45
1875518786.4644 -3.6757636 -37.286469 -200 45 -200 45 -200 45
1876518903.1505 -3.6757786 -37.246315 -200 45 -200 45 -200 45
1877519019.8366 -3.6844106 -37.201923 -200 45 -200 45 -200 45
1878519136.5228 -3.6849396 -37.197578 -200 45 -200 45 -200 45
1879519253.2089 -3.6897655 -37.148861 -200 45 -200 45 -200 45
1880519369.895 -3.6912596 -37.130314 -200 45 -200 45 -200 45
1881519486.5811 -3.6941521 -37.092056 -200 45 -200 45 -200 45
1882519603.2672 -3.6968267 -37.059452 -200 45 -200 45 -200 45
1883519719.9533 -3.7002268 -37.033073 -200 45 -200 45 -200 45
1884519836.6394 -3.7056186 -37.019123 -200 45 -200 45 -200 45
1885519953.3256 -3.7082419 -37.005081 -200 45 -200 45 -200 45
1886520070.0117 -3.7148232 -37.000687 -200 45 -200 45 -200 45
1887520186.6978 -3.7171812 -36.980896 -200 45 -200 45 -200 45
1888520303.3839 -3.7242134 -36.972687 -200 45 -200 45 -200 45
1889520420.07 -3.7266641 -36.963181 -200 45 -200 45 -200 45
1890520536.7561 -3.7298391 -36.942249 -200 45 -200 45 -200 45
1891520653.4422 -3.7355168 -36.95541 -200 45 -200 45 -200 45
1892520770.1284 -3.7406778 -36.957172 -200 45 -200 45 -200 45
1893520886.8145 -3.7458792 -36.956615 -200 45 -200 45 -200 45
1894521003.5006 -3.7503059 -36.976109 -200 45 -200 45 -200 45
1895521120.1867 -3.7523839 -36.969337 -200 45 -200 45 -200 45
1896521236.8728 -3.7570083 -36.975998 -200 45 -200 45 -200 45
1897521353.5589 -3.7637544 -36.98938 -200 45 -200 45 -200 45
1898521470.245 -3.7683949 -37.031204 -200 45 -200 45 -200 45
1899521586.9312 -3.7701919 -37.031811 -200 45 -200 45 -200 45
1900521703.6173 -3.7748542 -37.071476 -200 45 -200 45 -200 45
1901521820.3034 -3.7803574 -37.08416 -200 45 -200 45 -200 45
1902521936.9895 -3.7839575 -37.121151 -200 45 -200 45 -200 45
1903522053.6756 -3.7880452 -37.159557 -200 45 -200 45 -200 45
1904522170.3617 -3.7895796 -37.224483 -200 45 -200 45 -200 45
1905522287.0478 -3.7940564 -37.25972 -200 45 -200 45 -200 45
1906522403.734 -3.7956483 -37.308388 -200 45 -200 45 -200 45
1907522520.4201 -3.8006465 -37.338432 -200 45 -200 45 -200 45
1908522637.1062 -3.8005879 -37.394241 -200 45 -200 45 -200 45
1909522753.7923 -3.8030994 -37.441498 -200 45 -200 45 -200 45
1910522870.4784 -3.80636 -37.483654 -200 45 -200 45 -200 45
1911522987.1645 -3.8076007 -37.54192 -200 45 -200 45 -200 45
1912523103.8506 -3.8063383 -37.59425 -200 45 -200 45 -200 45
1913523220.5368 -3.8088942 -37.644749 -200 45 -200 45 -200 45
1914523337.2229 -3.8088183 -37.700737 -200 45 -200 45 -200 45
1915523453.909 -3.8132577 -37.749382 -200 45 -200 45 -200 45
1916523570.5951 -3.8121071 -37.829662 -200 45 -200 45 -200 45
1917523687.2812 -3.8130784 -37.864876 -200 45 -200 45 -200 45
1918523803.9673 -3.8114262 -37.927437 -200 45 -200 45 -200 45
1919523920.6534 -3.8115861 -37.97385 -200 45 -200 45 -200 45
1920524037.3396 -3.8087215 -38.055904 -200 45 -200 45 -200 45
1921524154.0257 -3.8077812 -38.077446 -200 45 -200 45 -200 45
1922524270.7118 -3.808954 -38.140289 -200 45 -200 45 -200 45
1923524387.3979 -3.8068602 -38.197388 -200 45 -200 45 -200 45
1924524504.084 -3.8031485 -38.2323 -200 45 -200 45 -200 45
1925524620.7701 -3.8029077 -38.274067 -200 45 -200 45 -200 45
1926524737.4562 -3.7978897 -38.33765 -200 45 -200 45 -200 45
1927524854.1424 -3.7986748 -38.364368 -200 45 -200 45 -200 45
1928524970.8285 -3.7949047 -38.414173 -200 45 -200 45 -200 45
1929525087.5146 -3.7921455 -38.444332 -200 45 -200 45 -200 45
1930525204.2007 -3.7882578 -38.460518 -200 45 -200 45 -200 45
1931525320.8868 -3.7858915 -38.490414 -200 45 -200 45 -200 45
1932525437.5729 -3.7844813 -38.536049 -200 45 -200 45 -200 45
1933525554.259 -3.7798498 -38.532417 -200 45 -200 45 -200 45
1934525670.9452 -3.7773485 -38.556835 -200 45 -200 45 -200 45
1935525787.6313 -3.7736597 -38.584206 -200 45 -200 45 -200 45
1936525904.3174 -3.7696126 -38.593384 -200 45 -200 45 -200 45
1937526021.0035 -3.7662277 -38.600906 -200 45 -200 45 -200 45
1938526137.6896 -3.7619905 -38.60688 -200 45 -200 45 -200 45
1939526254.3757 -3.7610805 -38.598808 -200 45 -200 45 -200 45
1940526371.0618 -3.7582059 -38.590786 -200 45 -200 45 -200 45
1941526487.748 -3.7569454 -38.599949 -200 45 -200 45 -200 45
1942526604.4341 -3.7527118 -38.581921 -200 45 -200 45 -200 45
1943526721.1202 -3.7509217 -38.565861 -200 45 -200 45 -200 45
1944526837.8063 -3.7488065 -38.56004 -200 45 -200 45 -200 45
1945526954.4924 -3.7477198 -38.553108 -200 45 -200 45 -200 45
1946527071.1785 -3.7445428 -38.511395 -200 45 -200 45 -200 45
1947527187.8646 -3.7451713 -38.49168 -200 45 -200 45 -200 45
1948527304.5508 -3.7405863 -38.481064 -200 45 -200 45 -200 45
1949527421.2369 -3.7396038 -38.443439 -200 45 -200 45 -200 45
1950527537.923 -3.7396231 -38.406231 -200 45 -200 45 -200 45
1951527654.6091 -3.7389483 -38.383053 -200 45 -200 45 -200 45
1952527771.2952 -3.7385266 -38.343391 -200 45 -200 45 -200 45
1953527887.9813 -3.7374442 -38.304924 -200 45 -200 45 -200 45
1954528004.6674 -3.7370653 -38.296665 -200 45 -200 45 -200 45
1955528121.3536 -3.7397137 -38.232143 -200 45 -200 45 -200 45
1956528238.0397 -3.7371762 -38.17651 -200 45 -200 45 -200 45
1957528354.7258 -3.7363598 -38.150902 -200 45 -200 45 -200 45
1958528471.4119 -3.7391937 -38.099972 -200 45 -200 45 -200 45
1959528588.098 -3.7410865 -38.058174 -200 45 -200 45 -200 45
1960528704.7841 -3.740922 -38.036674 -200 45 -200 45 -200 45
1961528821.4702 -3.7445915 -37.983627 -200 45 -200 45 -200 45
1962528938.1564 -3.7480578 -37.95652 -200 45 -200 45 -200 45
1963529054.8425 -3.7498658 -37.913235 -200 45 -200 45 -200 45
1964529171.5286 -3.7523332 -37.866245 -200 45 -200 45 -200 45
1965529288.2147 -3.7554073 -37.845264 -200 45 -200 45 -200 45
1966529404.9008 -3.7628739 -37.819668 -200 45 -200 45 -200 45
1967529521.5869 -3.7610281 -37.780907 -200 45 -200 45 -200 45
1968529638.273 -3.7683289 -37.760231 -200 45 -200 45 -200 45
1969529754.9592 -3.7710655 -37.723061 -200 45 -200 45 -200 45
1970529871.6453 -3.7740023 -37.708157 -200 45 -200 45 -200 45
1971529988.3314 -3.7765768 -37.691227 -200 45 -200 45 -200 45
1972530105.0175 -3.7834694 -37.659782 -200 45 -200 45 -200 45
1973530221.7036 -3.7882252 -37.645088 -200 45 -200 45 -200 45
1974530338.3897 -3.7916715 -37.643528 -200 45 -200 45 -200 45
1975530455.0758 -3.7971778 -37.647182 -200 45 -200 45 -200 45
1976530571.762 -3.8032637 -37.632019 -200 45 -200 45 -200 45
1977530688.4481 -3.8080995 -37.615242 -200 45 -200 45 -200 45
1978530805.1342 -3.8113728 -37.616177 -200 45 -200 45 -200 45
1979530921.8203 -3.8138738 -37.639137 -200 45 -200 45 -200 45
1980531038.5064 -3.8194926 -37.651016 -200 45 -200 45 -200 45
1981531155.1925 -3.8242042 -37.661259 -200 45 -200 45 -200 45
1982531271.8786 -3.8309193 -37.68671 -200 45 -200 45 -200 45
1983531388.5648 -3.8353956 -37.690342 -200 45 -200 45 -200 45
1984531505.2509 -3.838397 -37.717415 -200 45 -200 45 -200 45
1985531621.937 -3.8433962 -37.753769 -200 45 -200 45 -200 45
1986531738.6231 -3.8447855 -37.787628 -200 45 -200 45 -200 45
1987531855.3092 -3.8496571 -37.833931 -200 45 -200 45 -200 45
1988531971.9953 -3.8516572 -37.866138 -200 45 -200 45 -200 45
1989532088.6814 -3.8573186 -37.896122 -200 45 -200 45 -200 45
1990532205.3676 -3.8603857 -37.946209 -200 45 -200 45 -200 45
1991532322.0537 -3.8616567 -37.998062 -200 45 -200 45 -200 45
1992532438.7398 -3.8642688 -38.048988 -200 45 -200 45 -200 45
1993532555.4259 -3.8670306 -38.095074 -200 45 -200 45 -200 45
1994532672.112 -3.8708241 -38.151386 -200 45 -200 45 -200 45
1995532788.7981 -3.870985 -38.203636 -200 45 -200 45 -200 45
1996532905.4842 -3.8734701 -38.263332 -200 45 -200 45 -200 45
1997533022.1704 -3.8723407 -38.315777 -200 45 -200 45 -200 45
1998533138.8565 -3.8746595 -38.384899 -200 45 -200 45 -200 45
1999533255.5426 -3.8776581 -38.434032 -200 45 -200 45 -200 45
2000533372.2287 -3.8773372 -38.49884 -200 45 -200 45 -200 45
2001533488.9148 -3.8770816 -38.563309 -200 45 -200 45 -200 45
2002533605.6009 -3.8782272 -38.619904 -200 45 -200 45 -200 45
2003533722.287 -3.8742356 -38.672901 -200 45 -200 45 -200 45
2004533838.9732 -3.8764484 -38.735645 -200 45 -200 45 -200 45
2005533955.6593 -3.8747561 -38.780468 -200 45 -200 45 -200 45
2006534072.3454 -3.8708739 -38.827015 -200 45 -200 45 -200 45
2007534189.0315 -3.8711483 -38.859306 -200 45 -200 45 -200 45
2008534305.7176 -3.8656681 -38.919445 -200 45 -200 45 -200 45
2009534422.4037 -3.8624382 -38.957825 -200 45 -200 45 -200 45
2010534539.0898 -3.858696 -39.018997 -200 45 -200 45 -200 45
2011534655.776 -3.8567321 -39.065136 -200 45 -200 45 -200 45
2012534772.4621 -3.8514469 -39.105213 -200 45 -200 45 -200 45
2013534889.1482 -3.8486824 -39.153156 -200 45 -200 45 -200 45
2014535005.8343 -3.8468318 -39.199036 -200 45 -200 45 -200 45
2015535122.5204 -3.8402777 -39.232525 -200 45 -200 45 -200 45
2016535239.2065 -3.837682 -39.260513 -200 45 -200 45 -200 45
2017535355.8926 -3.8322935 -39.295803 -200 45 -200 45 -200 45
2018535472.5788 -3.8299944 -39.324459 -200 45 -200 45 -200 45
2019535589.2649 -3.8267803 -39.343487 -200 45 -200 45 -200 45
2020535705.951 -3.8225856 -39.372677 -200 45 -200 45 -200 45
2021535822.6371 -3.8184376 -39.370422 -200 45 -200 45 -200 45
2022535939.3232 -3.8137431 -39.38303 -200 45 -200 45 -200 45
2023536056.0093 -3.8082018 -39.396893 -200 45 -200 45 -200 45
2024536172.6954 -3.8076158 -39.413185 -200 45 -200 45 -200 45
2025536289.3816 -3.8015258 -39.400406 -200 45 -200 45 -200 45
2026536406.0677 -3.8023109 -39.379143 -200 45 -200 45 -200 45
2027536522.7538 -3.7965734 -39.37241 -200 45 -200 45 -200 45
2028536639.4399 -3.795572 -39.365002 -200 45 -200 45 -200 45
2029536756.126 -3.7923465 -39.359734 -200 45 -200 45 -200 45
2030536872.8121 -3.7883825 -39.334808 -200 45 -200 45 -200 45
2031536989.4982 -3.7861743 -39.315113 -200 45 -200 45 -200 45
2032537106.1844 -3.7817571 -39.277927 -200 45 -200 45 -200 45
2033537222.8705 -3.7819138 -39.247215 -200 45 -200 45 -200 45
2034537339.5566 -3.7780635 -39.215382 -200 45 -200 45 -200 45
2035537456.2427 -3.7807233 -39.184372 -200 45 -200 45 -200 45
2036537572.9288 -3.7775197 -39.157566 -200 45 -200 45 -200 45
2037537689.6149 -3.7764523 -39.124111 -200 45 -200 45 -200 45
2038537806.3011 -3.7767773 -39.072174 -200 45 -200 45 -200 45
2039537922.9872 -3.7761555 -39.045349 -200 45 -200 45 -200 45
2040538039.6733 -3.777967 -39.012012 -200 45 -200 45 -200 45
2041538156.3594 -3.7772923 -38.963177 -200 45 -200 45 -200 45
2042538273.0455 -3.7800541 -38.914593 -200 45 -200 45 -200 45
2043538389.7316 -3.7815361 -38.874428 -200 45 -200 45 -200 45
2044538506.4177 -3.7826743 -38.826817 -200 45 -200 45 -200 45
2045538623.1039 -3.785845 -38.786076 -200 45 -200 45 -200 45
2046538739.79 -3.7857182 -38.720703 -200 45 -200 45 -200 45
2047538856.4761 -3.7871296 -38.687737 -200 45 -200 45 -200 45
2048538973.1622 -3.7891974 -38.643192 -200 45 -200 45 -200 45
2049539089.8483 -3.7935591 -38.629608 -200 45 -200 45 -200 45
2050539206.5344 -3.7972043 -38.571499 -200 45 -200 45 -200 45
2051539323.2205 -3.7989504 -38.551453 -200 45 -200 45 -200 45
2052539439.9067 -3.8016727 -38.505222 -200 45 -200 45 -200 45
2053539556.5928 -3.8058465 -38.46796 -200 45 -200 45 -200 45
2054539673.2789 -3.8080151 -38.433681 -200 45 -200 45 -200 45
2055539789.965 -3.8145795 -38.420952 -200 45 -200 45 -200 45
2056539906.6511 -3.8153 -38.391293 -200 45 -200 45 -200 45
2057540023.3372 -3.8204651 -38.385529 -200 45 -200 45 -200 45
2058540140.0233 -3.8249364 -38.372242 -200 45 -200 45 -200 45
2059540256.7095 -3.8295867 -38.328701 -200 45 -200 45 -200 45
2060540373.3956 -3.8358319 -38.33147 -200 45 -200 45 -200 45
2061540490.0817 -3.8399432 -38.309517 -200 45 -200 45 -200 45
2062540606.7678 -3.8457451 -38.32093 -200 45 -200 45 -200 45
2063540723.4539 -3.8492639 -38.334496 -200 45 -200 45 -200 45
2064540840.14 -3.855876 -38.354336 -200 45 -200 45 -200 45
2065540956.8261 -3.8618364 -38.348515 -200 45 -200 45 -200 45
2066541073.5123 -3.8651993 -38.392365 -200 45 -200 45 -200 45
2067541190.1984 -3.8684118 -38.417385 -200 45 -200 45 -200 45
2068541306.8845 -3.8755617 -38.443771 -200 45 -200 45 -200 45
2069541423.5706 -3.8802617 -38.472694 -200 45 -200 45 -200 45
2070541540.2567 -3.8795793 -38.504898 -200 45 -200 45 -200 45
2071541656.9428 -3.8877015 -38.542847 -200 45 -200 45 -200 45
2072541773.6289 -3.8935888 -38.579571 -200 45 -200 45 -200 45
2073541890.3151 -3.8954043 -38.637634 -200 45 -200 45 -200 45
2074542007.0012 -3.8995464 -38.668415 -200 45 -200 45 -200 45
2075542123.6873 -3.9034595 -38.710022 -200 45 -200 45 -200 45
2076542240.3734 -3.9048197 -38.763737 -200 45 -200 45 -200 45
2077542357.0595 -3.9089675 -38.835541 -200 45 -200 45 -200 45
2078542473.7456 -3.9089038 -38.876598 -200 45 -200 45 -200 45
2079542590.4317 -3.913455 -38.94508 -200 45 -200 45 -200 45
2080542707.1179 -3.913295 -39.01643 -200 45 -200 45 -200 45
2081542823.804 -3.9140801 -39.096333 -200 45 -200 45 -200 45
2082542940.4901 -3.9148374 -39.13937 -200 45 -200 45 -200 45
2083543057.1762 -3.9162161 -39.208302 -200 45 -200 45 -200 45
2084543173.8623 -3.9150143 -39.27623 -200 45 -200 45 -200 45
2085543290.5484 -3.9169528 -39.339424 -200 45 -200 45 -200 45
2086543407.2345 -3.915175 -39.413651 -200 45 -200 45 -200 45
2087543523.9207 -3.9155722 -39.486454 -200 45 -200 45 -200 45
2088543640.6068 -3.9127858 -39.536205 -200 45 -200 45 -200 45
2089543757.2929 -3.9113228 -39.623631 -200 45 -200 45 -200 45
2090543873.979 -3.9095981 -39.68922 -200 45 -200 45 -200 45
2091543990.6651 -3.9073853 -39.734081 -200 45 -200 45 -200 45
2092544107.3512 -3.9064684 -39.791927 -200 45 -200 45 -200 45
2093544224.0373 -3.9036653 -39.829491 -200 45 -200 45 -200 45
2094544340.7235 -3.8999872 -39.90641 -200 45 -200 45 -200 45
2095544457.4096 -3.8974063 -39.968513 -200 45 -200 45 -200 45
2096544574.0957 -3.8961725 -40.017746 -200 45 -200 45 -200 45
2097544690.7818 -3.8887262 -40.052158 -200 45 -200 45 -200 45
2098544807.4679 -3.8869271 -40.105675 -200 45 -200 45 -200 45
2099544924.154 -3.8800902 -40.139557 -200 45 -200 45 -200 45
2100545040.8401 -3.8767731 -40.164284 -200 45 -200 45 -200 45
2101545157.5263 -3.8732004 -40.212723 -200 45 -200 45 -200 45
2102545274.2124 -3.8662257 -40.246838 -200 45 -200 45 -200 45
2103545390.8985 -3.8615351 -40.27879 -200 45 -200 45 -200 45
2104545507.5846 -3.8601911 -40.289852 -200 45 -200 45 -200 45
2105545624.2707 -3.8548112 -40.312679 -200 45 -200 45 -200 45
2106545740.9568 -3.8510756 -40.309559 -200 45 -200 45 -200 45
2107545857.6429 -3.8454158 -40.313137 -200 45 -200 45 -200 45
2108545974.3291 -3.8418362 -40.300396 -200 45 -200 45 -200 45
2109546091.0152 -3.8363855 -40.307205 -200 45 -200 45 -200 45
2110546207.7013 -3.8326206 -40.308464 -200 45 -200 45 -200 45
2111546324.3874 -3.8289659 -40.298534 -200 45 -200 45 -200 45
2112546441.0735 -3.8224809 -40.283512 -200 45 -200 45 -200 45
2113546557.7596 -3.822118 -40.257477 -200 45 -200 45 -200 45
2114546674.4457 -3.8166156 -40.239113 -200 45 -200 45 -200 45
2115546791.1319 -3.8125451 -40.224216 -200 45 -200 45 -200 45
2116546907.818 -3.8086085 -40.1651 -200 45 -200 45 -200 45
2117547024.5041 -3.8098469 -40.146008 -200 45 -200 45 -200 45
2118547141.1902 -3.806211 -40.121758 -200 45 -200 45 -200 45
2119547257.8763 -3.8036547 -40.082439 -200 45 -200 45 -200 45
2120547374.5624 -3.8017817 -40.043613 -200 45 -200 45 -200 45
2121547491.2485 -3.7978182 -40.000744 -200 45 -200 45 -200 45
2122547607.9347 -3.7975657 -39.939083 -200 45 -200 45 -200 45
2123547724.6208 -3.7997601 -39.90657 -200 45 -200 45 -200 45
2124547841.3069 -3.7969449 -39.854744 -200 45 -200 45 -200 45
2125547957.993 -3.7972691 -39.799923 -200 45 -200 45 -200 45
2126548074.6791 -3.7950716 -39.754032 -200 45 -200 45 -200 45
2127548191.3652 -3.7996726 -39.714474 -200 45 -200 45 -200 45
2128548308.0513 -3.7998629 -39.656796 -200 45 -200 45 -200 45
2129548424.7375 -3.8032069 -39.608925 -200 45 -200 45 -200 45
2130548541.4236 -3.8015444 -39.540268 -200 45 -200 45 -200 45
2131548658.1097 -3.8051059 -39.505692 -200 45 -200 45 -200 45
2132548774.7958 -3.8079762 -39.445835 -200 45 -200 45 -200 45
2133548891.4819 -3.8088763 -39.418472 -200 45 -200 45 -200 45
2134549008.168 -3.8145001 -39.367809 -200 45 -200 45 -200 45
2135549124.8541 -3.8154943 -39.321609 -200 45 -200 45 -200 45
2136549241.5403 -3.8195403 -39.281815 -200 45 -200 45 -200 45
2137549358.2264 -3.8242033 -39.246017 -200 45 -200 45 -200 45
2138549474.9125 -3.8295586 -39.204689 -200 45 -200 45 -200 45
2139549591.5986 -3.8340683 -39.195721 -200 45 -200 45 -200 45
2140549708.2847 -3.8399348 -39.144974 -200 45 -200 45 -200 45
2141549824.9708 -3.8443966 -39.128216 -200 45 -200 45 -200 45
2142549941.6569 -3.8491232 -39.10957 -200 45 -200 45 -200 45
2143550058.3431 -3.8553684 -39.109009 -200 45 -200 45 -200 45
2144550175.0292 -3.8611672 -39.084972 -200 45 -200 45 -200 45
2145550291.7153 -3.8634608 -39.092121 -200 45 -200 45 -200 45
2146550408.4014 -3.8651991 -39.064442 -200 45 -200 45 -200 45
2147550525.0875 -3.8752995 -39.07613 -200 45 -200 45 -200 45
2148550641.7736 -3.8822937 -39.078911 -200 45 -200 45 -200 45
2149550758.4597 -3.8863711 -39.104855 -200 45 -200 45 -200 45
2150550875.1459 -3.8877795 -39.091709 -200 45 -200 45 -200 45
2151550991.832 -3.89429 -39.111984 -200 45 -200 45 -200 45
2152551108.5181 -3.8995812 -39.144695 -200 45 -200 45 -200 45
2153551225.2042 -3.9057488 -39.170288 -200 45 -200 45 -200 45
2154551341.8903 -3.9118545 -39.217487 -200 45 -200 45 -200 45
2155551458.5764 -3.916738 -39.251011 -200 45 -200 45 -200 45
2156551575.2625 -3.9185219 -39.298809 -200 45 -200 45 -200 45
2157551691.9487 -3.9235203 -39.34494 -200 45 -200 45 -200 45
2158551808.6348 -3.9280484 -39.403454 -200 45 -200 45 -200 45
2159551925.3209 -3.9316657 -39.451088 -200 45 -200 45 -200 45
2160552042.007 -3.935986 -39.502689 -200 45 -200 45 -200 45
2161552158.6931 -3.9373472 -39.556629 -200 45 -200 45 -200 45
2162552275.3792 -3.9389086 -39.627888 -200 45 -200 45 -200 45
2163552392.0653 -3.9439065 -39.702713 -200 45 -200 45 -200 45
2164552508.7515 -3.9475119 -39.77132 -200 45 -200 45 -200 45
2165552625.4376 -3.9462051 -39.866707 -200 45 -200 45 -200 45
2166552742.1237 -3.9505715 -39.932335 -200 45 -200 45 -200 45
2167552858.8098 -3.9503515 -40.006107 -200 45 -200 45 -200 45
2168552975.4959 -3.950038 -40.076839 -200 45 -200 45 -200 45
2169553092.182 -3.9510107 -40.157692 -200 45 -200 45 -200 45
2170553208.8681 -3.952435 -40.22506 -200 45 -200 45 -200 45
2171553325.5543 -3.9525132 -40.306938 -200 45 -200 45 -200 45
2172553442.2404 -3.9455686 -40.374199 -200 45 -200 45 -200 45
2173553558.9265 -3.9457383 -40.454887 -200 45 -200 45 -200 45
2174553675.6126 -3.9464025 -40.522533 -200 45 -200 45 -200 45
2175553792.2987 -3.9437301 -40.585548 -200 45 -200 45 -200 45
2176553908.9848 -3.9431524 -40.652584 -200 45 -200 45 -200 45
2177554025.6709 -3.9370804 -40.716251 -200 45 -200 45 -200 45
2178554142.3571 -3.9325256 -40.787964 -200 45 -200 45 -200 45
2179554259.0432 -3.9329023 -40.847401 -200 45 -200 45 -200 45
2180554375.7293 -3.9252734 -40.910877 -200 45 -200 45 -200 45
2181554492.4154 -3.922612 -40.960567 -200 45 -200 45 -200 45
2182554609.1015 -3.914927 -41.008522 -200 45 -200 45 -200 45
2183554725.7876 -3.9126892 -41.079807 -200 45 -200 45 -200 45
2184554842.4737 -3.9063823 -41.087978 -200 45 -200 45 -200 45
2185554959.1599 -3.9061654 -41.135246 -200 45 -200 45 -200 45
2186555075.846 -3.9005535 -41.185085 -200 45 -200 45 -200 45
2187555192.5321 -3.896379 -41.195259 -200 45 -200 45 -200 45
2188555309.2182 -3.888777 -41.217926 -200 45 -200 45 -200 45
2189555425.9043 -3.8835607 -41.206211 -200 45 -200 45 -200 45
2190555542.5904 -3.8815978 -41.229404 -200 45 -200 45 -200 45
2191555659.2765 -3.8730142 -41.235916 -200 45 -200 45 -200 45
2192555775.9627 -3.8687613 -41.260418 -200 45 -200 45 -200 45
2193555892.6488 -3.8641486 -41.236938 -200 45 -200 45 -200 45
2194556009.3349 -3.8607578 -41.2393 -200 45 -200 45 -200 45
2195556126.021 -3.852983 -41.246468 -200 45 -200 45 -200 45
2196556242.7071 -3.8488638 -41.234768 -200 45 -200 45 -200 45
2197556359.3932 -3.8432374 -41.22686 -200 45 -200 45 -200 45
2198556476.0793 -3.8427553 -41.17765 -200 45 -200 45 -200 45
2199556592.7655 -3.8358974 -41.149075 -200 45 -200 45 -200 45
2200556709.4516 -3.8334765 -41.113396 -200 45 -200 45 -200 45
2201556826.1377 -3.8328118 -41.097435 -200 45 -200 45 -200 45
2202556942.8238 -3.827126 -41.034058 -200 45 -200 45 -200 45
2203557059.5099 -3.8251543 -41.001453 -200 45 -200 45 -200 45
2204557176.196 -3.8221974 -40.954941 -200 45 -200 45 -200 45
2205557292.8821 -3.8210199 -40.915951 -200 45 -200 45 -200 45
2206557409.5683 -3.8202052 -40.878063 -200 45 -200 45 -200 45
2207557526.2544 -3.8191454 -40.818363 -200 45 -200 45 -200 45
2208557642.9405 -3.8210192 -40.775303 -200 45 -200 45 -200 45
2209557759.6266 -3.8206003 -40.731747 -200 45 -200 45 -200 45
2210557876.3127 -3.8202331 -40.649532 -200 45 -200 45 -200 45
2211557992.9988 -3.8225608 -40.593178 -200 45 -200 45 -200 45
2212558109.6849 -3.8202839 -40.542225 -200 45 -200 45 -200 45
2213558226.3711 -3.8196263 -40.491432 -200 45 -200 45 -200 45
2214558343.0572 -3.8205986 -40.436295 -200 45 -200 45 -200 45
2215558459.7433 -3.8235109 -40.385399 -200 45 -200 45 -200 45
2216558576.4294 -3.8288081 -40.332287 -200 45 -200 45 -200 45
2217558693.1155 -3.829046 -40.285618 -200 45 -200 45 -200 45
2218558809.8016 -3.8328934 -40.244553 -200 45 -200 45 -200 45
2219558926.4877 -3.8377864 -40.187759 -200 45 -200 45 -200 45
2220559043.1739 -3.8397503 -40.13097 -200 45 -200 45 -200 45
2221559159.86 -3.8422182 -40.101837 -200 45 -200 45 -200 45
2222559276.5461 -3.8472402 -40.057777 -200 45 -200 45 -200 45
2223559393.2322 -3.8508394 -40.029465 -200 45 -200 45 -200 45
2224559509.9183 -3.8570588 -39.996063 -200 45 -200 45 -200 45
2225559626.6044 -3.8646753 -39.978024 -200 45 -200 45 -200 45
2226559743.2905 -3.8679116 -39.958176 -200 45 -200 45 -200 45
2227559859.9767 -3.8724086 -39.946068 -200 45 -200 45 -200 45
2228559976.6628 -3.8782315 -39.936504 -200 45 -200 45 -200 45
2229560093.3489 -3.8836985 -39.921368 -200 45 -200 45 -200 45
2230560210.035 -3.8907688 -39.91658 -200 45 -200 45 -200 45
2231560326.7211 -3.8950176 -39.910645 -200 45 -200 45 -200 45
2232560443.4072 -3.9013119 -39.933979 -200 45 -200 45 -200 45
2233560560.0933 -3.9081428 -39.945782 -200 45 -200 45 -200 45
2234560676.7795 -3.9138539 -39.955952 -200 45 -200 45 -200 45
2235560793.4656 -3.9180708 -39.969753 -200 45 -200 45 -200 45
2236560910.1517 -3.9277396 -39.995163 -200 45 -200 45 -200 45
2237561026.8378 -3.9326928 -40.045921 -200 45 -200 45 -200 45
2238561143.5239 -3.9382784 -40.078442 -200 45 -200 45 -200 45
2239561260.21 -3.9408126 -40.126972 -200 45 -200 45 -200 45
2240561376.8961 -3.9445107 -40.161495 -200 45 -200 45 -200 45
2241561493.5823 -3.9528599 -40.20665 -200 45 -200 45 -200 45
2242561610.2684 -3.9563878 -40.260334 -200 45 -200 45 -200 45
2243561726.9545 -3.959897 -40.328377 -200 45 -200 45 -200 45
2244561843.6406 -3.9643822 -40.398369 -200 45 -200 45 -200 45
2245561960.3267 -3.9668264 -40.476166 -200 45 -200 45 -200 45
2246562077.0128 -3.971493 -40.536682 -200 45 -200 45 -200 45
2247562193.6989 -3.9724433 -40.611588 -200 45 -200 45 -200 45
2248562310.3851 -3.9756773 -40.68713 -200 45 -200 45 -200 45
2249562427.0712 -3.9778078 -40.744175 -200 45 -200 45 -200 45
2250562543.7573 -3.9787514 -40.824978 -200 45 -200 45 -200 45
2251562660.4434 -3.9786346 -40.891491 -200 45 -200 45 -200 45
2252562777.1295 -3.9820592 -40.980171 -200 45 -200 45 -200 45
2253562893.8156 -3.9797711 -41.050293 -200 45 -200 45 -200 45
2254563010.5018 -3.9823952 -41.149796 -200 45 -200 45 -200 45
2255563127.1879 -3.9808204 -41.23209 -200 45 -200 45 -200 45
2256563243.874 -3.97806 -41.322342 -200 45 -200 45 -200 45
2257563360.5601 -3.9771125 -41.396069 -200 45 -200 45 -200 45
2258563477.2462 -3.974287 -41.4715 -200 45 -200 45 -200 45
2259563593.9323 -3.9690747 -41.545967 -200 45 -200 45 -200 45
2260563710.6184 -3.9679923 -41.631355 -200 45 -200 45 -200 45
2261563827.3046 -3.9656694 -41.705406 -200 45 -200 45 -200 45
2262563943.9907 -3.9622891 -41.773041 -200 45 -200 45 -200 45
2263564060.6768 -3.9594486 -41.840714 -200 45 -200 45 -200 45
2264564177.3629 -3.9534142 -41.91774 -200 45 -200 45 -200 45
2265564294.049 -3.9504497 -41.966972 -200 45 -200 45 -200 45
2266564410.7351 -3.9443297 -42.008507 -200 45 -200 45 -200 45
2267564527.4212 -3.9423106 -42.069424 -200 45 -200 45 -200 45
2268564644.1074 -3.9384496 -42.120953 -200 45 -200 45 -200 45
2269564760.7935 -3.9331102 -42.17308 -200 45 -200 45 -200 45
2270564877.4796 -3.9266052 -42.198322 -200 45 -200 45 -200 45
2271564994.1657 -3.9209521 -42.23241 -200 45 -200 45 -200 45
2272565110.8518 -3.9134035 -42.264778 -200 45 -200 45 -200 45
2273565227.5379 -3.9105353 -42.29187 -200 45 -200 45 -200 45
2274565344.224 -3.9077833 -42.297775 -200 45 -200 45 -200 45
2275565460.9102 -3.8978648 -42.298897 -200 45 -200 45 -200 45
2276565577.5963 -3.8904092 -42.303043 -200 45 -200 45 -200 45
2277565694.2824 -3.8855996 -42.324337 -200 45 -200 45 -200 45
2278565810.9685 -3.8814509 -42.304962 -200 45 -200 45 -200 45
2279565927.6546 -3.8756168 -42.310307 -200 45 -200 45 -200 45
2280566044.3407 -3.8704643 -42.277039 -200 45 -200 45 -200 45
2281566161.0268 -3.8661623 -42.269829 -200 45 -200 45 -200 45
2282566277.713 -3.861877 -42.232872 -200 45 -200 45 -200 45
2283566394.3991 -3.858182 -42.202785 -200 45 -200 45 -200 45
2284566511.0852 -3.8539579 -42.167793 -200 45 -200 45 -200 45
2285566627.7713 -3.8469715 -42.128902 -200 45 -200 45 -200 45
2286566744.4574 -3.8464036 -42.083797 -200 45 -200 45 -200 45
2287566861.1435 -3.8397837 -42.032169 -200 45 -200 45 -200 45
2288566977.8296 -3.8401694 -41.968632 -200 45 -200 45 -200 45
2289567094.5158 -3.8374314 -41.935913 -200 45 -200 45 -200 45
2290567211.2019 -3.8343666 -41.876617 -200 45 -200 45 -200 45
2291567327.888 -3.8325996 -41.799801 -200 45 -200 45 -200 45
2292567444.5741 -3.832849 -41.761703 -200 45 -200 45 -200 45
2293567561.2602 -3.8319025 -41.708195 -200 45 -200 45 -200 45
2294567677.9463 -3.8306365 -41.648655 -200 45 -200 45 -200 45
2295567794.6324 -3.8327265 -41.594456 -200 45 -200 45 -200 45
2296567911.3186 -3.8334947 -41.541729 -200 45 -200 45 -200 45
2297568028.0047 -3.8357737 -41.474594 -200 45 -200 45 -200 45
2298568144.6908 -3.8354776 -41.40918 -200 45 -200 45 -200 45
2299568261.3769 -3.8400502 -41.342304 -200 45 -200 45 -200 45
2300568378.063 -3.8378949 -41.29829 -200 45 -200 45 -200 45
2301568494.7491 -3.844033 -41.239235 -200 45 -200 45 -200 45
2302568611.4352 -3.8470907 -41.174488 -200 45 -200 45 -200 45
2303568728.1214 -3.850781 -41.123932 -200 45 -200 45 -200 45
2304568844.8075 -3.855365 -41.071613 -200 45 -200 45 -200 45
2305568961.4936 -3.8595157 -41.024216 -200 45 -200 45 -200 45
2306569078.1797 -3.8661621 -40.997025 -200 45 -200 45 -200 45
2307569194.8658 -3.8665426 -40.947567 -200 45 -200 45 -200 45
2308569311.5519 -3.8735795 -40.909176 -200 45 -200 45 -200 45
2309569428.238 -3.8771386 -40.885883 -200 45 -200 45 -200 45
2310569544.9242 -3.8823013 -40.861073 -200 45 -200 45 -200 45
2311569661.6103 -3.8910012 -40.845486 -200 45 -200 45 -200 45
2312569778.2964 -3.8972244 -40.83075 -200 45 -200 45 -200 45
2313569894.9825 -3.9052591 -40.824081 -200 45 -200 45 -200 45
2314570011.6686 -3.9093196 -40.812523 -200 45 -200 45 -200 45
2315570128.3547 -3.916713 -40.809132 -200 45 -200 45 -200 45
2316570245.0408 -3.9242218 -40.824448 -200 45 -200 45 -200 45
2317570361.727 -3.9279799 -40.830368 -200 45 -200 45 -200 45
2318570478.4131 -3.9382412 -40.846119 -200 45 -200 45 -200 45
2319570595.0992 -3.9435694 -40.864929 -200 45 -200 45 -200 45
2320570711.7853 -3.9461627 -40.887421 -200 45 -200 45 -200 45
2321570828.4714 -3.9548016 -40.936131 -200 45 -200 45 -200 45
2322570945.1575 -3.960232 -40.961693 -200 45 -200 45 -200 45
2323571061.8436 -3.966609 -41.021862 -200 45 -200 45 -200 45
2324571178.5298 -3.9717064 -41.04924 -200 45 -200 45 -200 45
2325571295.2159 -3.9786859 -41.135319 -200 45 -200 45 -200 45
2326571411.902 -3.9813786 -41.182743 -200 45 -200 45 -200 45
2327571528.5881 -3.9865723 -41.242764 -200 45 -200 45 -200 45
2328571645.2742 -3.9884064 -41.321194 -200 45 -200 45 -200 45
2329571761.9603 -3.9954176 -41.385723 -200 45 -200 45 -200 45
2330571878.6464 -3.9975142 -41.469288 -200 45 -200 45 -200 45
2331571995.3326 -4.0024261 -41.543522 -200 45 -200 45 -200 45
2332572112.0187 -4.0047045 -41.624207 -200 45 -200 45 -200 45
2333572228.7048 -4.0096107 -41.695454 -200 45 -200 45 -200 45
2334572345.3909 -4.0085607 -41.793892 -200 45 -200 45 -200 45
2335572462.077 -4.0075545 -41.857662 -200 45 -200 45 -200 45
2336572578.7631 -4.01196 -41.956348 -200 45 -200 45 -200 45
2337572695.4492 -4.0112429 -42.04871 -200 45 -200 45 -200 45
2338572812.1354 -4.01196 -42.147221 -200 45 -200 45 -200 45
2339572928.8215 -4.0092678 -42.224518 -200 45 -200 45 -200 45
2340573045.5076 -4.0085258 -42.306355 -200 45 -200 45 -200 45
2341573162.1937 -4.0047998 -42.408566 -200 45 -200 45 -200 45
2342573278.8798 -4.0054545 -42.477154 -200 45 -200 45 -200 45
2343573395.5659 -4.0017333 -42.573292 -200 45 -200 45 -200 45
2344573512.252 -4.0000558 -42.657829 -200 45 -200 45 -200 45
2345573628.9382 -3.9965224 -42.744579 -200 45 -200 45 -200 45
2346573745.6243 -3.9934163 -42.809845 -200 45 -200 45 -200 45
2347573862.3104 -3.9897244 -42.908333 -200 45 -200 45 -200 45
2348573978.9965 -3.9874389 -42.959911 -200 45 -200 45 -200 45
2349574095.6826 -3.9795227 -43.009167 -200 45 -200 45 -200 45
2350574212.3687 -3.9760313 -43.072598 -200 45 -200 45 -200 45
2351574329.0548 -3.9700787 -43.127926 -200 45 -200 45 -200 45
2352574445.741 -3.9634626 -43.17588 -200 45 -200 45 -200 45
2353574562.4271 -3.9571683 -43.223675 -200 45 -200 45 -200 45
2354574679.1132 -3.9499161 -43.24876 -200 45 -200 45 -200 45
2355574795.7993 -3.9433951 -43.295589 -200 45 -200 45 -200 45
2356574912.4854 -3.9375348 -43.309765 -200 45 -200 45 -200 45
2357575029.1715 -3.9346323 -43.364254 -200 45 -200 45 -200 45
2358575145.8576 -3.9252942 -43.353146 -200 45 -200 45 -200 45
2359575262.5438 -3.9217789 -43.370422 -200 45 -200 45 -200 45
2360575379.2299 -3.9149091 -43.363449 -200 45 -200 45 -200 45
2361575495.916 -3.9065363 -43.359749 -200 45 -200 45 -200 45
2362575612.6021 -3.9012229 -43.359062 -200 45 -200 45 -200 45
2363575729.2882 -3.8961992 -43.354301 -200 45 -200 45 -200 45
2364575845.9743 -3.8931611 -43.333561 -200 45 -200 45 -200 45
2365575962.6604 -3.8853598 -43.309216 -200 45 -200 45 -200 45
2366576079.3466 -3.8822849 -43.279076 -200 45 -200 45 -200 45
2367576196.0327 -3.878561 -43.25589 -200 45 -200 45 -200 45
2368576312.7188 -3.8711946 -43.201649 -200 45 -200 45 -200 45
2369576429.4049 -3.8687408 -43.163006 -200 45 -200 45 -200 45
2370576546.091 -3.8617694 -43.101814 -200 45 -200 45 -200 45
2371576662.7771 -3.8614814 -43.060764 -200 45 -200 45 -200 45
2372576779.4632 -3.8559766 -43.024723 -200 45 -200 45 -200 45
2373576896.1494 -3.8552611 -42.969589 -200 45 -200 45 -200 45
2374577012.8355 -3.8532696 -42.894611 -200 45 -200 45 -200 45
2375577129.5216 -3.8491824 -42.848427 -200 45 -200 45 -200 45
2376577246.2077 -3.849421 -42.78265 -200 45 -200 45 -200 45
2377577362.8938 -3.8469288 -42.731911 -200 45 -200 45 -200 45
2378577479.5799 -3.8478301 -42.649731 -200 45 -200 45 -200 45
2379577596.266 -3.8456874 -42.590813 -200 45 -200 45 -200 45
2380577712.9522 -3.8503945 -42.513233 -200 45 -200 45 -200 45
2381577829.6383 -3.8502476 -42.459778 -200 45 -200 45 -200 45
2382577946.3244 -3.8548691 -42.381386 -200 45 -200 45 -200 45
2383578063.0105 -3.8591242 -42.346081 -200 45 -200 45 -200 45
2384578179.6966 -3.8618565 -42.282219 -200 45 -200 45 -200 45
2385578296.3827 -3.8609164 -42.217918 -200 45 -200 45 -200 45
2386578413.0688 -3.8652613 -42.153225 -200 45 -200 45 -200 45
2387578529.755 -3.8694484 -42.108173 -200 45 -200 45 -200 45
2388578646.4411 -3.8750756 -42.058323 -200 45 -200 45 -200 45
2389578763.1272 -3.8786104 -42.007725 -200 45 -200 45 -200 45
2390578879.8133 -3.8845234 -41.965115 -200 45 -200 45 -200 45
2391578996.4994 -3.8906989 -41.941952 -200 45 -200 45 -200 45
2392579113.1855 -3.8963447 -41.902866 -200 45 -200 45 -200 45
2393579229.8716 -3.9054677 -41.868061 -200 45 -200 45 -200 45
2394579346.5578 -3.9091032 -41.838531 -200 45 -200 45 -200 45
2395579463.2439 -3.9163744 -41.803741 -200 45 -200 45 -200 45
2396579579.93 -3.9219291 -41.798309 -200 45 -200 45 -200 45
2397579696.6161 -3.9298306 -41.765022 -200 45 -200 45 -200 45
2398579813.3022 -3.9358034 -41.774712 -200 45 -200 45 -200 45
2399579929.9883 -3.9440501 -41.768948 -200 45 -200 45 -200 45
2400580046.6744 -3.9507844 -41.777821 -200 45 -200 45 -200 45
2401580163.3606 -3.9574084 -41.795414 -200 45 -200 45 -200 45
2402580280.0467 -3.9658275 -41.832302 -200 45 -200 45 -200 45
2403580396.7328 -3.9740462 -41.827663 -200 45 -200 45 -200 45
2404580513.4189 -3.982614 -41.865246 -200 45 -200 45 -200 45
2405580630.105 -3.9873748 -41.919098 -200 45 -200 45 -200 45
2406580746.7911 -3.9943106 -41.959599 -200 45 -200 45 -200 45
2407580863.4772 -3.9991212 -42.001888 -200 45 -200 45 -200 45
2408580980.1634 -4.009099 -42.046574 -200 45 -200 45 -200 45
2409581096.8495 -4.013453 -42.112198 -200 45 -200 45 -200 45
2410581213.5356 -4.0206938 -42.172935 -200 45 -200 45 -200 45
2411581330.2217 -4.0250716 -42.227623 -200 45 -200 45 -200 45
2412581446.9078 -4.0303197 -42.292793 -200 45 -200 45 -200 45
2413581563.5939 -4.0374188 -42.368702 -200 45 -200 45 -200 45
2414581680.28 -4.0388718 -42.45816 -200 45 -200 45 -200 45
2415581796.9662 -4.0441961 -42.536793 -200 45 -200 45 -200 45
2416581913.6523 -4.0506883 -42.627636 -200 45 -200 45 -200 45
2417582030.3384 -4.050806 -42.728802 -200 45 -200 45 -200 45
2418582147.0245 -4.053781 -42.810574 -200 45 -200 45 -200 45
2419582263.7106 -4.0546908 -42.909424 -200 45 -200 45 -200 45
2420582380.3967 -4.0594335 -43.003956 -200 45 -200 45 -200 45
2421582497.0828 -4.0590558 -43.092381 -200 45 -200 45 -200 45
2422582613.769 -4.0570426 -43.173962 -200 45 -200 45 -200 45
2423582730.4551 -4.0598316 -43.281548 -200 45 -200 45 -200 45
2424582847.1412 -4.0592756 -43.373535 -200 45 -200 45 -200 45
2425582963.8273 -4.0618544 -43.464718 -200 45 -200 45 -200 45
2426583080.5134 -4.0611196 -43.567032 -200 45 -200 45 -200 45
2427583197.1995 -4.0580168 -43.638779 -200 45 -200 45 -200 45
2428583313.8856 -4.0565953 -43.730579 -200 45 -200 45 -200 45
2429583430.5718 -4.0558891 -43.829235 -200 45 -200 45 -200 45
2430583547.2579 -4.0556393 -43.877438 -200 45 -200 45 -200 45
2431583663.944 -4.051517 -43.968399 -200 45 -200 45 -200 45
2432583780.6301 -4.048038 -44.028774 -200 45 -200 45 -200 45
2433583897.3162 -4.0465531 -44.098022 -200 45 -200 45 -200 45
2434584014.0023 -4.039968 -44.138973 -200 45 -200 45 -200 45
2435584130.6884 -4.0372076 -44.200012 -200 45 -200 45 -200 45
2436584247.3746 -4.0346746 -44.246609 -200 45 -200 45 -200 45
2437584364.0607 -4.0338798 -44.293839 -200 45 -200 45 -200 45
2438584480.7468 -4.0285683 -44.328819 -200 45 -200 45 -200 45
2439584597.4329 -4.0283084 -44.355064 -200 45 -200 45 -200 45
2440584714.119 -4.0239711 -44.362778 -200 45 -200 45 -200 45
2441584830.8051 -4.0219817 -44.364277 -200 45 -200 45 -200 45
2442584947.4912 -4.022419 -44.372059 -200 45 -200 45 -200 45
2443585064.1774 -4.021729 -44.354145 -200 45 -200 45 -200 45
2444585180.8635 -4.0224133 -44.336422 -200 45 -200 45 -200 45
2445585297.5496 -4.0240598 -44.299629 -200 45 -200 45 -200 45
2446585414.2357 -4.0272446 -44.245213 -200 45 -200 45 -200 45
2447585530.9218 -4.0271378 -44.163593 -200 45 -200 45 -200 45
2448585647.6079 -4.0303407 -44.072266 -200 45 -200 45 -200 45
2449585764.294 -4.039134 -43.92453 -200 45 -200 45 -200 45
2450585880.9802 -4.0498042 -43.721607 -200 45 -200 45 -200 45
2451585997.6663 -4.0509567 -43.401089 -200 45 -200 45 -200 45
2452586114.3524 -4.0224342 -43.011772 -200 45 -200 45 -200 45
2453586231.0385 -3.9710536 -42.753929 -200 45 -200 45 -200 45
2454586347.7246 -3.9180212 -42.684299 -200 45 -200 45 -200 45
2455586464.4107 -3.8761263 -42.705669 -200 45 -200 45 -200 45
2456586581.0968 -3.8504913 -42.759109 -200 45 -200 45 -200 45
2457586697.783 -3.8311188 -42.79303 -200 45 -200 45 -200 45
2458586814.4691 -3.8188326 -42.83913 -200 45 -200 45 -200 45
2459586931.1552 -3.8095179 -42.837311 -200 45 -200 45 -200 45
2460587047.8413 -3.8026748 -42.837551 -200 45 -200 45 -200 45
2461587164.5274 -3.8017294 -42.811478 -200 45 -200 45 -200 45
2462587281.2135 -3.7937248 -42.767693 -200 45 -200 45 -200 45
2463587397.8997 -3.7897992 -42.747086 -200 45 -200 45 -200 45
2464587514.5858 -3.7855456 -42.721489 -200 45 -200 45 -200 45
2465587631.2719 -3.7829297 -42.717781 -200 45 -200 45 -200 45
2466587747.958 -3.7889285 -42.702164 -200 45 -200 45 -200 45
2467587864.6441 -3.7947087 -42.684032 -200 45 -200 45 -200 45
2468587981.3302 -3.7985063 -42.620853 -200 45 -200 45 -200 45
2469588098.0163 -3.8026006 -42.559544 -200 45 -200 45 -200 45
2470588214.7025 -3.8073194 -42.46936 -200 45 -200 45 -200 45
2471588331.3886 -3.807492 -42.379162 -200 45 -200 45 -200 45
2472588448.0747 -3.8036222 -42.314514 -200 45 -200 45 -200 45
2473588564.7608 -3.795711 -42.298897 -200 45 -200 45 -200 45
2474588681.4469 -3.7956305 -42.302658 -200 45 -200 45 -200 45
2475588798.133 -3.7961459 -42.330299 -200 45 -200 45 -200 45
2476588914.8191 -3.8024879 -42.359138 -200 45 -200 45 -200 45
2477589031.5053 -3.8111074 -42.366482 -200 45 -200 45 -200 45
2478589148.1914 -3.8221755 -42.381145 -200 45 -200 45 -200 45
2479589264.8775 -3.8277802 -42.379398 -200 45 -200 45 -200 45
2480589381.5636 -3.8393741 -42.395103 -200 45 -200 45 -200 45
2481589498.2497 -3.8497074 -42.400864 -200 45 -200 45 -200 45
2482589614.9358 -3.8595881 -42.422676 -200 45 -200 45 -200 45
2483589731.6219 -3.8695235 -42.440517 -200 45 -200 45 -200 45
2484589848.3081 -3.8781774 -42.461918 -200 45 -200 45 -200 45
2485589964.9942 -3.887253 -42.49778 -200 45 -200 45 -200 45
2486590081.6803 -3.8968012 -42.534031 -200 45 -200 45 -200 45
2487590198.3664 -3.9057829 -42.568501 -200 45 -200 45 -200 45
2488590315.0525 -3.9185801 -42.603973 -200 45 -200 45 -200 45
2489590431.7386 -3.9266605 -42.651714 -200 45 -200 45 -200 45
2490590548.4247 -3.9359739 -42.702553 -200 45 -200 45 -200 45
2491590665.1109 -3.9437582 -42.754288 -200 45 -200 45 -200 45
2492590781.797 -3.9526327 -42.823311 -200 45 -200 45 -200 45
2493590898.4831 -3.9578145 -42.908482 -200 45 -200 45 -200 45
2494591015.1692 -3.9699388 -42.989361 -200 45 -200 45 -200 45
2495591131.8553 -3.9719024 -43.052032 -200 45 -200 45 -200 45
2496591248.5414 -3.9804294 -43.13134 -200 45 -200 45 -200 45
2497591365.2275 -3.9849901 -43.229256 -200 45 -200 45 -200 45
2498591481.9137 -3.9909141 -43.328041 -200 45 -200 45 -200 45
2499591598.5998 -3.9980822 -43.411491 -200 45 -200 45 -200 45
2500591715.2859 -4.0020795 -43.505184 -200 45 -200 45 -200 45
2501591831.972 -4.0037293 -43.621975 -200 45 -200 45 -200 45
2502591948.6581 -4.0068464 -43.708481 -200 45 -200 45 -200 45
2503592065.3442 -4.0114503 -43.812164 -200 45 -200 45 -200 45
2504592182.0303 -4.0110264 -43.927441 -200 45 -200 45 -200 45
2505592298.7165 -4.0115423 -44.030216 -200 45 -200 45 -200 45
2506592415.4026 -4.0140781 -44.1469 -200 45 -200 45 -200 45
2507592532.0887 -4.0146365 -44.236671 -200 45 -200 45 -200 45
2508592648.7748 -4.0132318 -44.351757 -200 45 -200 45 -200 45
2509592765.4609 -4.0122166 -44.434113 -200 45 -200 45 -200 45
2510592882.147 -4.0129395 -44.530689 -200 45 -200 45 -200 45
2511592998.8331 -4.0106463 -44.644405 -200 45 -200 45 -200 45
2512593115.5193 -4.0042095 -44.721966 -200 45 -200 45 -200 45
2513593232.2054 -4.0028911 -44.831181 -200 45 -200 45 -200 45
2514593348.8915 -3.9996703 -44.906017 -200 45 -200 45 -200 45
2515593465.5776 -3.994189 -44.999485 -200 45 -200 45 -200 45
2516593582.2637 -3.9899039 -45.09066 -200 45 -200 45 -200 45
2517593698.9498 -3.9853017 -45.14637 -200 45 -200 45 -200 45
2518593815.6359 -3.9788542 -45.238518 -200 45 -200 45 -200 45
2519593932.3221 -3.9751565 -45.285385 -200 45 -200 45 -200 45
2520594049.0082 -3.972296 -45.351639 -200 45 -200 45 -200 45
2521594165.6943 -3.9616456 -45.394325 -200 45 -200 45 -200 45
2522594282.3804 -3.9574461 -45.442776 -200 45 -200 45 -200 45
2523594399.0665 -3.9520535 -45.465645 -200 45 -200 45 -200 45
2524594515.7526 -3.9449823 -45.496902 -200 45 -200 45 -200 45
2525594632.4387 -3.9400814 -45.539848 -200 45 -200 45 -200 45
2526594749.1249 -3.9308627 -45.549881 -200 45 -200 45 -200 45
2527594865.811 -3.928956 -45.564556 -200 45 -200 45 -200 45
2528594982.4971 -3.9224532 -45.552731 -200 45 -200 45 -200 45
2529595099.1832 -3.9152968 -45.552917 -200 45 -200 45 -200 45
2530595215.8693 -3.9101079 -45.544426 -200 45 -200 45 -200 45
2531595332.5554 -3.9072008 -45.546471 -200 45 -200 45 -200 45
2532595449.2415 -3.8998933 -45.511482 -200 45 -200 45 -200 45
2533595565.9277 -3.8949776 -45.492073 -200 45 -200 45 -200 45
2534595682.6138 -3.8903694 -45.438362 -200 45 -200 45 -200 45
2535595799.2999 -3.8876736 -45.411022 -200 45 -200 45 -200 45
2536595915.986 -3.8852825 -45.351768 -200 45 -200 45 -200 45
2537596032.6721 -3.8846719 -45.300819 -200 45 -200 45 -200 45
2538596149.3582 -3.8818855 -45.257401 -200 45 -200 45 -200 45
2539596266.0443 -3.8781633 -45.186195 -200 45 -200 45 -200 45
2540596382.7305 -3.8784564 -45.11454 -200 45 -200 45 -200 45
2541596499.4166 -3.8809507 -45.06329 -200 45 -200 45 -200 45
2542596616.1027 -3.8780634 -44.98357 -200 45 -200 45 -200 45
2543596732.7888 -3.8818824 -44.910942 -200 45 -200 45 -200 45
2544596849.4749 -3.883122 -44.845634 -200 45 -200 45 -200 45
2545596966.161 -3.88726 -44.739502 -200 45 -200 45 -200 45
2546597082.8471 -3.8899117 -44.64299 -200 45 -200 45 -200 45
2547597199.5333 -3.896337 -44.576347 -200 45 -200 45 -200 45
2548597316.2194 -3.9018867 -44.491352 -200 45 -200 45 -200 45
2549597432.9055 -3.9081378 -44.405228 -200 45 -200 45 -200 45
2550597549.5916 -3.9177079 -44.308659 -200 45 -200 45 -200 45
2551597666.2777 -3.9256122 -44.21006 -200 45 -200 45 -200 45
2552597782.9638 -3.9389579 -44.130497 -200 45 -200 45 -200 45
2553597899.6499 -3.9502661 -44.03159 -200 45 -200 45 -200 45
2554598016.3361 -3.9636602 -43.916271 -200 45 -200 45 -200 45
2555598133.0222 -3.9760611 -43.790928 -200 45 -200 45 -200 45
2556598249.7083 -3.9976695 -43.690273 -200 45 -200 45 -200 45
2557598366.3944 -4.0149026 -43.540752 -200 45 -200 45 -200 45
2558598483.0805 -4.0334749 -43.392948 -200 45 -200 45 -200 45
2559598599.7666 -4.0520182 -43.251938 -200 45 -200 45 -200 45
2560598716.4527 -4.0704956 -43.091141 -200 45 -200 45 -200 45
2561598833.1389 -4.095048 -42.893768 -200 45 -200 45 -200 45
2562598949.825 -4.1245708 -42.610825 -200 45 -200 45 -200 45
2563599066.5111 -4.1454024 -42.251743 -200 45 -200 45 -200 45
2564599183.1972 -4.1516423 -41.766479 -200 45 -200 45 -200 45
2565599299.8833 -4.1262808 -41.239628 -200 45 -200 45 -200 45
2566599416.5694 -4.0643816 -40.826656 -200 45 -200 45 -200 45
2567599533.2555 -3.9883149 -40.665794 -200 45 -200 45 -200 45
2568599649.9417 -3.9159842 -40.690243 -200 45 -200 45 -200 45
2569599766.6278 -3.8641326 -40.873158 -200 45 -200 45 -200 45
2570599883.3139 -3.8272483 -41.072201 -200 45 -200 45 -200 45
2571600000 -3.7962675 -41.27013 -200 45 -200 45 -200 45
2572600116.6861 -3.7689414 -41.485222 -200 45 -200 45 -200 45
2573600233.3722 -3.7422967 -41.790775 -200 45 -200 45 -200 45
2574600350.0583 -3.7312868 -42.126347 -200 45 -200 45 -200 45
2575600466.7445 -3.7318265 -42.476284 -200 45 -200 45 -200 45
2576600583.4306 -3.7454457 -42.788559 -200 45 -200 45 -200 45
2577600700.1167 -3.7601311 -43.028236 -200 45 -200 45 -200 45
2578600816.8028 -3.7802768 -43.242695 -200 45 -200 45 -200 45
2579600933.4889 -3.795383 -43.423222 -200 45 -200 45 -200 45
2580601050.175 -3.8110807 -43.607216 -200 45 -200 45 -200 45
2581601166.8611 -3.825711 -43.756859 -200 45 -200 45 -200 45
2582601283.5473 -3.8386896 -43.918545 -200 45 -200 45 -200 45
2583601400.2334 -3.8501799 -44.075462 -200 45 -200 45 -200 45
2584601516.9195 -3.8631401 -44.212479 -200 45 -200 45 -200 45
2585601633.6056 -3.8741567 -44.326931 -200 45 -200 45 -200 45
2586601750.2917 -3.8778832 -44.45219 -200 45 -200 45 -200 45
2587601866.9778 -3.8862784 -44.586452 -200 45 -200 45 -200 45
2588601983.6639 -3.8922431 -44.720837 -200 45 -200 45 -200 45
2589602100.3501 -3.8992879 -44.829391 -200 45 -200 45 -200 45
2590602217.0362 -3.9023821 -44.967823 -200 45 -200 45 -200 45
2591602333.7223 -3.9047313 -45.099537 -200 45 -200 45 -200 45
2592602450.4084 -3.9044998 -45.192532 -200 45 -200 45 -200 45
2593602567.0945 -3.906642 -45.332211 -200 45 -200 45 -200 45
2594602683.7806 -3.9078178 -45.431728 -200 45 -200 45 -200 45
2595602800.4667 -3.9092305 -45.549732 -200 45 -200 45 -200 45
2596602917.1529 -3.9072752 -45.687481 -200 45 -200 45 -200 45
2597603033.839 -3.9066577 -45.765095 -200 45 -200 45 -200 45
2598603150.5251 -3.90324 -45.86937 -200 45 -200 45 -200 45
2599603267.2112 -3.9014635 -45.970352 -200 45 -200 45 -200 45
2600603383.8973 -3.8964608 -46.052452 -200 45 -200 45 -200 45
2601603500.5834 -3.8926048 -46.142124 -200 45 -200 45 -200 45
2602603617.2695 -3.8911262 -46.220039 -200 45 -200 45 -200 45
2603603733.9557 -3.8846507 -46.275318 -200 45 -200 45 -200 45
2604603850.6418 -3.8778732 -46.359837 -200 45 -200 45 -200 45
2605603967.3279 -3.8737469 -46.424149 -200 45 -200 45 -200 45
2606604084.014 -3.8679817 -46.451244 -200 45 -200 45 -200 45
2607604200.7001 -3.8637741 -46.504772 -200 45 -200 45 -200 45
2608604317.3862 -3.8559182 -46.531868 -200 45 -200 45 -200 45
2609604434.0723 -3.8472176 -46.573677 -200 45 -200 45 -200 45
2610604550.7585 -3.843425 -46.594658 -200 45 -200 45 -200 45
2611604667.4446 -3.8363242 -46.608311 -200 45 -200 45 -200 45
2612604784.1307 -3.8287799 -46.620083 -200 45 -200 45 -200 45
2613604900.8168 -3.8255079 -46.626789 -200 45 -200 45 -200 45
2614605017.5029 -3.8144512 -46.632465 -200 45 -200 45 -200 45
2615605134.189 -3.8081558 -46.628483 -200 45 -200 45 -200 45
2616605250.8751 -3.8057852 -46.594086 -200 45 -200 45 -200 45
2617605367.5613 -3.7983377 -46.562012 -200 45 -200 45 -200 45
2618605484.2474 -3.7930369 -46.541077 -200 45 -200 45 -200 45
2619605600.9335 -3.7858419 -46.492954 -200 45 -200 45 -200 45
2620605717.6196 -3.78355 -46.460796 -200 45 -200 45 -200 45
2621605834.3057 -3.7740548 -46.407593 -200 45 -200 45 -200 45
2622605950.9918 -3.7730963 -46.352856 -200 45 -200 45 -200 45
2623606067.6779 -3.7708604 -46.302338 -200 45 -200 45 -200 45
2624606184.3641 -3.7655005 -46.243649 -200 45 -200 45 -200 45
2625606301.0502 -3.7631345 -46.187637 -200 45 -200 45 -200 45
2626606417.7363 -3.7623212 -46.119354 -200 45 -200 45 -200 45
2627606534.4224 -3.7622921 -46.048042 -200 45 -200 45 -200 45
2628606651.1085 -3.7574434 -45.962811 -200 45 -200 45 -200 45
2629606767.7946 -3.7560315 -45.894905 -200 45 -200 45 -200 45
2630606884.4807 -3.7588763 -45.821133 -200 45 -200 45 -200 45
2631607001.1669 -3.7583032 -45.750889 -200 45 -200 45 -200 45
2632607117.853 -3.7576382 -45.656792 -200 45 -200 45 -200 45
2633607234.5391 -3.7599132 -45.586292 -200 45 -200 45 -200 45
2634607351.2252 -3.7639875 -45.506138 -200 45 -200 45 -200 45
2635607467.9113 -3.7656891 -45.441685 -200 45 -200 45 -200 45
2636607584.5974 -3.7686093 -45.360928 -200 45 -200 45 -200 45
2637607701.2835 -3.772676 -45.297386 -200 45 -200 45 -200 45
2638607817.9697 -3.7773299 -45.209839 -200 45 -200 45 -200 45
2639607934.6558 -3.7783856 -45.13974 -200 45 -200 45 -200 45
2640608051.3419 -3.7846532 -45.082733 -200 45 -200 45 -200 45
2641608168.028 -3.791955 -45.034214 -200 45 -200 45 -200 45
2642608284.7141 -3.7979629 -44.99498 -200 45 -200 45 -200 45
2643608401.4002 -3.8062549 -44.939068 -200 45 -200 45 -200 45
2644608518.0863 -3.8122656 -44.888195 -200 45 -200 45 -200 45
2645608634.7725 -3.8194482 -44.84428 -200 45 -200 45 -200 45
2646608751.4586 -3.8282845 -44.819157 -200 45 -200 45 -200 45
2647608868.1447 -3.8357518 -44.810184 -200 45 -200 45 -200 45
2648608984.8308 -3.8411851 -44.783836 -200 45 -200 45 -200 45
2649609101.5169 -3.8507299 -44.778938 -200 45 -200 45 -200 45
2650609218.203 -3.8592336 -44.779438 -200 45 -200 45 -200 45
2651609334.8891 -3.869179 -44.770176 -200 45 -200 45 -200 45
2652609451.5753 -3.8773935 -44.763233 -200 45 -200 45 -200 45
2653609568.2614 -3.8873284 -44.786469 -200 45 -200 45 -200 45
2654609684.9475 -3.8955491 -44.812298 -200 45 -200 45 -200 45
2655609801.6336 -3.9036844 -44.839527 -200 45 -200 45 -200 45
2656609918.3197 -3.9111743 -44.882336 -200 45 -200 45 -200 45
2657610035.0058 -3.9180043 -44.913021 -200 45 -200 45 -200 45
2658610151.6919 -3.9290469 -44.972256 -200 45 -200 45 -200 45
2659610268.3781 -3.9392247 -45.019386 -200 45 -200 45 -200 45
2660610385.0642 -3.9425967 -45.087124 -200 45 -200 45 -200 45
2661610501.7503 -3.9490628 -45.143078 -200 45 -200 45 -200 45
2662610618.4364 -3.9567733 -45.223598 -200 45 -200 45 -200 45
2663610735.1225 -3.9641037 -45.310493 -200 45 -200 45 -200 45
2664610851.8086 -3.9708064 -45.390938 -200 45 -200 45 -200 45
2665610968.4947 -3.9716563 -45.488235 -200 45 -200 45 -200 45
2666611085.1809 -3.9778872 -45.573818 -200 45 -200 45 -200 45
2667611201.867 -3.9825869 -45.672798 -200 45 -200 45 -200 45
2668611318.5531 -3.9874029 -45.768349 -200 45 -200 45 -200 45
2669611435.2392 -3.9904714 -45.880943 -200 45 -200 45 -200 45
2670611551.9253 -3.9937682 -45.989708 -200 45 -200 45 -200 45
2671611668.6114 -3.9941919 -46.09259 -200 45 -200 45 -200 45
2672611785.2975 -3.9996951 -46.20808 -200 45 -200 45 -200 45
2673611901.9837 -3.9948111 -46.313248 -200 45 -200 45 -200 45
2674612018.6698 -3.9990902 -46.425575 -200 45 -200 45 -200 45
2675612135.3559 -3.9956293 -46.530895 -200 45 -200 45 -200 45
2676612252.042 -3.9962268 -46.649742 -200 45 -200 45 -200 45
2677612368.7281 -3.9902513 -46.741291 -200 45 -200 45 -200 45
2678612485.4142 -3.9887621 -46.846157 -200 45 -200 45 -200 45
2679612602.1004 -3.9860096 -46.959515 -200 45 -200 45 -200 45
2680612718.7865 -3.9807506 -47.054897 -200 45 -200 45 -200 45
2681612835.4726 -3.9764726 -47.156776 -200 45 -200 45 -200 45
2682612952.1587 -3.9740362 -47.24155 -200 45 -200 45 -200 45
2683613068.8448 -3.9687891 -47.342388 -200 45 -200 45 -200 45
2684613185.5309 -3.9635217 -47.414814 -200 45 -200 45 -200 45
2685613302.217 -3.9577193 -47.492855 -200 45 -200 45 -200 45
2686613418.9032 -3.9498482 -47.570778 -200 45 -200 45 -200 45
2687613535.5893 -3.9399185 -47.627445 -200 45 -200 45 -200 45
2688613652.2754 -3.9367943 -47.679157 -200 45 -200 45 -200 45
2689613768.9615 -3.9273705 -47.728336 -200 45 -200 45 -200 45
2690613885.6476 -3.9193661 -47.789284 -200 45 -200 45 -200 45
2691614002.3337 -3.9111905 -47.83046 -200 45 -200 45 -200 45
2692614119.0198 -3.8985419 -47.850266 -200 45 -200 45 -200 45
2693614235.706 -3.8920047 -47.859978 -200 45 -200 45 -200 45
2694614352.3921 -3.8872983 -47.893829 -200 45 -200 45 -200 45
2695614469.0782 -3.87924 -47.885735 -200 45 -200 45 -200 45
2696614585.7643 -3.8677197 -47.895004 -200 45 -200 45 -200 45
2697614702.4504 -3.8622153 -47.900379 -200 45 -200 45 -200 45
2698614819.1365 -3.8522265 -47.881855 -200 45 -200 45 -200 45
2699614935.8226 -3.848325 -47.871967 -200 45 -200 45 -200 45
2700615052.5088 -3.8406155 -47.848427 -200 45 -200 45 -200 45
2701615169.1949 -3.8356402 -47.82436 -200 45 -200 45 -200 45
2702615285.881 -3.8266037 -47.780701 -200 45 -200 45 -200 45
2703615402.5671 -3.8212245 -47.723595 -200 45 -200 45 -200 45
2704615519.2532 -3.8132863 -47.67971 -200 45 -200 45 -200 45
2705615635.9393 -3.8083103 -47.623199 -200 45 -200 45 -200 45
2706615752.6254 -3.8037744 -47.556332 -200 45 -200 45 -200 45
2707615869.3116 -3.7994175 -47.509987 -200 45 -200 45 -200 45
2708615985.9977 -3.7967224 -47.420124 -200 45 -200 45 -200 45
2709616102.6838 -3.7933619 -47.385597 -200 45 -200 45 -200 45
2710616219.3699 -3.7887545 -47.282642 -200 45 -200 45 -200 45
2711616336.056 -3.7878261 -47.194229 -200 45 -200 45 -200 45
2712616452.7421 -3.7863362 -47.130859 -200 45 -200 45 -200 45
2713616569.4282 -3.7823582 -47.05542 -200 45 -200 45 -200 45
2714616686.1144 -3.7840958 -46.966381 -200 45 -200 45 -200 45
2715616802.8005 -3.7863874 -46.901276 -200 45 -200 45 -200 45
2716616919.4866 -3.7849278 -46.815323 -200 45 -200 45 -200 45
2717617036.1727 -3.7872844 -46.732876 -200 45 -200 45 -200 45
2718617152.8588 -3.7895095 -46.635124 -200 45 -200 45 -200 45
2719617269.5449 -3.7926188 -46.582668 -200 45 -200 45 -200 45
2720617386.231 -3.7951906 -46.493797 -200 45 -200 45 -200 45
2721617502.9172 -3.7980049 -46.420719 -200 45 -200 45 -200 45
2722617619.6033 -3.8056922 -46.354668 -200 45 -200 45 -200 45
2723617736.2894 -3.809397 -46.276161 -200 45 -200 45 -200 45
2724617852.9755 -3.8147221 -46.232704 -200 45 -200 45 -200 45
2725617969.6616 -3.8203428 -46.155998 -200 45 -200 45 -200 45
2726618086.3477 -3.8270667 -46.088669 -200 45 -200 45 -200 45
2727618203.0338 -3.8344097 -46.058815 -200 45 -200 45 -200 45
2728618319.72 -3.8420217 -45.996716 -200 45 -200 45 -200 45
2729618436.4061 -3.8474412 -45.949432 -200 45 -200 45 -200 45
2730618553.0922 -3.857631 -45.939808 -200 45 -200 45 -200 45
2731618669.7783 -3.8660388 -45.908184 -200 45 -200 45 -200 45
2732618786.4644 -3.8728111 -45.889408 -200 45 -200 45 -200 45
2733618903.1505 -3.8815613 -45.881702 -200 45 -200 45 -200 45
2734619019.8366 -3.8933241 -45.885105 -200 45 -200 45 -200 45
2735619136.5228 -3.9021769 -45.853424 -200 45 -200 45 -200 45
2736619253.2089 -3.9090619 -45.874557 -200 45 -200 45 -200 45
2737619369.895 -3.918776 -45.890354 -200 45 -200 45 -200 45
2738619486.5811 -3.9266701 -45.901878 -200 45 -200 45 -200 45
2739619603.2672 -3.9371624 -45.94585 -200 45 -200 45 -200 45
2740619719.9533 -3.9449065 -45.985844 -200 45 -200 45 -200 45
2741619836.6394 -3.9529502 -46.031307 -200 45 -200 45 -200 45
2742619953.3256 -3.9583511 -46.059811 -200 45 -200 45 -200 45
2743620070.0117 -3.9668031 -46.122757 -200 45 -200 45 -200 45
2744620186.6978 -3.9770718 -46.198727 -200 45 -200 45 -200 45
2745620303.3839 -3.9842508 -46.252342 -200 45 -200 45 -200 45
2746620420.07 -3.9947486 -46.346321 -200 45 -200 45 -200 45
2747620536.7561 -3.9982252 -46.434689 -200 45 -200 45 -200 45
2748620653.4422 -4.0015979 -46.524155 -200 45 -200 45 -200 45
2749620770.1284 -4.00982 -46.604668 -200 45 -200 45 -200 45
2750620886.8145 -4.0134597 -46.683159 -200 45 -200 45 -200 45
2751621003.5006 -4.0212498 -46.79781 -200 45 -200 45 -200 45
2752621120.1867 -4.0245404 -46.916977 -200 45 -200 45 -200 45
2753621236.8728 -4.0275502 -47.011719 -200 45 -200 45 -200 45
2754621353.5589 -4.0253663 -47.118473 -200 45 -200 45 -200 45
2755621470.245 -4.028779 -47.239124 -200 45 -200 45 -200 45
2756621586.9312 -4.0311456 -47.353298 -200 45 -200 45 -200 45
2757621703.6173 -4.0290632 -47.453899 -200 45 -200 45 -200 45
2758621820.3034 -4.030879 -47.576458 -200 45 -200 45 -200 45
2759621936.9895 -4.0292754 -47.713356 -200 45 -200 45 -200 45
2760622053.6756 -4.0299039 -47.800156 -200 45 -200 45 -200 45
2761622170.3617 -4.0278473 -47.914661 -200 45 -200 45 -200 45
2762622287.0478 -4.0242882 -48.022011 -200 45 -200 45 -200 45
2763622403.734 -4.0218353 -48.112835 -200 45 -200 45 -200 45
2764622520.4201 -4.0184431 -48.220085 -200 45 -200 45 -200 45
2765622637.1062 -4.015285 -48.319813 -200 45 -200 45 -200 45
2766622753.7923 -4.0086532 -48.411572 -200 45 -200 45 -200 45
2767622870.4784 -4.0031643 -48.49572 -200 45 -200 45 -200 45
2768622987.1645 -3.9946692 -48.59058 -200 45 -200 45 -200 45
2769623103.8506 -3.9911313 -48.657013 -200 45 -200 45 -200 45
2770623220.5368 -3.9847808 -48.736214 -200 45 -200 45 -200 45
2771623337.2229 -3.9770315 -48.826244 -200 45 -200 45 -200 45
2772623453.909 -3.9699361 -48.861126 -200 45 -200 45 -200 45
2773623570.5951 -3.9601355 -48.913197 -200 45 -200 45 -200 45
2774623687.2812 -3.9542952 -48.95509 -200 45 -200 45 -200 45
2775623803.9673 -3.9475431 -48.995762 -200 45 -200 45 -200 45
2776623920.6534 -3.9407151 -49.037498 -200 45 -200 45 -200 45
2777624037.3396 -3.9307008 -49.072803 -200 45 -200 45 -200 45
2778624154.0257 -3.9226916 -49.070614 -200 45 -200 45 -200 45
2779624270.7118 -3.9140706 -49.055065 -200 45 -200 45 -200 45
2780624387.3979 -3.9051411 -49.074768 -200 45 -200 45 -200 45
2781624504.084 -3.8982236 -49.066074 -200 45 -200 45 -200 45
2782624620.7701 -3.891289 -49.039738 -200 45 -200 45 -200 45
2783624737.4562 -3.8838463 -49.044441 -200 45 -200 45 -200 45
2784624854.1424 -3.8756344 -49.015511 -200 45 -200 45 -200 45
2785624970.8285 -3.8697121 -48.985458 -200 45 -200 45 -200 45
2786625087.5146 -3.8617029 -48.941772 -200 45 -200 45 -200 45
2787625204.2007 -3.856797 -48.90329 -200 45 -200 45 -200 45
2788625320.8868 -3.8566215 -48.851376 -200 45 -200 45 -200 45
2789625437.5729 -3.8504615 -48.779064 -200 45 -200 45 -200 45
2790625554.259 -3.8462839 -48.710571 -200 45 -200 45 -200 45
2791625670.9452 -3.8410161 -48.648968 -200 45 -200 45 -200 45
2792625787.6313 -3.8392186 -48.598507 -200 45 -200 45 -200 45
2793625904.3174 -3.8355477 -48.496758 -200 45 -200 45 -200 45
2794626021.0035 -3.8343029 -48.408848 -200 45 -200 45 -200 45
2795626137.6896 -3.8318887 -48.365654 -200 45 -200 45 -200 45
2796626254.3757 -3.8357449 -48.299622 -200 45 -200 45 -200 45
2797626371.0618 -3.8409071 -48.212177 -200 45 -200 45 -200 45
2798626487.748 -3.8452344 -48.113022 -200 45 -200 45 -200 45
2799626604.4341 -3.8491213 -48.017097 -200 45 -200 45 -200 45
2800626721.1202 -3.8570323 -47.942673 -200 45 -200 45 -200 45
2801626837.8063 -3.8653688 -47.830246 -200 45 -200 45 -200 45
2802626954.4924 -3.8751497 -47.733776 -200 45 -200 45 -200 45
2803627071.1785 -3.8889396 -47.623814 -200 45 -200 45 -200 45
2804627187.8646 -3.9079514 -47.494232 -200 45 -200 45 -200 45
2805627304.5508 -3.9267645 -47.303646 -200 45 -200 45 -200 45
2806627421.2369 -3.9436307 -47.064121 -200 45 -200 45 -200 45
2807627537.923 -3.9486642 -46.74173 -200 45 -200 45 -200 45
2808627654.6091 -3.9376769 -46.457897 -200 45 -200 45 -200 45
2809627771.2952 -3.9133389 -46.244701 -200 45 -200 45 -200 45
2810627887.9813 -3.8889523 -46.134796 -200 45 -200 45 -200 45
2811628004.6674 -3.866878 -46.09589 -200 45 -200 45 -200 45
2812628121.3536 -3.8541532 -46.100956 -200 45 -200 45 -200 45
2813628238.0397 -3.8463728 -46.130253 -200 45 -200 45 -200 45
2814628354.7258 -3.8449395 -46.166641 -200 45 -200 45 -200 45
2815628471.4119 -3.8474448 -46.18008 -200 45 -200 45 -200 45
2816628588.098 -3.8506904 -46.17173 -200 45 -200 45 -200 45
2817628704.7841 -3.8542328 -46.208008 -200 45 -200 45 -200 45
2818628821.4702 -3.8580267 -46.241596 -200 45 -200 45 -200 45
2819628938.1564 -3.8625586 -46.282436 -200 45 -200 45 -200 45
2820629054.8425 -3.8637431 -46.332115 -200 45 -200 45 -200 45
2821629171.5286 -3.8703308 -46.377762 -200 45 -200 45 -200 45
2822629288.2147 -3.874856 -46.444874 -200 45 -200 45 -200 45
2823629404.9008 -3.8815503 -46.50885 -200 45 -200 45 -200 45
2824629521.5869 -3.8924253 -46.567909 -200 45 -200 45 -200 45
2825629638.273 -3.8988481 -46.64418 -200 45 -200 45 -200 45
2826629754.9592 -3.9060681 -46.707634 -200 45 -200 45 -200 45
2827629871.6453 -3.9067938 -46.807686 -200 45 -200 45 -200 45
2828629988.3314 -3.9126003 -46.939278 -200 45 -200 45 -200 45
2829630105.0175 -3.9216588 -47.025486 -200 45 -200 45 -200 45
2830630221.7036 -3.9295611 -47.155029 -200 45 -200 45 -200 45
2831630338.3897 -3.9353824 -47.262932 -200 45 -200 45 -200 45
2832630455.0758 -3.941184 -47.381931 -200 45 -200 45 -200 45
2833630571.762 -3.9504852 -47.517513 -200 45 -200 45 -200 45
2834630688.4481 -3.9556668 -47.643585 -200 45 -200 45 -200 45
2835630805.1342 -3.9612939 -47.752731 -200 45 -200 45 -200 45
2836630921.8203 -3.9666541 -47.860336 -200 45 -200 45 -200 45
2837631038.5064 -3.9712629 -47.996105 -200 45 -200 45 -200 45
2838631155.1925 -3.9747152 -48.126942 -200 45 -200 45 -200 45
2839631271.8786 -3.9792511 -48.245667 -200 45 -200 45 -200 45
2840631388.5648 -3.9821773 -48.399143 -200 45 -200 45 -200 45
2841631505.2509 -3.9819462 -48.519684 -200 45 -200 45 -200 45
2842631621.937 -3.9819729 -48.641953 -200 45 -200 45 -200 45
2843631738.6231 -3.9850948 -48.769978 -200 45 -200 45 -200 45
2844631855.3092 -3.9797938 -48.883713 -200 45 -200 45 -200 45
2845631971.9953 -3.9782114 -49.004768 -200 45 -200 45 -200 45
2846632088.6814 -3.9752243 -49.114388 -200 45 -200 45 -200 45
2847632205.3676 -3.9757223 -49.230129 -200 45 -200 45 -200 45
2848632322.0537 -3.9691675 -49.343529 -200 45 -200 45 -200 45
2849632438.7398 -3.9622016 -49.448368 -200 45 -200 45 -200 45
2850632555.4259 -3.9570127 -49.549423 -200 45 -200 45 -200 45
2851632672.112 -3.9522605 -49.656353 -200 45 -200 45 -200 45
2852632788.7981 -3.9457245 -49.762177 -200 45 -200 45 -200 45
2853632905.4842 -3.9395058 -49.814362 -200 45 -200 45 -200 45
2854633022.1704 -3.935317 -49.924603 -200 45 -200 45 -200 45
2855633138.8565 -3.9291978 -49.979382 -200 45 -200 45 -200 45
2856633255.5426 -3.9197299 -50.053036 -200 45 -200 45 -200 45
2857633372.2287 -3.9108431 -50.102978 -200 45 -200 45 -200 45
2858633488.9148 -3.9020195 -50.165085 -200 45 -200 45 -200 45
2859633605.6009 -3.8926814 -50.221901 -200 45 -200 45 -200 45
2860633722.287 -3.8874202 -50.221214 -200 45 -200 45 -200 45
2861633838.9732 -3.8763983 -50.268169 -200 45 -200 45 -200 45
2862633955.6593 -3.8690729 -50.272789 -200 45 -200 45 -200 45
2863634072.3454 -3.8600268 -50.297604 -200 45 -200 45 -200 45
2864634189.0315 -3.8543062 -50.309814 -200 45 -200 45 -200 45
2865634305.7176 -3.8469415 -50.30077 -200 45 -200 45 -200 45
2866634422.4037 -3.8361814 -50.298252 -200 45 -200 45 -200 45
2867634539.0898 -3.8288028 -50.274025 -200 45 -200 45 -200 45
2868634655.776 -3.8211415 -50.251503 -200 45 -200 45 -200 45
2869634772.4621 -3.8117986 -50.200951 -200 45 -200 45 -200 45
2870634889.1482 -3.8049748 -50.159645 -200 45 -200 45 -200 45
2871635005.8343 -3.80022 -50.09848 -200 45 -200 45 -200 45
2872635122.5204 -3.7959509 -50.062004 -200 45 -200 45 -200 45
2873635239.2065 -3.7916524 -50.027416 -200 45 -200 45 -200 45
2874635355.8926 -3.7851081 -49.967049 -200 45 -200 45 -200 45
2875635472.5788 -3.781697 -49.884945 -200 45 -200 45 -200 45
2876635589.2649 -3.7794919 -49.790432 -200 45 -200 45 -200 45
2877635705.951 -3.773499 -49.736736 -200 45 -200 45 -200 45
2878635822.6371 -3.7700088 -49.649178 -200 45 -200 45 -200 45
2879635939.3232 -3.7695687 -49.558834 -200 45 -200 45 -200 45
2880636056.0093 -3.7695727 -49.491367 -200 45 -200 45 -200 45
2881636172.6954 -3.7691696 -49.386436 -200 45 -200 45 -200 45
2882636289.3816 -3.7660749 -49.286232 -200 45 -200 45 -200 45
2883636406.0677 -3.7673566 -49.216415 -200 45 -200 45 -200 45
2884636522.7538 -3.768683 -49.139233 -200 45 -200 45 -200 45
2885636639.4399 -3.7718816 -49.065182 -200 45 -200 45 -200 45
2886636756.126 -3.7716148 -48.964752 -200 45 -200 45 -200 45
2887636872.8121 -3.7757399 -48.867901 -200 45 -200 45 -200 45
2888636989.4983 -3.7798059 -48.796696 -200 45 -200 45 -200 45
2889637106.1844 -3.785826 -48.710758 -200 45 -200 45 -200 45
2890637222.8705 -3.7890215 -48.627266 -200 45 -200 45 -200 45
2891637339.5566 -3.795378 -48.561943 -200 45 -200 45 -200 45
2892637456.2427 -3.8034854 -48.505203 -200 45 -200 45 -200 45
2893637572.9288 -3.8086119 -48.420071 -200 45 -200 45 -200 45
2894637689.6149 -3.8133433 -48.360264 -200 45 -200 45 -200 45
2895637806.3011 -3.823858 -48.318508 -200 45 -200 45 -200 45
2896637922.9872 -3.8324234 -48.249432 -200 45 -200 45 -200 45
2897638039.6733 -3.8410068 -48.218597 -200 45 -200 45 -200 45
2898638156.3594 -3.8497319 -48.172073 -200 45 -200 45 -200 45
2899638273.0455 -3.8568785 -48.158661 -200 45 -200 45 -200 45
2900638389.7316 -3.8663671 -48.123886 -200 45 -200 45 -200 45
2901638506.4177 -3.8771038 -48.135921 -200 45 -200 45 -200 45
2902638623.1039 -3.8852406 -48.120049 -200 45 -200 45 -200 45
2903638739.79 -3.8967612 -48.12534 -200 45 -200 45 -200 45
2904638856.4761 -3.9058237 -48.124702 -200 45 -200 45 -200 45
2905638973.1622 -3.9170749 -48.149975 -200 45 -200 45 -200 45
2906639089.8483 -3.9255607 -48.169399 -200 45 -200 45 -200 45
2907639206.5344 -3.9358242 -48.19265 -200 45 -200 45 -200 45
2908639323.2205 -3.9483645 -48.248455 -200 45 -200 45 -200 45
2909639439.9067 -3.9516253 -48.281635 -200 45 -200 45 -200 45
2910639556.5928 -3.9660347 -48.332901 -200 45 -200 45 -200 45
2911639673.2789 -3.9756246 -48.395489 -200 45 -200 45 -200 45
2912639789.965 -3.982965 -48.462841 -200 45 -200 45 -200 45
2913639906.6511 -3.9901946 -48.55452 -200 45 -200 45 -200 45
2914640023.3372 -3.9983604 -48.625446 -200 45 -200 45 -200 45
2915640140.0233 -4.0040321 -48.723347 -200 45 -200 45 -200 45
2916640256.7095 -4.0129924 -48.820408 -200 45 -200 45 -200 45
2917640373.3956 -4.0183635 -48.9231 -200 45 -200 45 -200 45
2918640490.0817 -4.0226727 -49.01804 -200 45 -200 45 -200 45
2919640606.7678 -4.0273099 -49.127796 -200 45 -200 45 -200 45
2920640723.4539 -4.02947 -49.239059 -200 45 -200 45 -200 45
2921640840.14 -4.032258 -49.370201 -200 45 -200 45 -200 45
2922640956.8261 -4.0366168 -49.451637 -200 45 -200 45 -200 45
2923641073.5123 -4.0380931 -49.603943 -200 45 -200 45 -200 45
2924641190.1984 -4.0423131 -49.726418 -200 45 -200 45 -200 45
2925641306.8845 -4.0447698 -49.841484 -200 45 -200 45 -200 45
2926641423.5706 -4.0381298 -49.952133 -200 45 -200 45 -200 45
2927641540.2567 -4.0396357 -50.069447 -200 45 -200 45 -200 45
2928641656.9428 -4.0382538 -50.204025 -200 45 -200 45 -200 45
2929641773.6289 -4.0383172 -50.309788 -200 45 -200 45 -200 45
2930641890.3151 -4.0326047 -50.415356 -200 45 -200 45 -200 45
2931642007.0012 -4.026504 -50.539539 -200 45 -200 45 -200 45
2932642123.6873 -4.0240898 -50.639862 -200 45 -200 45 -200 45
2933642240.3734 -4.0168748 -50.751495 -200 45 -200 45 -200 45
2934642357.0595 -4.0114942 -50.853523 -200 45 -200 45 -200 45
2935642473.7456 -4.007525 -50.944374 -200 45 -200 45 -200 45
2936642590.4317 -4.0017781 -51.034885 -200 45 -200 45 -200 45
2937642707.1179 -3.9960666 -51.126442 -200 45 -200 45 -200 45
2938642823.804 -3.9889309 -51.192154 -200 45 -200 45 -200 45
2939642940.4901 -3.980649 -51.264099 -200 45 -200 45 -200 45
2940643057.1762 -3.9751766 -51.328529 -200 45 -200 45 -200 45
2941643173.8623 -3.964689 -51.378502 -200 45 -200 45 -200 45
2942643290.5484 -3.9588583 -51.423691 -200 45 -200 45 -200 45
2943643407.2345 -3.9511051 -51.477646 -200 45 -200 45 -200 45
2944643523.9207 -3.9433799 -51.516426 -200 45 -200 45 -200 45
2945643640.6068 -3.9343801 -51.52776 -200 45 -200 45 -200 45
2946643757.2929 -3.9262247 -51.567963 -200 45 -200 45 -200 45
2947643873.979 -3.9170947 -51.564407 -200 45 -200 45 -200 45
2948643990.6651 -3.9110105 -51.575642 -200 45 -200 45 -200 45
2949644107.3512 -3.9055519 -51.549202 -200 45 -200 45 -200 45
2950644224.0373 -3.8957584 -51.543972 -200 45 -200 45 -200 45
2951644340.7235 -3.8906746 -51.520947 -200 45 -200 45 -200 45
2952644457.4096 -3.8828285 -51.498253 -200 45 -200 45 -200 45
2953644574.0957 -3.8789549 -51.439777 -200 45 -200 45 -200 45
2954644690.7818 -3.8732309 -51.40197 -200 45 -200 45 -200 45
2955644807.4679 -3.8720629 -51.337784 -200 45 -200 45 -200 45
2956644924.154 -3.8646343 -51.280254 -200 45 -200 45 -200 45
2957645040.8401 -3.8666799 -51.215508 -200 45 -200 45 -200 45
2958645157.5263 -3.8612955 -51.136662 -200 45 -200 45 -200 45
2959645274.2124 -3.8595798 -51.055832 -200 45 -200 45 -200 45
2960645390.8985 -3.8593183 -50.971561 -200 45 -200 45 -200 45
2961645507.5846 -3.8595655 -50.853512 -200 45 -200 45 -200 45
2962645624.2707 -3.8589909 -50.729885 -200 45 -200 45 -200 45
2963645740.9568 -3.8639116 -50.613861 -200 45 -200 45 -200 45
2964645857.6429 -3.8649476 -50.472416 -200 45 -200 45 -200 45
2965645974.3291 -3.8659015 -50.309875 -200 45 -200 45 -200 45
2966646091.0152 -3.8646312 -50.145622 -200 45 -200 45 -200 45
2967646207.7013 -3.8635333 -49.948639 -200 45 -200 45 -200 45
2968646324.3874 -3.8527584 -49.781204 -200 45 -200 45 -200 45
2969646441.0735 -3.8403382 -49.649117 -200 45 -200 45 -200 45
2970646557.7596 -3.824378 -49.553745 -200 45 -200 45 -200 45
2971646674.4457 -3.8180897 -49.508259 -200 45 -200 45 -200 45
2972646791.1319 -3.8119736 -49.461243 -200 45 -200 45 -200 45
2973646907.818 -3.8182814 -49.429359 -200 45 -200 45 -200 45
2974647024.5041 -3.8194509 -49.37463 -200 45 -200 45 -200 45
2975647141.1902 -3.8266935 -49.319962 -200 45 -200 45 -200 45
2976647257.8763 -3.833894 -49.273735 -200 45 -200 45 -200 45
2977647374.5624 -3.8423533 -49.188778 -200 45 -200 45 -200 45
2978647491.2485 -3.8494818 -49.118095 -200 45 -200 45 -200 45
2979647607.9347 -3.8571756 -49.049004 -200 45 -200 45 -200 45
2980647724.6208 -3.8654826 -49.012154 -200 45 -200 45 -200 45
2981647841.3069 -3.8739104 -48.946648 -200 45 -200 45 -200 45
2982647957.993 -3.8844111 -48.919655 -200 45 -200 45 -200 45
2983648074.6791 -3.8947091 -48.879967 -200 45 -200 45 -200 45
2984648191.3652 -3.9078946 -48.831013 -200 45 -200 45 -200 45
2985648308.0513 -3.9175177 -48.785431 -200 45 -200 45 -200 45
2986648424.7375 -3.9305074 -48.720974 -200 45 -200 45 -200 45
2987648541.4236 -3.9387016 -48.668659 -200 45 -200 45 -200 45
2988648658.1097 -3.9493423 -48.619736 -200 45 -200 45 -200 45
2989648774.7958 -3.9543238 -48.55711 -200 45 -200 45 -200 45
2990648891.4819 -3.9578772 -48.553654 -200 45 -200 45 -200 45
2991649008.168 -3.9537489 -48.513191 -200 45 -200 45 -200 45
2992649124.8541 -3.9523871 -48.533112 -200 45 -200 45 -200 45
2993649241.5403 -3.9450531 -48.54332 -200 45 -200 45 -200 45
2994649358.2264 -3.9406016 -48.61945 -200 45 -200 45 -200 45
2995649474.9125 -3.9337211 -48.722237 -200 45 -200 45 -200 45
2996649591.5986 -3.9335642 -48.821007 -200 45 -200 45 -200 45
2997649708.2847 -3.930645 -48.973515 -200 45 -200 45 -200 45
2998649824.9708 -3.933898 -49.146576 -200 45 -200 45 -200 45
2999649941.6569 -3.9391761 -49.289177 -200 45 -200 45 -200 45
3000650058.3431 -3.9450822 -49.427742 -200 45 -200 45 -200 45
3001650175.0292 -3.9522865 -49.589088 -200 45 -200 45 -200 45
3002650291.7153 -3.9572275 -49.729889 -200 45 -200 45 -200 45
3003650408.4014 -3.9608185 -49.873756 -200 45 -200 45 -200 45
3004650525.0875 -3.967042 -50.0308 -200 45 -200 45 -200 45
3005650641.7736 -3.9692607 -50.143902 -200 45 -200 45 -200 45
3006650758.4597 -3.9757965 -50.325588 -200 45 -200 45 -200 45
3007650875.1459 -3.9766929 -50.445793 -200 45 -200 45 -200 45
3008650991.832 -3.9777806 -50.59943 -200 45 -200 45 -200 45
3009651108.5181 -3.9800882 -50.756363 -200 45 -200 45 -200 45
3010651225.2042 -3.9783967 -50.896793 -200 45 -200 45 -200 45
3011651341.8903 -3.9838679 -51.044319 -200 45 -200 45 -200 45
3012651458.5764 -3.9806831 -51.169209 -200 45 -200 45 -200 45
3013651575.2625 -3.9787855 -51.294922 -200 45 -200 45 -200 45
3014651691.9487 -3.9764962 -51.42284 -200 45 -200 45 -200 45
3015651808.6348 -3.9735515 -51.540066 -200 45 -200 45 -200 45
3016651925.3209 -3.9687562 -51.647705 -200 45 -200 45 -200 45
3017652042.007 -3.9641602 -51.761295 -200 45 -200 45 -200 45
3018652158.6931 -3.9582725 -51.863377 -200 45 -200 45 -200 45
3019652275.3792 -3.956847 -51.979748 -200 45 -200 45 -200 45
3020652392.0653 -3.9492655 -52.05999 -200 45 -200 45 -200 45
3021652508.7515 -3.941514 -52.152748 -200 45 -200 45 -200 45
3022652625.4376 -3.9367085 -52.247074 -200 45 -200 45 -200 45
3023652742.1237 -3.9282637 -52.327549 -200 45 -200 45 -200 45
3024652858.8098 -3.919826 -52.401638 -200 45 -200 45 -200 45
3025652975.4959 -3.914093 -52.468018 -200 45 -200 45 -200 45
3026653092.182 -3.9037817 -52.520298 -200 45 -200 45 -200 45
3027653208.8681 -3.8976805 -52.579498 -200 45 -200 45 -200 45
3028653325.5543 -3.8875179 -52.62138 -200 45 -200 45 -200 45
3029653442.2404 -3.8802154 -52.639515 -200 45 -200 45 -200 45
3030653558.9265 -3.8704019 -52.658329 -200 45 -200 45 -200 45
3031653675.6126 -3.8625655 -52.671684 -200 45 -200 45 -200 45
3032653792.2987 -3.8556275 -52.67342 -200 45 -200 45 -200 45
3033653908.9848 -3.848263 -52.675415 -200 45 -200 45 -200 45
3034654025.6709 -3.8396373 -52.65807 -200 45 -200 45 -200 45
3035654142.3571 -3.8333964 -52.655945 -200 45 -200 45 -200 45
3036654259.0432 -3.8247166 -52.611954 -200 45 -200 45 -200 45
3037654375.7293 -3.8174615 -52.581314 -200 45 -200 45 -200 45
3038654492.4154 -3.8133109 -52.547791 -200 45 -200 45 -200 45
3039654609.1015 -3.8070366 -52.507751 -200 45 -200 45 -200 45
3040654725.7876 -3.8033297 -52.468624 -200 45 -200 45 -200 45
3041654842.4737 -3.7945004 -52.398975 -200 45 -200 45 -200 45
3042654959.1599 -3.7912834 -52.331554 -200 45 -200 45 -200 45
3043655075.846 -3.7865081 -52.269882 -200 45 -200 45 -200 45
3044655192.5321 -3.7857316 -52.187935 -200 45 -200 45 -200 45
3045655309.2182 -3.7818801 -52.106884 -200 45 -200 45 -200 45
3046655425.9043 -3.7802298 -52.038464 -200 45 -200 45 -200 45
3047655542.5904 -3.7788017 -51.933899 -200 45 -200 45 -200 45
3048655659.2765 -3.7761259 -51.861401 -200 45 -200 45 -200 45
3049655775.9627 -3.7767553 -51.775093 -200 45 -200 45 -200 45
3050655892.6488 -3.777734 -51.673775 -200 45 -200 45 -200 45
3051656009.3349 -3.7806814 -51.606167 -200 45 -200 45 -200 45
3052656126.021 -3.7834282 -51.526073 -200 45 -200 45 -200 45
3053656242.7071 -3.7867811 -51.426945 -200 45 -200 45 -200 45
3054656359.3932 -3.7921033 -51.338699 -200 45 -200 45 -200 45
3055656476.0793 -3.7961717 -51.252842 -200 45 -200 45 -200 45
3056656592.7655 -3.8013699 -51.167095 -200 45 -200 45 -200 45
3057656709.4516 -3.8067057 -51.098297 -200 45 -200 45 -200 45
3058656826.1377 -3.8144443 -51.01762 -200 45 -200 45 -200 45
3059656942.8238 -3.8163986 -50.95129 -200 45 -200 45 -200 45
3060657059.5099 -3.8283992 -50.896893 -200 45 -200 45 -200 45
3061657176.196 -3.8347464 -50.822163 -200 45 -200 45 -200 45
3062657292.8821 -3.8424845 -50.753601 -200 45 -200 45 -200 45
3063657409.5683 -3.8520119 -50.695374 -200 45 -200 45 -200 45
3064657526.2544 -3.8604102 -50.658863 -200 45 -200 45 -200 45
3065657642.9405 -3.8728204 -50.610085 -200 45 -200 45 -200 45
3066657759.6266 -3.8814516 -50.592487 -200 45 -200 45 -200 45
3067657876.3127 -3.8910873 -50.5504 -200 45 -200 45 -200 45
3068657992.9988 -3.907717 -50.53743 -200 45 -200 45 -200 45
3069658109.6849 -3.9163196 -50.528652 -200 45 -200 45 -200 45
3070658226.3711 -3.9308007 -50.511688 -200 45 -200 45 -200 45
3071658343.0572 -3.9402649 -50.509869 -200 45 -200 45 -200 45
3072658459.7433 -3.9515929 -50.521706 -200 45 -200 45 -200 45
3073658576.4294 -3.9666889 -50.549812 -200 45 -200 45 -200 45
3074658693.1155 -3.9792211 -50.557236 -200 45 -200 45 -200 45
3075658809.8016 -3.9914598 -50.615768 -200 45 -200 45 -200 45
3076658926.4877 -4.0001078 -50.646286 -200 45 -200 45 -200 45
3077659043.1739 -4.0118184 -50.685009 -200 45 -200 45 -200 45
3078659159.86 -4.0240955 -50.73568 -200 45 -200 45 -200 45
3079659276.5461 -4.0369773 -50.795921 -200 45 -200 45 -200 45
3080659393.2322 -4.0480165 -50.857578 -200 45 -200 45 -200 45
3081659509.9183 -4.0600152 -50.943539 -200 45 -200 45 -200 45
3082659626.6044 -4.0715213 -51.007858 -200 45 -200 45 -200 45
3083659743.2905 -4.0798721 -51.107925 -200 45 -200 45 -200 45
3084659859.9767 -4.0899267 -51.189423 -200 45 -200 45 -200 45
3085659976.6628 -4.1005392 -51.28109 -200 45 -200 45 -200 45
3086660093.3489 -4.1114159 -51.379219 -200 45 -200 45 -200 45
3087660210.035 -4.1211753 -51.470959 -200 45 -200 45 -200 45
3088660326.7211 -4.1279955 -51.594734 -200 45 -200 45 -200 45
3089660443.4072 -4.1349497 -51.697212 -200 45 -200 45 -200 45
3090660560.0933 -4.142602 -51.787903 -200 45 -200 45 -200 45
3091660676.7795 -4.1535211 -51.920956 -200 45 -200 45 -200 45
3092660793.4656 -4.1585498 -52.026257 -200 45 -200 45 -200 45
3093660910.1517 -4.1635308 -52.106098 -200 45 -200 45 -200 45
3094661026.8378 -4.1718988 -52.215855 -200 45 -200 45 -200 45
3095661143.5239 -4.1744666 -52.311901 -200 45 -200 45 -200 45
3096661260.21 -4.1813025 -52.399055 -200 45 -200 45 -200 45
3097661376.8961 -4.1875157 -52.470531 -200 45 -200 45 -200 45
3098661493.5823 -4.1894503 -52.540745 -200 45 -200 45 -200 45
3099661610.2684 -4.1956549 -52.598289 -200 45 -200 45 -200 45
3100661726.9545 -4.1971064 -52.673729 -200 45 -200 45 -200 45
3101661843.6406 -4.2007217 -52.728153 -200 45 -200 45 -200 45
3102661960.3267 -4.2055807 -52.781467 -200 45 -200 45 -200 45
3103662077.0128 -4.2109871 -52.831413 -200 45 -200 45 -200 45
3104662193.6989 -4.2246013 -52.827652 -200 45 -200 45 -200 45
3105662310.3851 -4.2405448 -52.791645 -200 45 -200 45 -200 45
3106662427.0712 -4.2532759 -52.659565 -200 45 -200 45 -200 45
3107662543.7573 -4.2597356 -52.439545 -200 45 -200 45 -200 45
3108662660.4434 -4.2546868 -52.159924 -200 45 -200 45 -200 45
3109662777.1295 -4.2339926 -51.814339 -200 45 -200 45 -200 45
3110662893.8156 -4.1959076 -51.499119 -200 45 -200 45 -200 45
3111663010.5018 -4.1385355 -51.235439 -200 45 -200 45 -200 45
3112663127.1879 -4.0714531 -51.112137 -200 45 -200 45 -200 45
3113663243.874 -4.0030069 -51.06041 -200 45 -200 45 -200 45
3114663360.5601 -3.9411204 -51.132099 -200 45 -200 45 -200 45
3115663477.2462 -3.8885217 -51.250835 -200 45 -200 45 -200 45
3116663593.9323 -3.8518617 -51.409737 -200 45 -200 45 -200 45
3117663710.6184 -3.8195412 -51.541306 -200 45 -200 45 -200 45
3118663827.3046 -3.7945571 -51.638069 -200 45 -200 45 -200 45
3119663943.9907 -3.7743154 -51.745712 -200 45 -200 45 -200 45
3120664060.6768 -3.759654 -51.793568 -200 45 -200 45 -200 45
3121664177.3629 -3.7419579 -51.811012 -200 45 -200 45 -200 45
3122664294.049 -3.7275813 -51.813446 -200 45 -200 45 -200 45
3123664410.7351 -3.7140772 -51.824478 -200 45 -200 45 -200 45
3124664527.4212 -3.696305 -51.787846 -200 45 -200 45 -200 45
3125664644.1074 -3.6756604 -51.761871 -200 45 -200 45 -200 45
3126664760.7935 -3.6565218 -51.737602 -200 45 -200 45 -200 45
3127664877.4796 -3.636054 -51.725803 -200 45 -200 45 -200 45
3128664994.1657 -3.6157811 -51.739845 -200 45 -200 45 -200 45
3129665110.8518 -3.6006532 -51.755093 -200 45 -200 45 -200 45
3130665227.5379 -3.5882382 -51.80827 -200 45 -200 45 -200 45
3131665344.224 -3.5820832 -51.81794 -200 45 -200 45 -200 45
3132665460.9102 -3.578634 -51.869606 -200 45 -200 45 -200 45
3133665577.5963 -3.5809462 -51.887646 -200 45 -200 45 -200 45
3134665694.2824 -3.5863049 -51.883312 -200 45 -200 45 -200 45
3135665810.9685 -3.5859873 -51.857025 -200 45 -200 45 -200 45
3136665927.6546 -3.5935016 -51.836143 -200 45 -200 45 -200 45
3137666044.3407 -3.5981808 -51.815884 -200 45 -200 45 -200 45
3138666161.0268 -3.6035345 -51.754627 -200 45 -200 45 -200 45
3139666277.713 -3.6068883 -51.714016 -200 45 -200 45 -200 45
3140666394.3991 -3.6146188 -51.665936 -200 45 -200 45 -200 45
3141666511.0852 -3.6228113 -51.627911 -200 45 -200 45 -200 45
3142666627.7713 -3.6301479 -51.583614 -200 45 -200 45 -200 45
3143666744.4574 -3.6397882 -51.536777 -200 45 -200 45 -200 45
3144666861.1435 -3.6493363 -51.50423 -200 45 -200 45 -200 45
3145666977.8296 -3.660187 -51.46069 -200 45 -200 45 -200 45
3146667094.5158 -3.669035 -51.395863 -200 45 -200 45 -200 45
3147667211.2019 -3.6801715 -51.367157 -200 45 -200 45 -200 45
3148667327.888 -3.6942685 -51.328552 -200 45 -200 45 -200 45
3149667444.5741 -3.7026553 -51.311478 -200 45 -200 45 -200 45
3150667561.2602 -3.7131658 -51.28709 -200 45 -200 45 -200 45
3151667677.9463 -3.7239556 -51.274651 -200 45 -200 45 -200 45
3152667794.6324 -3.7340913 -51.262093 -200 45 -200 45 -200 45
3153667911.3186 -3.7486482 -51.257996 -200 45 -200 45 -200 45
3154668028.0047 -3.7623315 -51.255852 -200 45 -200 45 -200 45
3155668144.6908 -3.7720356 -51.281334 -200 45 -200 45 -200 45
3156668261.3769 -3.7843192 -51.295475 -200 45 -200 45 -200 45
3157668378.063 -3.795711 -51.33099 -200 45 -200 45 -200 45
3158668494.7491 -3.8084264 -51.362789 -200 45 -200 45 -200 45
3159668611.4352 -3.818567 -51.409782 -200 45 -200 45 -200 45
3160668728.1214 -3.8286128 -51.454468 -200 45 -200 45 -200 45
3161668844.8075 -3.8408904 -51.506927 -200 45 -200 45 -200 45
3162668961.4936 -3.8497715 -51.57439 -200 45 -200 45 -200 45
3163669078.1797 -3.8595421 -51.629105 -200 45 -200 45 -200 45
3164669194.8658 -3.8745294 -51.731846 -200 45 -200 45 -200 45
3165669311.5519 -3.8808162 -51.806049 -200 45 -200 45 -200 45
3166669428.238 -3.889497 -51.886501 -200 45 -200 45 -200 45
3167669544.9242 -3.8981042 -51.97588 -200 45 -200 45 -200 45
3168669661.6103 -3.9054871 -52.104828 -200 45 -200 45 -200 45
3169669778.2964 -3.9119267 -52.19923 -200 45 -200 45 -200 45
3170669894.9825 -3.9211583 -52.32386 -200 45 -200 45 -200 45
3171670011.6686 -3.9251838 -52.434681 -200 45 -200 45 -200 45
3172670128.3547 -3.9295712 -52.557873 -200 45 -200 45 -200 45
3173670245.0408 -3.934207 -52.685184 -200 45 -200 45 -200 45
3174670361.727 -3.9370644 -52.806438 -200 45 -200 45 -200 45
3175670478.4131 -3.9385986 -52.933994 -200 45 -200 45 -200 45
3176670595.0992 -3.9415445 -53.063316 -200 45 -200 45 -200 45
3177670711.7853 -3.9406321 -53.193188 -200 45 -200 45 -200 45
3178670828.4714 -3.9393938 -53.322575 -200 45 -200 45 -200 45
3179670945.1575 -3.9407513 -53.437111 -200 45 -200 45 -200 45
3180671061.8436 -3.9416802 -53.552113 -200 45 -200 45 -200 45
3181671178.5298 -3.9391632 -53.687412 -200 45 -200 45 -200 45
3182671295.2159 -3.933404 -53.810787 -200 45 -200 45 -200 45
3183671411.902 -3.9331043 -53.934235 -200 45 -200 45 -200 45
3184671528.5881 -3.9278018 -54.037247 -200 45 -200 45 -200 45
3185671645.2742 -3.9209561 -54.15147 -200 45 -200 45 -200 45
3186671761.9603 -3.9146121 -54.257439 -200 45 -200 45 -200 45
3187671878.6464 -3.9080653 -54.354118 -200 45 -200 45 -200 45
3188671995.3326 -3.9048235 -54.458187 -200 45 -200 45 -200 45
3189672112.0187 -3.8920152 -54.554413 -200 45 -200 45 -200 45
3190672228.7048 -3.8880184 -54.630947 -200 45 -200 45 -200 45
3191672345.3909 -3.8804798 -54.712833 -200 45 -200 45 -200 45
3192672462.077 -3.8716996 -54.779205 -200 45 -200 45 -200 45
3193672578.7631 -3.8620179 -54.829536 -200 45 -200 45 -200 45
3194672695.4492 -3.8540566 -54.883518 -200 45 -200 45 -200 45
3195672812.1354 -3.8429472 -54.948845 -200 45 -200 45 -200 45
3196672928.8215 -3.8372328 -54.973186 -200 45 -200 45 -200 45
3197673045.5076 -3.8267436 -54.993156 -200 45 -200 45 -200 45
3198673162.1937 -3.8192444 -54.997681 -200 45 -200 45 -200 45
3199673278.8798 -3.8105111 -55.005299 -200 45 -200 45 -200 45
3200673395.5659 -3.7988544 -55.015739 -200 45 -200 45 -200 45
3201673512.252 -3.7921991 -55.019875 -200 45 -200 45 -200 45
3202673628.9382 -3.7800779 -55.007889 -200 45 -200 45 -200 45
3203673745.6243 -3.7742586 -54.995361 -200 45 -200 45 -200 45
3204673862.3104 -3.7675664 -54.952198 -200 45 -200 45 -200 45
3205673978.9965 -3.7594399 -54.914967 -200 45 -200 45 -200 45
3206674095.6826 -3.7510746 -54.875114 -200 45 -200 45 -200 45
3207674212.3687 -3.745506 -54.82983 -200 45 -200 45 -200 45
3208674329.0548 -3.7395682 -54.779125 -200 45 -200 45 -200 45
3209674445.741 -3.7315967 -54.699959 -200 45 -200 45 -200 45
3210674562.4271 -3.727226 -54.652176 -200 45 -200 45 -200 45
3211674679.1132 -3.7200468 -54.56683 -200 45 -200 45 -200 45
3212674795.7993 -3.7190046 -54.495247 -200 45 -200 45 -200 45
3213674912.4854 -3.7149844 -54.44437 -200 45 -200 45 -200 45
3214675029.1715 -3.7151315 -54.357445 -200 45 -200 45 -200 45
3215675145.8576 -3.7117436 -54.267544 -200 45 -200 45 -200 45
3216675262.5438 -3.7101038 -54.169147 -200 45 -200 45 -200 45
3217675379.2299 -3.7100811 -54.105507 -200 45 -200 45 -200 45
3218675495.916 -3.7088552 -54.001568 -200 45 -200 45 -200 45
3219675612.6021 -3.7106128 -53.923344 -200 45 -200 45 -200 45
3220675729.2882 -3.7111838 -53.824226 -200 45 -200 45 -200 45
3221675845.9743 -3.7101493 -53.736374 -200 45 -200 45 -200 45
3222675962.6604 -3.7175696 -53.652195 -200 45 -200 45 -200 45
3223676079.3466 -3.7235715 -53.550396 -200 45 -200 45 -200 45
3224676196.0327 -3.7223887 -53.468632 -200 45 -200 45 -200 45
3225676312.7188 -3.7299807 -53.375614 -200 45 -200 45 -200 45
3226676429.4049 -3.732661 -53.294216 -200 45 -200 45 -200 45
3227676546.091 -3.7376676 -53.214752 -200 45 -200 45 -200 45
3228676662.7771 -3.7448146 -53.134758 -200 45 -200 45 -200 45
3229676779.4632 -3.7532339 -53.080872 -200 45 -200 45 -200 45
3230676896.1494 -3.7611954 -52.998482 -200 45 -200 45 -200 45
3231677012.8355 -3.7704103 -52.947567 -200 45 -200 45 -200 45
3232677129.5216 -3.7770355 -52.887737 -200 45 -200 45 -200 45
3233677246.2077 -3.785954 -52.857525 -200 45 -200 45 -200 45
3234677362.8938 -3.7966306 -52.838284 -200 45 -200 45 -200 45
3235677479.5799 -3.804455 -52.794411 -200 45 -200 45 -200 45
3236677596.266 -3.8119068 -52.782837 -200 45 -200 45 -200 45
3237677712.9522 -3.8220844 -52.775169 -200 45 -200 45 -200 45
3238677829.6383 -3.8330255 -52.756592 -200 45 -200 45 -200 45
3239677946.3244 -3.8435631 -52.750641 -200 45 -200 45 -200 45
3240678063.0105 -3.8572197 -52.757397 -200 45 -200 45 -200 45
3241678179.6966 -3.8660429 -52.759697 -200 45 -200 45 -200 45
3242678296.3827 -3.8738947 -52.797962 -200 45 -200 45 -200 45
3243678413.0688 -3.8845131 -52.813313 -200 45 -200 45 -200 45
3244678529.755 -3.8959014 -52.85762 -200 45 -200 45 -200 45
3245678646.4411 -3.9041576 -52.906494 -200 45 -200 45 -200 45
3246678763.1272 -3.9152496 -52.977978 -200 45 -200 45 -200 45
3247678879.8133 -3.9227448 -53.038239 -200 45 -200 45 -200 45
3248678996.4994 -3.9351864 -53.103123 -200 45 -200 45 -200 45
3249679113.1855 -3.9437323 -53.200115 -200 45 -200 45 -200 45
3250679229.8716 -3.9488654 -53.264561 -200 45 -200 45 -200 45
3251679346.5578 -3.9553201 -53.386009 -200 45 -200 45 -200 45
3252679463.2439 -3.9608533 -53.475338 -200 45 -200 45 -200 45
3253679579.93 -3.9686315 -53.590496 -200 45 -200 45 -200 45
3254679696.6161 -3.9745097 -53.697132 -200 45 -200 45 -200 45
3255679813.3022 -3.978596 -53.786163 -200 45 -200 45 -200 45
3256679929.9883 -3.9801059 -53.895069 -200 45 -200 45 -200 45
3257680046.6744 -3.9866242 -54.018581 -200 45 -200 45 -200 45
3258680163.3606 -3.9859591 -54.14476 -200 45 -200 45 -200 45
3259680280.0467 -3.9913399 -54.260277 -200 45 -200 45 -200 45
3260680396.7328 -3.990967 -54.393307 -200 45 -200 45 -200 45
3261680513.4189 -3.9922199 -54.514584 -200 45 -200 45 -200 45
3262680630.105 -3.9911094 -54.63578 -200 45 -200 45 -200 45
3263680746.7911 -3.9906967 -54.782627 -200 45 -200 45 -200 45
3264680863.4772 -3.988224 -54.884415 -200 45 -200 45 -200 45
3265680980.1634 -3.9859383 -55.032398 -200 45 -200 45 -200 45
3266681096.8495 -3.9812086 -55.129887 -200 45 -200 45 -200 45
3267681213.5356 -3.9769444 -55.257172 -200 45 -200 45 -200 45
3268681330.2217 -3.9721584 -55.366116 -200 45 -200 45 -200 45
3269681446.9078 -3.9662967 -55.486061 -200 45 -200 45 -200 45
3270681563.5939 -3.9596467 -55.59116 -200 45 -200 45 -200 45
3271681680.28 -3.9529538 -55.659977 -200 45 -200 45 -200 45
3272681796.9662 -3.9451964 -55.766094 -200 45 -200 45 -200 45
3273681913.6523 -3.9387932 -55.855362 -200 45 -200 45 -200 45
3274682030.3384 -3.9277697 -55.93047 -200 45 -200 45 -200 45
3275682147.0245 -3.9196024 -56.024284 -200 45 -200 45 -200 45
3276682263.7106 -3.9106576 -56.06617 -200 45 -200 45 -200 45
3277682380.3967 -3.9003711 -56.128811 -200 45 -200 45 -200 45
3278682497.0828 -3.8933828 -56.191528 -200 45 -200 45 -200 45
3279682613.769 -3.8820975 -56.23402 -200 45 -200 45 -200 45
3280682730.4551 -3.8742862 -56.263214 -200 45 -200 45 -200 45
3281682847.1412 -3.8663476 -56.273434 -200 45 -200 45 -200 45
3282682963.8273 -3.8551702 -56.307175 -200 45 -200 45 -200 45
3283683080.5134 -3.8470628 -56.315765 -200 45 -200 45 -200 45
3284683197.1995 -3.8404019 -56.338428 -200 45 -200 45 -200 45
3285683313.8856 -3.8285546 -56.30962 -200 45 -200 45 -200 45
3286683430.5718 -3.819356 -56.276657 -200 45 -200 45 -200 45
3287683547.2579 -3.8116903 -56.26413 -200 45 -200 45 -200 45
3288683663.944 -3.800812 -56.217308 -200 45 -200 45 -200 45
3289683780.6301 -3.7910473 -56.194828 -200 45 -200 45 -200 45
3290683897.3162 -3.7835159 -56.123577 -200 45 -200 45 -200 45
3291684014.0023 -3.7774212 -56.075584 -200 45 -200 45 -200 45
3292684130.6884 -3.7683477 -56.00914 -200 45 -200 45 -200 45
3293684247.3746 -3.7624516 -55.965611 -200 45 -200 45 -200 45
3294684364.0607 -3.7573493 -55.897018 -200 45 -200 45 -200 45
3295684480.7468 -3.7502635 -55.838215 -200 45 -200 45 -200 45
3296684597.4329 -3.7446156 -55.771847 -200 45 -200 45 -200 45
3297684714.119 -3.7410171 -55.688148 -200 45 -200 45 -200 45
3298684830.8051 -3.7385855 -55.59898 -200 45 -200 45 -200 45
3299684947.4912 -3.7340422 -55.528927 -200 45 -200 45 -200 45
3300685064.1774 -3.7344363 -55.438553 -200 45 -200 45 -200 45
3301685180.8635 -3.7301018 -55.378918 -200 45 -200 45 -200 45
3302685297.5496 -3.7304807 -55.265579 -200 45 -200 45 -200 45
3303685414.2357 -3.7307837 -55.187763 -200 45 -200 45 -200 45
3304685530.9218 -3.731622 -55.085365 -200 45 -200 45 -200 45
3305685647.6079 -3.734818 -55.003952 -200 45 -200 45 -200 45
3306685764.294 -3.736752 -54.909088 -200 45 -200 45 -200 45
3307685880.9802 -3.7391112 -54.795166 -200 45 -200 45 -200 45
3308685997.6663 -3.7440786 -54.718143 -200 45 -200 45 -200 45
3309686114.3524 -3.7499707 -54.635944 -200 45 -200 45 -200 45
3310686231.0385 -3.7522044 -54.565132 -200 45 -200 45 -200 45
3311686347.7246 -3.7599616 -54.486057 -200 45 -200 45 -200 45
3312686464.4107 -3.7639749 -54.404835 -200 45 -200 45 -200 45
3313686581.0968 -3.7743833 -54.341732 -200 45 -200 45 -200 45
3314686697.783 -3.7773046 -54.27142 -200 45 -200 45 -200 45
3315686814.4691 -3.7858446 -54.218597 -200 45 -200 45 -200 45
3316686931.1552 -3.795368 -54.168541 -200 45 -200 45 -200 45
3317687047.8413 -3.8044252 -54.126949 -200 45 -200 45 -200 45
3318687164.5274 -3.8131206 -54.079449 -200 45 -200 45 -200 45
3319687281.2135 -3.8206911 -54.057465 -200 45 -200 45 -200 45
3320687397.8997 -3.83267 -54.037666 -200 45 -200 45 -200 45
3321687514.5858 -3.8407476 -54.00861 -200 45 -200 45 -200 45
3322687631.2719 -3.8522916 -54.012886 -200 45 -200 45 -200 45
3323687747.958 -3.8628933 -53.999992 -200 45 -200 45 -200 45
3324687864.6441 -3.871953 -54.003078 -200 45 -200 45 -200 45
3325687981.3302 -3.8817375 -54.02346 -200 45 -200 45 -200 45
3326688098.0163 -3.8909762 -54.042992 -200 45 -200 45 -200 45
3327688214.7025 -3.9028223 -54.06089 -200 45 -200 45 -200 45
3328688331.3886 -3.9130642 -54.113403 -200 45 -200 45 -200 45
3329688448.0747 -3.91909 -54.152367 -200 45 -200 45 -200 45
3330688564.7608 -3.9306245 -54.220757 -200 45 -200 45 -200 45
3331688681.4469 -3.9389036 -54.277897 -200 45 -200 45 -200 45
3332688798.133 -3.9471757 -54.340771 -200 45 -200 45 -200 45
3333688914.8191 -3.956423 -54.433876 -200 45 -200 45 -200 45
3334689031.5053 -3.9604998 -54.517639 -200 45 -200 45 -200 45
3335689148.1914 -3.9711535 -54.597374 -200 45 -200 45 -200 45
3336689264.8775 -3.9765706 -54.719574 -200 45 -200 45 -200 45
3337689381.5636 -3.9829748 -54.820267 -200 45 -200 45 -200 45
3338689498.2497 -3.9895477 -54.916779 -200 45 -200 45 -200 45
3339689614.9358 -3.9923444 -55.010269 -200 45 -200 45 -200 45
3340689731.6219 -3.9990528 -55.142971 -200 45 -200 45 -200 45
3341689848.3081 -4.0035357 -55.251354 -200 45 -200 45 -200 45
3342689964.9942 -4.0093212 -55.38549 -200 45 -200 45 -200 45
3343690081.6803 -4.0088673 -55.503391 -200 45 -200 45 -200 45
3344690198.3664 -4.0115786 -55.644482 -200 45 -200 45 -200 45
3345690315.0525 -4.0107312 -55.754829 -200 45 -200 45 -200 45
3346690431.7386 -4.0092483 -55.89642 -200 45 -200 45 -200 45
3347690548.4247 -4.0111518 -56.016636 -200 45 -200 45 -200 45
3348690665.1109 -4.0058503 -56.146538 -200 45 -200 45 -200 45
3349690781.797 -4.0043049 -56.242077 -200 45 -200 45 -200 45
3350690898.4831 -3.9999161 -56.346195 -200 45 -200 45 -200 45
3351691015.1692 -3.9967136 -56.49173 -200 45 -200 45 -200 45
3352691131.8553 -3.9893882 -56.600731 -200 45 -200 45 -200 45
3353691248.5414 -3.9842365 -56.700249 -200 45 -200 45 -200 45
3354691365.2275 -3.9805391 -56.809128 -200 45 -200 45 -200 45
3355691481.9137 -3.9722309 -56.904514 -200 45 -200 45 -200 45
3356691598.5998 -3.9648154 -56.987743 -200 45 -200 45 -200 45
3357691715.2859 -3.9571316 -57.079514 -200 45 -200 45 -200 45
3358691831.972 -3.9481964 -57.161171 -200 45 -200 45 -200 45
3359691948.6581 -3.9393399 -57.239063 -200 45 -200 45 -200 45
3360692065.3442 -3.9293938 -57.29015 -200 45 -200 45 -200 45
3361692182.0303 -3.924588 -57.357887 -200 45 -200 45 -200 45
3362692298.7165 -3.9138603 -57.414761 -200 45 -200 45 -200 45
3363692415.4026 -3.9053984 -57.457306 -200 45 -200 45 -200 45
3364692532.0887 -3.8899722 -57.472218 -200 45 -200 45 -200 45
3365692648.7748 -3.881217 -57.498287 -200 45 -200 45 -200 45
3366692765.4609 -3.8712254 -57.538635 -200 45 -200 45 -200 45
3367692882.147 -3.8646462 -57.530849 -200 45 -200 45 -200 45
3368692998.8331 -3.8533564 -57.546204 -200 45 -200 45 -200 45
3369693115.5193 -3.8451269 -57.537235 -200 45 -200 45 -200 45
3370693232.2054 -3.8359578 -57.516628 -200 45 -200 45 -200 45
3371693348.8915 -3.8269498 -57.482277 -200 45 -200 45 -200 45
3372693465.5776 -3.8180151 -57.461277 -200 45 -200 45 -200 45
3373693582.2637 -3.813035 -57.418804 -200 45 -200 45 -200 45
3374693698.9498 -3.80356 -57.382908 -200 45 -200 45 -200 45
3375693815.6359 -3.7933176 -57.33609 -200 45 -200 45 -200 45
3376693932.3221 -3.7900393 -57.303997 -200 45 -200 45 -200 45
3377694049.0082 -3.783778 -57.214554 -200 45 -200 45 -200 45
3378694165.6943 -3.7785664 -57.160629 -200 45 -200 45 -200 45
3379694282.3804 -3.7733798 -57.0924 -200 45 -200 45 -200 45
3380694399.0665 -3.7662156 -57.006054 -200 45 -200 45 -200 45
3381694515.7526 -3.7650506 -56.93343 -200 45 -200 45 -200 45
3382694632.4387 -3.7616749 -56.851711 -200 45 -200 45 -200 45
3383694749.1249 -3.7579811 -56.772053 -200 45 -200 45 -200 45
3384694865.811 -3.7565987 -56.691486 -200 45 -200 45 -200 45
3385694982.4971 -3.7548251 -56.593056 -200 45 -200 45 -200 45
3386695099.1832 -3.7541742 -56.517902 -200 45 -200 45 -200 45
3387695215.8693 -3.7575829 -56.410534 -200 45 -200 45 -200 45
3388695332.5554 -3.7591934 -56.321892 -200 45 -200 45 -200 45
3389695449.2415 -3.7592216 -56.221584 -200 45 -200 45 -200 45
3390695565.9277 -3.7629201 -56.151417 -200 45 -200 45 -200 45
3391695682.6138 -3.7656152 -56.040714 -200 45 -200 45 -200 45
3392695799.2999 -3.7673218 -55.957352 -200 45 -200 45 -200 45
3393695915.986 -3.7713218 -55.877728 -200 45 -200 45 -200 45
3394696032.6721 -3.7785945 -55.809509 -200 45 -200 45 -200 45
3395696149.3582 -3.7841284 -55.742844 -200 45 -200 45 -200 45
3396696266.0443 -3.7880969 -55.655334 -200 45 -200 45 -200 45
3397696382.7305 -3.796803 -55.578419 -200 45 -200 45 -200 45
3398696499.4166 -3.8022883 -55.512684 -200 45 -200 45 -200 45
3399696616.1027 -3.811106 -55.446938 -200 45 -200 45 -200 45
3400696732.7888 -3.8194239 -55.39241 -200 45 -200 45 -200 45
3401696849.4749 -3.8283935 -55.350105 -200 45 -200 45 -200 45
3402696966.161 -3.8382945 -55.314941 -200 45 -200 45 -200 45
3403697082.8471 -3.8486629 -55.284447 -200 45 -200 45 -200 45
3404697199.5333 -3.8582883 -55.262413 -200 45 -200 45 -200 45
3405697316.2194 -3.8674932 -55.243652 -200 45 -200 45 -200 45
3406697432.9055 -3.8782618 -55.232689 -200 45 -200 45 -200 45
3407697549.5916 -3.8906839 -55.233574 -200 45 -200 45 -200 45
3408697666.2777 -3.8976648 -55.233906 -200 45 -200 45 -200 45
3409697782.9638 -3.9103074 -55.246071 -200 45 -200 45 -200 45
3410697899.6499 -3.9183018 -55.262585 -200 45 -200 45 -200 45
3411698016.3361 -3.9258752 -55.293774 -200 45 -200 45 -200 45
3412698133.0222 -3.9380553 -55.338593 -200 45 -200 45 -200 45
3413698249.7083 -3.9482062 -55.379314 -200 45 -200 45 -200 45
3414698366.3944 -3.9596694 -55.434361 -200 45 -200 45 -200 45
3415698483.0805 -3.9651501 -55.50351 -200 45 -200 45 -200 45
3416698599.7666 -3.9775143 -55.578495 -200 45 -200 45 -200 45
3417698716.4527 -3.9861124 -55.656822 -200 45 -200 45 -200 45
3418698833.1389 -3.9917283 -55.734608 -200 45 -200 45 -200 45
3419698949.825 -3.9999204 -55.8353 -200 45 -200 45 -200 45
3420699066.5111 -4.008544 -55.918327 -200 45 -200 45 -200 45
3421699183.1972 -4.0119529 -55.988953 -200 45 -200 45 -200 45
3422699299.8833 -4.0189748 -56.119152 -200 45 -200 45 -200 45
3423699416.5694 -4.0221739 -56.234821 -200 45 -200 45 -200 45
3424699533.2555 -4.0296249 -56.349545 -200 45 -200 45 -200 45
3425699649.9417 -4.0326467 -56.471939 -200 45 -200 45 -200 45
3426699766.6278 -4.0322967 -56.588772 -200 45 -200 45 -200 45
3427699883.3139 -4.0354161 -56.713699 -200 45 -200 45 -200 45
3428700000 -4.03441 -56.826488 -200 45 -200 45 -200 45
3429700116.6861 -4.0378418 -56.965862 -200 45 -200 45 -200 45
3430700233.3722 -4.0378041 -57.097836 -200 45 -200 45 -200 45
3431700350.0583 -4.0368276 -57.203117 -200 45 -200 45 -200 45
3432700466.7445 -4.0360265 -57.353359 -200 45 -200 45 -200 45
3433700583.4306 -4.0328064 -57.440575 -200 45 -200 45 -200 45
3434700700.1167 -4.0275664 -57.592621 -200 45 -200 45 -200 45
3435700816.8028 -4.0230904 -57.681774 -200 45 -200 45 -200 45
3436700933.4889 -4.0220528 -57.809883 -200 45 -200 45 -200 45
3437701050.175 -4.0139093 -57.927334 -200 45 -200 45 -200 45
3438701166.8611 -4.0057344 -58.020779 -200 45 -200 45 -200 45
3439701283.5473 -4.0036654 -58.137424 -200 45 -200 45 -200 45
3440701400.2334 -3.998369 -58.234467 -200 45 -200 45 -200 45
3441701516.9195 -3.9882507 -58.316109 -200 45 -200 45 -200 45
3442701633.6056 -3.980181 -58.383999 -200 45 -200 45 -200 45
3443701750.2917 -3.970772 -58.473278 -200 45 -200 45 -200 45
3444701866.9778 -3.9637847 -58.525257 -200 45 -200 45 -200 45
3445701983.6639 -3.9515047 -58.583721 -200 45 -200 45 -200 45
3446702100.3501 -3.9448175 -58.648315 -200 45 -200 45 -200 45
3447702217.0362 -3.9347422 -58.691292 -200 45 -200 45 -200 45
3448702333.7223 -3.925823 -58.728413 -200 45 -200 45 -200 45
3449702450.4084 -3.9177632 -58.761028 -200 45 -200 45 -200 45
3450702567.0945 -3.9089191 -58.784046 -200 45 -200 45 -200 45
3451702683.7806 -3.9007311 -58.794598 -200 45 -200 45 -200 45
3452702800.4667 -3.8915658 -58.810444 -200 45 -200 45 -200 45
3453702917.1529 -3.8802197 -58.804916 -200 45 -200 45 -200 45
3454703033.839 -3.8707237 -58.798988 -200 45 -200 45 -200 45
3455703150.5251 -3.8641446 -58.774754 -200 45 -200 45 -200 45
3456703267.2112 -3.8563161 -58.749634 -200 45 -200 45 -200 45
3457703383.8973 -3.8488357 -58.719299 -200 45 -200 45 -200 45
3458703500.5834 -3.8401346 -58.67366 -200 45 -200 45 -200 45
3459703617.2695 -3.8327663 -58.630604 -200 45 -200 45 -200 45
3460703733.9557 -3.8278027 -58.579781 -200 45 -200 45 -200 45
3461703850.6418 -3.818645 -58.515537 -200 45 -200 45 -200 45
3462703967.3279 -3.8128991 -58.447227 -200 45 -200 45 -200 45
3463704084.014 -3.8101959 -58.376953 -200 45 -200 45 -200 45
3464704200.7001 -3.8047428 -58.32119 -200 45 -200 45 -200 45
3465704317.3862 -3.7992792 -58.228867 -200 45 -200 45 -200 45
3466704434.0723 -3.7998135 -58.144459 -200 45 -200 45 -200 45
3467704550.7585 -3.7963438 -58.062149 -200 45 -200 45 -200 45
3468704667.4446 -3.79492 -57.980713 -200 45 -200 45 -200 45
3469704784.1307 -3.7945733 -57.867931 -200 45 -200 45 -200 45
3470704900.8168 -3.7936649 -57.80032 -200 45 -200 45 -200 45
3471705017.5029 -3.7950108 -57.710255 -200 45 -200 45 -200 45
3472705134.189 -3.7966762 -57.612289 -200 45 -200 45 -200 45
3473705250.8751 -3.7980733 -57.514427 -200 45 -200 45 -200 45
3474705367.5613 -3.7978859 -57.404243 -200 45 -200 45 -200 45
3475705484.2474 -3.8039873 -57.322815 -200 45 -200 45 -200 45
3476705600.9335 -3.8065314 -57.222744 -200 45 -200 45 -200 45
3477705717.6196 -3.811872 -57.157658 -200 45 -200 45 -200 45
3478705834.3057 -3.8169918 -57.049988 -200 45 -200 45 -200 45
3479705950.9918 -3.824327 -56.974098 -200 45 -200 45 -200 45
3480706067.6779 -3.8309894 -56.896984 -200 45 -200 45 -200 45
3481706184.3641 -3.8373821 -56.842987 -200 45 -200 45 -200 45
3482706301.0502 -3.8458381 -56.770508 -200 45 -200 45 -200 45
3483706417.7363 -3.8554859 -56.715233 -200 45 -200 45 -200 45
3484706534.4224 -3.8635323 -56.629547 -200 45 -200 45 -200 45
3485706651.1085 -3.8701968 -56.586514 -200 45 -200 45 -200 45
3486706767.7946 -3.8823497 -56.559097 -200 45 -200 45 -200 45
3487706884.4807 -3.8921106 -56.524029 -200 45 -200 45 -200 45
3488707001.1669 -3.9024014 -56.493416 -200 45 -200 45 -200 45
3489707117.853 -3.9099801 -56.467205 -200 45 -200 45 -200 45
3490707234.5391 -3.921319 -56.45237 -200 45 -200 45 -200 45
3491707351.2252 -3.9322004 -56.456245 -200 45 -200 45 -200 45
3492707467.9113 -3.9421964 -56.450478 -200 45 -200 45 -200 45
3493707584.5974 -3.9536674 -56.441559 -200 45 -200 45 -200 45
3494707701.2835 -3.963496 -56.485794 -200 45 -200 45 -200 45
3495707817.9697 -3.9752157 -56.525234 -200 45 -200 45 -200 45
3496707934.6558 -3.9831171 -56.547176 -200 45 -200 45 -200 45
3497708051.3419 -3.9944658 -56.590942 -200 45 -200 45 -200 45
3498708168.028 -4.0069652 -56.663704 -200 45 -200 45 -200 45
3499708284.7141 -4.0183887 -56.713505 -200 45 -200 45 -200 45
3500708401.4002 -4.0281034 -56.799053 -200 45 -200 45 -200 45
3501708518.0863 -4.0330148 -56.859867 -200 45 -200 45 -200 45
3502708634.7725 -4.0439949 -56.945721 -200 45 -200 45 -200 45
3503708751.4586 -4.0512815 -57.061905 -200 45 -200 45 -200 45
3504708868.1447 -4.0572596 -57.13966 -200 45 -200 45 -200 45
3505708984.8308 -4.0639977 -57.245586 -200 45 -200 45 -200 45
3506709101.5169 -4.0706878 -57.346043 -200 45 -200 45 -200 45
3507709218.203 -4.0790854 -57.445389 -200 45 -200 45 -200 45
3508709334.8891 -4.0819798 -57.58971 -200 45 -200 45 -200 45
3509709451.5753 -4.0840559 -57.685444 -200 45 -200 45 -200 45
3510709568.2614 -4.091784 -57.835625 -200 45 -200 45 -200 45
3511709684.9475 -4.0930967 -57.956573 -200 45 -200 45 -200 45
3512709801.6336 -4.0971761 -58.096939 -200 45 -200 45 -200 45
3513709918.3197 -4.0955973 -58.213806 -200 45 -200 45 -200 45
3514710035.0058 -4.0963702 -58.337242 -200 45 -200 45 -200 45
3515710151.6919 -4.0971928 -58.461079 -200 45 -200 45 -200 45
3516710268.3781 -4.0934496 -58.59737 -200 45 -200 45 -200 45
3517710385.0642 -4.0935302 -58.703518 -200 45 -200 45 -200 45
3518710501.7503 -4.0936561 -58.857067 -200 45 -200 45 -200 45
3519710618.4364 -4.0871625 -58.948849 -200 45 -200 45 -200 45
3520710735.1225 -4.085721 -59.092228 -200 45 -200 45 -200 45
3521710851.8086 -4.0827885 -59.20126 -200 45 -200 45 -200 45
3522710968.4947 -4.0718703 -59.286495 -200 45 -200 45 -200 45
3523711085.1809 -4.0646429 -59.400723 -200 45 -200 45 -200 45
3524711201.867 -4.0601683 -59.508789 -200 45 -200 45 -200 45
3525711318.5531 -4.0531487 -59.597317 -200 45 -200 45 -200 45
3526711435.2392 -4.0475216 -59.691879 -200 45 -200 45 -200 45
3527711551.9253 -4.0379853 -59.76445 -200 45 -200 45 -200 45
3528711668.6114 -4.029922 -59.829666 -200 45 -200 45 -200 45
3529711785.2975 -4.0222869 -59.902412 -200 45 -200 45 -200 45
3530711901.9837 -4.015595 -59.961407 -200 45 -200 45 -200 45
3531712018.6698 -4.0046635 -59.997974 -200 45 -200 45 -200 45
3532712135.3559 -3.9957752 -60.041878 -200 45 -200 45 -200 45
3533712252.042 -3.9888928 -60.064232 -200 45 -200 45 -200 45
3534712368.7281 -3.9795208 -60.090645 -200 45 -200 45 -200 45
3535712485.4142 -3.9723527 -60.110699 -200 45 -200 45 -200 45
3536712602.1004 -3.9619172 -60.135944 -200 45 -200 45 -200 45
3537712718.7865 -3.9533911 -60.133839 -200 45 -200 45 -200 45
3538712835.4726 -3.9468079 -60.123711 -200 45 -200 45 -200 45
3539712952.1587 -3.9352906 -60.111095 -200 45 -200 45 -200 45
3540713068.8448 -3.9316788 -60.077675 -200 45 -200 45 -200 45
3541713185.5309 -3.9262815 -60.04771 -200 45 -200 45 -200 45
3542713302.217 -3.9179387 -60.005753 -200 45 -200 45 -200 45
3543713418.9032 -3.9096529 -59.968113 -200 45 -200 45 -200 45
3544713535.5893 -3.905539 -59.904243 -200 45 -200 45 -200 45
3545713652.2754 -3.8998134 -59.827084 -200 45 -200 45 -200 45
3546713768.9615 -3.8945403 -59.777092 -200 45 -200 45 -200 45
3547713885.6476 -3.8939033 -59.686153 -200 45 -200 45 -200 45
3548714002.3337 -3.8913121 -59.610081 -200 45 -200 45 -200 45
3549714119.0198 -3.8901978 -59.544613 -200 45 -200 45 -200 45
3550714235.706 -3.8870852 -59.449825 -200 45 -200 45 -200 45
3551714352.3921 -3.8883142 -59.360226 -200 45 -200 45 -200 45
3552714469.0782 -3.8883181 -59.288261 -200 45 -200 45 -200 45
3553714585.7643 -3.8861887 -59.187668 -200 45 -200 45 -200 45
3554714702.4504 -3.8908353 -59.10173 -200 45 -200 45 -200 45
3555714819.1365 -3.8912899 -58.993607 -200 45 -200 45 -200 45
3556714935.8226 -3.8957942 -58.897419 -200 45 -200 45 -200 45
3557715052.5088 -3.90132 -58.796558 -200 45 -200 45 -200 45
3558715169.1949 -3.9049802 -58.697758 -200 45 -200 45 -200 45
3559715285.881 -3.9105835 -58.601494 -200 45 -200 45 -200 45
3560715402.5671 -3.9163649 -58.506512 -200 45 -200 45 -200 45
3561715519.2532 -3.9249465 -58.395309 -200 45 -200 45 -200 45
3562715635.9393 -3.9339356 -58.325199 -200 45 -200 45 -200 45
3563715752.6254 -3.9445095 -58.220631 -200 45 -200 45 -200 45
3564715869.3116 -3.9555302 -58.146404 -200 45 -200 45 -200 45
3565715985.9977 -3.9664438 -58.069839 -200 45 -200 45 -200 45
3566716102.6838 -3.9799962 -57.990627 -200 45 -200 45 -200 45
3567716219.3699 -3.9930799 -57.891148 -200 45 -200 45 -200 45
3568716336.056 -4.0055161 -57.83427 -200 45 -200 45 -200 45
3569716452.7421 -4.0224714 -57.75531 -200 45 -200 45 -200 45
3570716569.4282 -4.0386133 -57.708542 -200 45 -200 45 -200 45
3571716686.1144 -4.0553946 -57.666756 -200 45 -200 45 -200 45
3572716802.8005 -4.073895 -57.608044 -200 45 -200 45 -200 45
3573716919.4866 -4.0934229 -57.561207 -200 45 -200 45 -200 45
3574717036.1727 -4.1139832 -57.498512 -200 45 -200 45 -200 45
3575717152.8588 -4.1335435 -57.454262 -200 45 -200 45 -200 45
3576717269.5449 -4.1549039 -57.393929 -200 45 -200 45 -200 45
3577717386.231 -4.1735411 -57.354473 -200 45 -200 45 -200 45
3578717502.9172 -4.1943746 -57.314754 -200 45 -200 45 -200 45
3579717619.6033 -4.2117004 -57.279343 -200 45 -200 45 -200 45
3580717736.2894 -4.2318072 -57.245617 -200 45 -200 45 -200 45
3581717852.9755 -4.2519975 -57.220123 -200 45 -200 45 -200 45
3582717969.6616 -4.2718444 -57.189232 -200 45 -200 45 -200 45
3583718086.3477 -4.2917128 -57.151237 -200 45 -200 45 -200 45
3584718203.0338 -4.3115997 -57.146194 -200 45 -200 45 -200 45
3585718319.72 -4.330409 -57.117546 -200 45 -200 45 -200 45
3586718436.4061 -4.3501949 -57.093208 -200 45 -200 45 -200 45
3587718553.0922 -4.3715272 -57.063343 -200 45 -200 45 -200 45
3588718669.7783 -4.3928967 -57.006577 -200 45 -200 45 -200 45
3589718786.4644 -4.4099612 -56.926922 -200 45 -200 45 -200 45
3590718903.1505 -4.4247432 -56.791111 -200 45 -200 45 -200 45
3591719019.8366 -4.4302039 -56.662201 -200 45 -200 45 -200 45
3592719136.5228 -4.4347324 -56.515759 -200 45 -200 45 -200 45
3593719253.2089 -4.4287295 -56.388184 -200 45 -200 45 -200 45
3594719369.895 -4.4153128 -56.261742 -200 45 -200 45 -200 45
3595719486.5811 -4.3954015 -56.145412 -200 45 -200 45 -200 45
3596719603.2672 -4.3666267 -56.074795 -200 45 -200 45 -200 45
3597719719.9533 -4.3271947 -56.040733 -200 45 -200 45 -200 45
3598719836.6394 -4.2895327 -56.071293 -200 45 -200 45 -200 45
3599719953.3256 -4.2534699 -56.117748 -200 45 -200 45 -200 45
3600720070.0117 -4.2191081 -56.248207 -200 45 -200 45 -200 45
3601720186.6978 -4.1860523 -56.380322 -200 45 -200 45 -200 45
3602720303.3839 -4.1567144 -56.517925 -200 45 -200 45 -200 45
3603720420.07 -4.1279483 -56.658115 -200 45 -200 45 -200 45
3604720536.7561 -4.1006975 -56.801685 -200 45 -200 45 -200 45
3605720653.4422 -4.0763335 -56.937416 -200 45 -200 45 -200 45
3606720770.1284 -4.0485945 -57.068466 -200 45 -200 45 -200 45
3607720886.8145 -4.0190744 -57.210934 -200 45 -200 45 -200 45
3608721003.5006 -3.9934103 -57.324528 -200 45 -200 45 -200 45
3609721120.1867 -3.9609783 -57.451206 -200 45 -200 45 -200 45
3610721236.8728 -3.9310555 -57.609814 -200 45 -200 45 -200 45
3611721353.5589 -3.8993607 -57.759521 -200 45 -200 45 -200 45
3612721470.245 -3.8651707 -57.917572 -200 45 -200 45 -200 45
3613721586.9312 -3.8314872 -58.101627 -200 45 -200 45 -200 45
3614721703.6173 -3.8019657 -58.306656 -200 45 -200 45 -200 45
3615721820.3034 -3.7785656 -58.501125 -200 45 -200 45 -200 45
3616721936.9895 -3.7565458 -58.718071 -200 45 -200 45 -200 45
3617722053.6756 -3.7381647 -58.910191 -200 45 -200 45 -200 45
3618722170.3617 -3.72474 -59.092182 -200 45 -200 45 -200 45
3619722287.0478 -3.7143409 -59.247902 -200 45 -200 45 -200 45
3620722403.734 -3.7046077 -59.398487 -200 45 -200 45 -200 45
3621722520.4201 -3.6952341 -59.498241 -200 45 -200 45 -200 45
3622722637.1062 -3.6883755 -59.603645 -200 45 -200 45 -200 45
3623722753.7923 -3.6812959 -59.657562 -200 45 -200 45 -200 45
3624722870.4784 -3.6714919 -59.730934 -200 45 -200 45 -200 45
3625722987.1645 -3.6681349 -59.767509 -200 45 -200 45 -200 45
3626723103.8506 -3.6591077 -59.817513 -200 45 -200 45 -200 45
3627723220.5368 -3.6515527 -59.875343 -200 45 -200 45 -200 45
3628723337.2229 -3.6460068 -59.884865 -200 45 -200 45 -200 45
3629723453.909 -3.6417003 -59.932697 -200 45 -200 45 -200 45
3630723570.5951 -3.6423061 -59.933128 -200 45 -200 45 -200 45
3631723687.2812 -3.6416135 -59.940983 -200 45 -200 45 -200 45
3632723803.9673 -3.643899 -59.933109 -200 45 -200 45 -200 45
3633723920.6534 -3.648211 -59.905022 -200 45 -200 45 -200 45
3634724037.3396 -3.6496081 -59.852428 -200 45 -200 45 -200 45
3635724154.0257 -3.6542695 -59.812725 -200 45 -200 45 -200 45
3636724270.7118 -3.6580493 -59.771313 -200 45 -200 45 -200 45
3637724387.3979 -3.6642618 -59.713318 -200 45 -200 45 -200 45
3638724504.084 -3.6703637 -59.623508 -200 45 -200 45 -200 45
3639724620.7701 -3.6765411 -59.541832 -200 45 -200 45 -200 45
3640724737.4562 -3.6850407 -59.4408 -200 45 -200 45 -200 45
3641724854.1424 -3.6904843 -59.35302 -200 45 -200 45 -200 45
3642724970.8285 -3.6978121 -59.244003 -200 45 -200 45 -200 45
3643725087.5146 -3.7061977 -59.149643 -200 45 -200 45 -200 45
3644725204.2007 -3.7179527 -59.032478 -200 45 -200 45 -200 45
3645725320.8868 -3.7244108 -58.910862 -200 45 -200 45 -200 45
3646725437.5729 -3.7340977 -58.771408 -200 45 -200 45 -200 45
3647725554.259 -3.7389538 -58.662289 -200 45 -200 45 -200 45
3648725670.9452 -3.7438741 -58.531765 -200 45 -200 45 -200 45
3649725787.6313 -3.7498732 -58.400448 -200 45 -200 45 -200 45
3650725904.3174 -3.7491612 -58.300602 -200 45 -200 45 -200 45
3651726021.0035 -3.7520435 -58.197563 -200 45 -200 45 -200 45
3652726137.6896 -3.7511446 -58.109394 -200 45 -200 45 -200 45
3653726254.3757 -3.7535739 -58.053577 -200 45 -200 45 -200 45
3654726371.0618 -3.7567363 -58.019978 -200 45 -200 45 -200 45
3655726487.748 -3.7565796 -57.985546 -200 45 -200 45 -200 45
3656726604.4341 -3.7633009 -57.963909 -200 45 -200 45 -200 45
3657726721.1202 -3.7688951 -57.944149 -200 45 -200 45 -200 45
3658726837.8063 -3.7760413 -57.956821 -200 45 -200 45 -200 45
3659726954.4924 -3.7839181 -57.950596 -200 45 -200 45 -200 45
3660727071.1785 -3.794106 -57.963554 -200 45 -200 45 -200 45
3661727187.8646 -3.8023434 -57.962482 -200 45 -200 45 -200 45
3662727304.5508 -3.8092041 -57.989708 -200 45 -200 45 -200 45
3663727421.2369 -3.8174715 -58.020157 -200 45 -200 45 -200 45
3664727537.923 -3.8269572 -58.063248 -200 45 -200 45 -200 45
3665727654.6091 -3.8348401 -58.109585 -200 45 -200 45 -200 45
3666727771.2952 -3.8415906 -58.184361 -200 45 -200 45 -200 45
3667727887.9813 -3.847497 -58.252022 -200 45 -200 45 -200 45
3668728004.6674 -3.8566847 -58.344631 -200 45 -200 45 -200 45
3669728121.3536 -3.8649254 -58.439289 -200 45 -200 45 -200 45
3670728238.0397 -3.8717041 -58.56694 -200 45 -200 45 -200 45
3671728354.7258 -3.8803191 -58.676674 -200 45 -200 45 -200 45
3672728471.4119 -3.8926458 -58.780685 -200 45 -200 45 -200 45
3673728588.098 -3.899749 -58.907909 -200 45 -200 45 -200 45
3674728704.7841 -3.9057939 -59.010357 -200 45 -200 45 -200 45
3675728821.4702 -3.9158826 -59.142136 -200 45 -200 45 -200 45
3676728938.1564 -3.925509 -59.249489 -200 45 -200 45 -200 45
3677729054.8425 -3.9323308 -59.410114 -200 45 -200 45 -200 45
3678729171.5286 -3.9313622 -59.521881 -200 45 -200 45 -200 45
3679729288.2147 -3.9382515 -59.640385 -200 45 -200 45 -200 45
3680729404.9008 -3.9417443 -59.762386 -200 45 -200 45 -200 45
3681729521.5869 -3.943912 -59.906696 -200 45 -200 45 -200 45
3682729638.273 -3.9490688 -60.043564 -200 45 -200 45 -200 45
3683729754.9592 -3.9501464 -60.187656 -200 45 -200 45 -200 45
3684729871.6453 -3.9466875 -60.31118 -200 45 -200 45 -200 45
3685729988.3314 -3.9503894 -60.434826 -200 45 -200 45 -200 45
3686730105.0175 -3.9452903 -60.581055 -200 45 -200 45 -200 45
3687730221.7036 -3.9466875 -60.697475 -200 45 -200 45 -200 45
3688730338.3897 -3.9453399 -60.835049 -200 45 -200 45 -200 45
3689730455.0758 -3.9393325 -60.924175 -200 45 -200 45 -200 45
3690730571.762 -3.9362538 -61.058498 -200 45 -200 45 -200 45
3691730688.4481 -3.932677 -61.179356 -200 45 -200 45 -200 45
3692730805.1342 -3.9251988 -61.292171 -200 45 -200 45 -200 45
3693730921.8203 -3.9215534 -61.400677 -200 45 -200 45 -200 45
3694731038.5064 -3.9146779 -61.516087 -200 45 -200 45 -200 45
3695731155.1925 -3.9067051 -61.603035 -200 45 -200 45 -200 45
3696731271.8786 -3.8974416 -61.681068 -200 45 -200 45 -200 45
3697731388.5648 -3.8877945 -61.740982 -200 45 -200 45 -200 45
3698731505.2509 -3.8851216 -61.838894 -200 45 -200 45 -200 45
3699731621.937 -3.8725779 -61.887928 -200 45 -200 45 -200 45
3700731738.6231 -3.8629501 -61.940117 -200 45 -200 45 -200 45
3701731855.3092 -3.8554316 -61.981892 -200 45 -200 45 -200 45
3702731971.9953 -3.8491867 -62.016663 -200 45 -200 45 -200 45
3703732088.6814 -3.8409081 -62.062405 -200 45 -200 45 -200 45
3704732205.3676 -3.8306401 -62.074741 -200 45 -200 45 -200 45
3705732322.0537 -3.8256004 -62.102261 -200 45 -200 45 -200 45
3706732438.7398 -3.8150065 -62.095791 -200 45 -200 45 -200 45
3707732555.4259 -3.804925 -62.070377 -200 45 -200 45 -200 45
3708732672.112 -3.7985792 -62.066078 -200 45 -200 45 -200 45
3709732788.7981 -3.7893107 -62.055286 -200 45 -200 45 -200 45
3710732905.4842 -3.782937 -62.021904 -200 45 -200 45 -200 45
3711733022.1704 -3.7739246 -61.985062 -200 45 -200 45 -200 45
3712733138.8565 -3.7659011 -61.939873 -200 45 -200 45 -200 45
3713733255.5426 -3.7603097 -61.896198 -200 45 -200 45 -200 45
3714733372.2287 -3.7556086 -61.849564 -200 45 -200 45 -200 45
3715733488.9148 -3.7478645 -61.779724 -200 45 -200 45 -200 45
3716733605.6009 -3.7419915 -61.713825 -200 45 -200 45 -200 45
3717733722.287 -3.7392642 -61.650074 -200 45 -200 45 -200 45
3718733838.9732 -3.7349012 -61.572628 -200 45 -200 45 -200 45
3719733955.6593 -3.7309177 -61.481449 -200 45 -200 45 -200 45
3720734072.3454 -3.7302125 -61.415123 -200 45 -200 45 -200 45
3721734189.0315 -3.7307849 -61.333397 -200 45 -200 45 -200 45
3722734305.7176 -3.7264657 -61.241451 -200 45 -200 45 -200 45
3723734422.4037 -3.7278702 -61.154556 -200 45 -200 45 -200 45
3724734539.0898 -3.7284334 -61.059528 -200 45 -200 45 -200 45
3725734655.776 -3.7293766 -60.955746 -200 45 -200 45 -200 45
3726734772.4621 -3.7304146 -60.859962 -200 45 -200 45 -200 45
3727734889.1482 -3.7327662 -60.780605 -200 45 -200 45 -200 45
3728735005.8343 -3.7344148 -60.686817 -200 45 -200 45 -200 45
3729735122.5204 -3.7378922 -60.586018 -200 45 -200 45 -200 45
3730735239.2065 -3.7426462 -60.507828 -200 45 -200 45 -200 45
3731735355.8926 -3.7486143 -60.422115 -200 45 -200 45 -200 45
3732735472.5788 -3.7532952 -60.342995 -200 45 -200 45 -200 45
3733735589.2649 -3.7597315 -60.274078 -200 45 -200 45 -200 45
3734735705.951 -3.7653041 -60.187443 -200 45 -200 45 -200 45
3735735822.6371 -3.771965 -60.129406 -200 45 -200 45 -200 45
3736735939.3232 -3.7800786 -60.060654 -200 45 -200 45 -200 45
3737736056.0093 -3.7904725 -60.015198 -200 45 -200 45 -200 45
3738736172.6954 -3.7981107 -59.941715 -200 45 -200 45 -200 45
3739736289.3816 -3.8061445 -59.913074 -200 45 -200 45 -200 45
3740736406.0677 -3.8158858 -59.869129 -200 45 -200 45 -200 45
3741736522.7538 -3.8257306 -59.833805 -200 45 -200 45 -200 45
3742736639.4399 -3.8370359 -59.810253 -200 45 -200 45 -200 45
3743736756.126 -3.8464236 -59.786697 -200 45 -200 45 -200 45
3744736872.8121 -3.8554637 -59.787865 -200 45 -200 45 -200 45
3745736989.4983 -3.8654666 -59.782257 -200 45 -200 45 -200 45
3746737106.1844 -3.8759327 -59.784359 -200 45 -200 45 -200 45
3747737222.8705 -3.8874757 -59.807789 -200 45 -200 45 -200 45
3748737339.5566 -3.895597 -59.825047 -200 45 -200 45 -200 45
3749737456.2427 -3.9090629 -59.863186 -200 45 -200 45 -200 45
3750737572.9288 -3.9175787 -59.901539 -200 45 -200 45 -200 45
3751737689.6149 -3.9263251 -59.954601 -200 45 -200 45 -200 45
3752737806.3011 -3.937206 -59.993404 -200 45 -200 45 -200 45
3753737922.9872 -3.9467278 -60.074787 -200 45 -200 45 -200 45
3754738039.6733 -3.9564104 -60.146843 -200 45 -200 45 -200 45
3755738156.3594 -3.9668005 -60.224094 -200 45 -200 45 -200 45
3756738273.0455 -3.9734006 -60.30917 -200 45 -200 45 -200 45
3757738389.7316 -3.9823186 -60.387959 -200 45 -200 45 -200 45
3758738506.4177 -3.9872859 -60.494633 -200 45 -200 45 -200 45
3759738623.1039 -3.9931505 -60.599182 -200 45 -200 45 -200 45
3760738739.79 -3.9991541 -60.69009 -200 45 -200 45 -200 45
3761738856.4761 -4.0030136 -60.815842 -200 45 -200 45 -200 45
3762738973.1622 -4.0079274 -60.935745 -200 45 -200 45 -200 45
3763739089.8483 -4.0106416 -61.06588 -200 45 -200 45 -200 45
3764739206.5344 -4.0138092 -61.176155 -200 45 -200 45 -200 45
3765739323.2205 -4.0163779 -61.309513 -200 45 -200 45 -200 45
3766739439.9067 -4.0179853 -61.431274 -200 45 -200 45 -200 45
3767739556.5928 -4.0177302 -61.553802 -200 45 -200 45 -200 45
3768739673.2789 -4.0176477 -61.691021 -200 45 -200 45 -200 45
3769739789.965 -4.0179892 -61.827488 -200 45 -200 45 -200 45
3770739906.6511 -4.015429 -61.952507 -200 45 -200 45 -200 45
3771740023.3372 -4.0131917 -62.071312 -200 45 -200 45 -200 45
3772740140.0233 -4.0114436 -62.191059 -200 45 -200 45 -200 45
3773740256.7095 -4.0072484 -62.295071 -200 45 -200 45 -200 45
3774740373.3956 -3.9990563 -62.412045 -200 45 -200 45 -200 45
3775740490.0817 -3.9938848 -62.519173 -200 45 -200 45 -200 45
3776740606.7678 -3.9877923 -62.611088 -200 45 -200 45 -200 45
3777740723.4539 -3.9820001 -62.715954 -200 45 -200 45 -200 45
3778740840.14 -3.9763615 -62.814735 -200 45 -200 45 -200 45
3779740956.8261 -3.9652843 -62.916908 -200 45 -200 45 -200 45
3780741073.5123 -3.958535 -63.001774 -200 45 -200 45 -200 45
3781741190.1984 -3.9512177 -63.060646 -200 45 -200 45 -200 45
3782741306.8845 -3.9386277 -63.131916 -200 45 -200 45 -200 45
3783741423.5706 -3.9336655 -63.189583 -200 45 -200 45 -200 45
3784741540.2567 -3.924942 -63.251534 -200 45 -200 45 -200 45
3785741656.9428 -3.9144959 -63.288643 -200 45 -200 45 -200 45
3786741773.6289 -3.9059808 -63.327812 -200 45 -200 45 -200 45
3787741890.3151 -3.8947647 -63.36618 -200 45 -200 45 -200 45
3788742007.0012 -3.8854592 -63.383789 -200 45 -200 45 -200 45
3789742123.6873 -3.8781974 -63.366692 -200 45 -200 45 -200 45
3790742240.3734 -3.8663208 -63.382374 -200 45 -200 45 -200 45
3791742357.0595 -3.8593493 -63.380878 -200 45 -200 45 -200 45
3792742473.7456 -3.8478239 -63.365402 -200 45 -200 45 -200 45
3793742590.4317 -3.8393502 -63.352089 -200 45 -200 45 -200 45
3794742707.1179 -3.8319063 -63.312084 -200 45 -200 45 -200 45
3795742823.804 -3.8230555 -63.280563 -200 45 -200 45 -200 45
3796742940.4901 -3.8179963 -63.242165 -200 45 -200 45 -200 45
3797743057.1762 -3.8102775 -63.182617 -200 45 -200 45 -200 45
3798743173.8623 -3.8007245 -63.134682 -200 45 -200 45 -200 45
3799743290.5484 -3.7951019 -63.051353 -200 45 -200 45 -200 45
3800743407.2345 -3.7902539 -62.983524 -200 45 -200 45 -200 45
3801743523.9207 -3.7853553 -62.915257 -200 45 -200 45 -200 45
3802743640.6068 -3.7797594 -62.835072 -200 45 -200 45 -200 45
3803743757.2929 -3.7779412 -62.753284 -200 45 -200 45 -200 45
3804743873.979 -3.7756667 -62.662109 -200 45 -200 45 -200 45
3805743990.6651 -3.7702425 -62.567471 -200 45 -200 45 -200 45
3806744107.3512 -3.770412 -62.47971 -200 45 -200 45 -200 45
3807744224.0373 -3.7724588 -62.384655 -200 45 -200 45 -200 45
3808744340.7235 -3.7731664 -62.288239 -200 45 -200 45 -200 45
3809744457.4096 -3.7725258 -62.20396 -200 45 -200 45 -200 45
3810744574.0957 -3.7727833 -62.105103 -200 45 -200 45 -200 45
3811744690.7818 -3.7730343 -62.006908 -200 45 -200 45 -200 45
3812744807.4679 -3.7736995 -61.901562 -200 45 -200 45 -200 45
3813744924.154 -3.7778125 -61.800045 -200 45 -200 45 -200 45
3814745040.8401 -3.7830856 -61.719162 -200 45 -200 45 -200 45
3815745157.5263 -3.7874911 -61.617126 -200 45 -200 45 -200 45
3816745274.2124 -3.7941468 -61.542683 -200 45 -200 45 -200 45
3817745390.8985 -3.8003919 -61.468826 -200 45 -200 45 -200 45
3818745507.5846 -3.8059909 -61.382919 -200 45 -200 45 -200 45
3819745624.2707 -3.812803 -61.310818 -200 45 -200 45 -200 45
3820745740.9568 -3.8214386 -61.235073 -200 45 -200 45 -200 45
3821745857.6429 -3.829325 -61.162281 -200 45 -200 45 -200 45
3822745974.3291 -3.8392158 -61.103973 -200 45 -200 45 -200 45
3823746091.0152 -3.8478434 -61.078484 -200 45 -200 45 -200 45
3824746207.7013 -3.8551757 -61.032406 -200 45 -200 45 -200 45
3825746324.3874 -3.8672693 -60.973194 -200 45 -200 45 -200 45
3826746441.0735 -3.8759475 -60.958324 -200 45 -200 45 -200 45
3827746557.7596 -3.888031 -60.93082 -200 45 -200 45 -200 45
3828746674.4457 -3.8970253 -60.925499 -200 45 -200 45 -200 45
3829746791.1319 -3.9084208 -60.908112 -200 45 -200 45 -200 45
3830746907.818 -3.9182143 -60.920349 -200 45 -200 45 -200 45
3831747024.5041 -3.9293113 -60.916252 -200 45 -200 45 -200 45
3832747141.1902 -3.9417055 -60.942089 -200 45 -200 45 -200 45
3833747257.8763 -3.9516566 -60.990303 -200 45 -200 45 -200 45
3834747374.5624 -3.9601393 -61.014526 -200 45 -200 45 -200 45
3835747491.2485 -3.9717681 -61.052944 -200 45 -200 45 -200 45
3836747607.9347 -3.981986 -61.102291 -200 45 -200 45 -200 45
3837747724.6208 -3.9909723 -61.153854 -200 45 -200 45 -200 45
3838747841.3069 -3.9997258 -61.233116 -200 45 -200 45 -200 45
3839747957.993 -4.0096374 -61.296318 -200 45 -200 45 -200 45
3840748074.6791 -4.0180326 -61.384155 -200 45 -200 45 -200 45
3841748191.3652 -4.0270305 -61.489071 -200 45 -200 45 -200 45
3842748308.0513 -4.0340147 -61.57626 -200 45 -200 45 -200 45
3843748424.7375 -4.0429935 -61.676159 -200 45 -200 45 -200 45
3844748541.4236 -4.0490603 -61.787655 -200 45 -200 45 -200 45
3845748658.1097 -4.0540113 -61.918678 -200 45 -200 45 -200 45
3846748774.7958 -4.0556931 -62.051716 -200 45 -200 45 -200 45
3847748891.4819 -4.0600777 -62.162285 -200 45 -200 45 -200 45
3848749008.168 -4.0638824 -62.275734 -200 45 -200 45 -200 45
3849749124.8541 -4.0670776 -62.412384 -200 45 -200 45 -200 45
3850749241.5403 -4.0661497 -62.515221 -200 45 -200 45 -200 45
3851749358.2264 -4.0693474 -62.652508 -200 45 -200 45 -200 45
3852749474.9125 -4.068913 -62.789581 -200 45 -200 45 -200 45
3853749591.5986 -4.0669293 -62.927231 -200 45 -200 45 -200 45
3854749708.2847 -4.0657558 -63.052372 -200 45 -200 45 -200 45
3855749824.9708 -4.0657501 -63.180752 -200 45 -200 45 -200 45
3856749941.6569 -4.0586262 -63.312397 -200 45 -200 45 -200 45
3857750058.3431 -4.0578985 -63.425541 -200 45 -200 45 -200 45
3858750175.0292 -4.0536356 -63.544735 -200 45 -200 45 -200 45
3859750291.7153 -4.0463538 -63.662411 -200 45 -200 45 -200 45
3860750408.4014 -4.0407639 -63.779331 -200 45 -200 45 -200 45
3861750525.0875 -4.0318732 -63.886326 -200 45 -200 45 -200 45
3862750641.7736 -4.026309 -64.025101 -200 45 -200 45 -200 45
3863750758.4597 -4.0182467 -64.102104 -200 45 -200 45 -200 45
3864750875.1459 -4.0112138 -64.19976 -200 45 -200 45 -200 45
3865750991.832 -4.0021696 -64.28064 -200 45 -200 45 -200 45
3866751108.5181 -3.9978848 -64.351608 -200 45 -200 45 -200 45
3867751225.2042 -3.9857452 -64.429878 -200 45 -200 45 -200 45
3868751341.8903 -3.977339 -64.477913 -200 45 -200 45 -200 45
3869751458.5764 -3.9685035 -64.527962 -200 45 -200 45 -200 45
3870751575.2625 -3.9554901 -64.585205 -200 45 -200 45 -200 45
3871751691.9487 -3.9478524 -64.615555 -200 45 -200 45 -200 45
3872751808.6348 -3.9384685 -64.636574 -200 45 -200 45 -200 45
3873751925.3209 -3.9281194 -64.670082 -200 45 -200 45 -200 45
3874752042.007 -3.9188311 -64.6716 -200 45 -200 45 -200 45
3875752158.6931 -3.9119847 -64.654106 -200 45 -200 45 -200 45
3876752275.3792 -3.8990347 -64.65995 -200 45 -200 45 -200 45
3877752392.0653 -3.8868361 -64.638611 -200 45 -200 45 -200 45
3878752508.7515 -3.8799095 -64.594681 -200 45 -200 45 -200 45
3879752625.4376 -3.8685913 -64.579544 -200 45 -200 45 -200 45
3880752742.1237 -3.863029 -64.519852 -200 45 -200 45 -200 45
3881752858.8098 -3.8569577 -64.494919 -200 45 -200 45 -200 45
3882752975.4959 -3.8475666 -64.407806 -200 45 -200 45 -200 45
3883753092.182 -3.8456275 -64.365036 -200 45 -200 45 -200 45
3884753208.8681 -3.836978 -64.26268 -200 45 -200 45 -200 45
3885753325.5543 -3.8338277 -64.217026 -200 45 -200 45 -200 45
3886753442.2404 -3.8290923 -64.131638 -200 45 -200 45 -200 45
3887753558.9265 -3.823489 -64.049637 -200 45 -200 45 -200 45
3888753675.6126 -3.818002 -63.967304 -200 45 -200 45 -200 45
3889753792.2987 -3.8176761 -63.874928 -200 45 -200 45 -200 45
3890753908.9848 -3.812351 -63.770458 -200 45 -200 45 -200 45
3891754025.6709 -3.8136306 -63.682697 -200 45 -200 45 -200 45
3892754142.3571 -3.812794 -63.581207 -200 45 -200 45 -200 45
3893754259.0432 -3.811862 -63.464802 -200 45 -200 45 -200 45
3894754375.7293 -3.8119626 -63.368023 -200 45 -200 45 -200 45
3895754492.4154 -3.8153732 -63.253105 -200 45 -200 45 -200 45
3896754609.1015 -3.8171656 -63.161507 -200 45 -200 45 -200 45
3897754725.7876 -3.8212626 -63.055756 -200 45 -200 45 -200 45
3898754842.4737 -3.8261993 -62.970863 -200 45 -200 45 -200 45
3899754959.1599 -3.8310864 -62.851707 -200 45 -200 45 -200 45
3900755075.846 -3.8356442 -62.766026 -200 45 -200 45 -200 45
3901755192.5321 -3.8431783 -62.674198 -200 45 -200 45 -200 45
3902755309.2182 -3.8500819 -62.60677 -200 45 -200 45 -200 45
3903755425.9043 -3.8562384 -62.515232 -200 45 -200 45 -200 45
3904755542.5904 -3.8652141 -62.436428 -200 45 -200 45 -200 45
3905755659.2765 -3.872803 -62.360924 -200 45 -200 45 -200 45
3906755775.9627 -3.8820782 -62.275269 -200 45 -200 45 -200 45
3907755892.6488 -3.8935044 -62.217285 -200 45 -200 45 -200 45
3908756009.3349 -3.9030144 -62.177208 -200 45 -200 45 -200 45
3909756126.021 -3.9115877 -62.110661 -200 45 -200 45 -200 45
3910756242.7071 -3.9231508 -62.057201 -200 45 -200 45 -200 45
3911756359.3932 -3.9335217 -62.025612 -200 45 -200 45 -200 45
3912756476.0793 -3.9451132 -62.002865 -200 45 -200 45 -200 45
3913756592.7655 -3.9561896 -61.977272 -200 45 -200 45 -200 45
3914756709.4516 -3.9704432 -61.963558 -200 45 -200 45 -200 45
3915756826.1377 -3.9823368 -61.985435 -200 45 -200 45 -200 45
3916756942.8238 -3.9952669 -61.970299 -200 45 -200 45 -200 45
3917757059.5099 -4.0101695 -62.000858 -200 45 -200 45 -200 45
3918757176.196 -4.02349 -62.015453 -200 45 -200 45 -200 45
3919757292.8821 -4.0341039 -62.048546 -200 45 -200 45 -200 45
3920757409.5683 -4.0486507 -62.052391 -200 45 -200 45 -200 45
3921757526.2544 -4.0616574 -62.114098 -200 45 -200 45 -200 45
3922757642.9405 -4.0734735 -62.137325 -200 45 -200 45 -200 45
3923757759.6266 -4.0829201 -62.149895 -200 45 -200 45 -200 45
3924757876.3127 -4.0912962 -62.205982 -200 45 -200 45 -200 45
3925757992.9988 -4.0996318 -62.242126 -200 45 -200 45 -200 45
3926758109.6849 -4.1027174 -62.299911 -200 45 -200 45 -200 45
3927758226.3711 -4.1030593 -62.39196 -200 45 -200 45 -200 45
3928758343.0572 -4.104723 -62.508888 -200 45 -200 45 -200 45
3929758459.7433 -4.1036334 -62.616421 -200 45 -200 45 -200 45
3930758576.4294 -4.1058741 -62.753197 -200 45 -200 45 -200 45
3931758693.1155 -4.1081066 -62.900047 -200 45 -200 45 -200 45
3932758809.8016 -4.1116304 -63.039143 -200 45 -200 45 -200 45
3933758926.4877 -4.1154542 -63.2089 -200 45 -200 45 -200 45
3934759043.1739 -4.1150155 -63.33567 -200 45 -200 45 -200 45
3935759159.86 -4.1198978 -63.500912 -200 45 -200 45 -200 45
3936759276.5461 -4.1187077 -63.637222 -200 45 -200 45 -200 45
3937759393.2322 -4.1197152 -63.783161 -200 45 -200 45 -200 45
3938759509.9183 -4.1174469 -63.938358 -200 45 -200 45 -200 45
3939759626.6044 -4.1131816 -64.078072 -200 45 -200 45 -200 45
3940759743.2905 -4.1134996 -64.225967 -200 45 -200 45 -200 45
3941759859.9767 -4.1096263 -64.36982 -200 45 -200 45 -200 45
3942759976.6628 -4.107389 -64.475426 -200 45 -200 45 -200 45
3943760093.3489 -4.1017327 -64.614349 -200 45 -200 45 -200 45
3944760210.035 -4.0983901 -64.744194 -200 45 -200 45 -200 45
3945760326.7211 -4.0899386 -64.879036 -200 45 -200 45 -200 45
3946760443.4072 -4.0841393 -65.000175 -200 45 -200 45 -200 45
3947760560.0933 -4.0789957 -65.10994 -200 45 -200 45 -200 45
3948760676.7795 -4.0723448 -65.200882 -200 45 -200 45 -200 45
3949760793.4656 -4.0682435 -65.313148 -200 45 -200 45 -200 45
3950760910.1517 -4.0576086 -65.382362 -200 45 -200 45 -200 45
3951761026.8378 -4.0520945 -65.471489 -200 45 -200 45 -200 45
3952761143.5239 -4.041532 -65.556274 -200 45 -200 45 -200 45
3953761260.21 -4.0330687 -65.595337 -200 45 -200 45 -200 45
3954761376.8961 -4.0235562 -65.640694 -200 45 -200 45 -200 45
3955761493.5823 -4.015224 -65.695663 -200 45 -200 45 -200 45
3956761610.2684 -4.0072384 -65.758408 -200 45 -200 45 -200 45
3957761726.9545 -4.000618 -65.775047 -200 45 -200 45 -200 45
3958761843.6406 -3.9901636 -65.789864 -200 45 -200 45 -200 45
3959761960.3267 -3.979634 -65.820755 -200 45 -200 45 -200 45
3960762077.0128 -3.9737816 -65.806633 -200 45 -200 45 -200 45
3961762193.6989 -3.9646533 -65.79673 -200 45 -200 45 -200 45
3962762310.3851 -3.9558399 -65.776344 -200 45 -200 45 -200 45
3963762427.0712 -3.9493809 -65.75457 -200 45 -200 45 -200 45
3964762543.7573 -3.9440055 -65.713776 -200 45 -200 45 -200 45
3965762660.4434 -3.9365799 -65.681541 -200 45 -200 45 -200 45
3966762777.1295 -3.9315331 -65.635544 -200 45 -200 45 -200 45
3967762893.8156 -3.9262664 -65.566704 -200 45 -200 45 -200 45
3968763010.5018 -3.9221447 -65.52874 -200 45 -200 45 -200 45
3969763127.1879 -3.9189498 -65.454185 -200 45 -200 45 -200 45
3970763243.874 -3.9153905 -65.384064 -200 45 -200 45 -200 45
3971763360.5601 -3.9158835 -65.299698 -200 45 -200 45 -200 45
3972763477.2462 -3.915741 -65.237442 -200 45 -200 45 -200 45
3973763593.9323 -3.9126315 -65.119667 -200 45 -200 45 -200 45
3974763710.6184 -3.918679 -65.037979 -200 45 -200 45 -200 45
3975763827.3046 -3.9195826 -64.916565 -200 45 -200 45 -200 45
3976763943.9907 -3.9223387 -64.796936 -200 45 -200 45 -200 45
3977764060.6768 -3.9271932 -64.705811 -200 45 -200 45 -200 45
3978764177.3629 -3.9330857 -64.581261 -200 45 -200 45 -200 45
3979764294.049 -3.9418762 -64.45771 -200 45 -200 45 -200 45
3980764410.7351 -3.9508305 -64.325287 -200 45 -200 45 -200 45
3981764527.4212 -3.9623454 -64.211472 -200 45 -200 45 -200 45
3982764644.1074 -3.9767563 -64.061249 -200 45 -200 45 -200 45
3983764760.7935 -3.9860764 -63.905006 -200 45 -200 45 -200 45
3984764877.4796 -4.0021348 -63.742264 -200 45 -200 45 -200 45
3985764994.1657 -4.0145359 -63.569206 -200 45 -200 45 -200 45
3986765110.8518 -4.0279551 -63.367496 -200 45 -200 45 -200 45
3987765227.5379 -4.0427661 -63.185589 -200 45 -200 45 -200 45
3988765344.224 -4.0547686 -62.956184 -200 45 -200 45 -200 45
3989765460.9102 -4.064239 -62.720486 -200 45 -200 45 -200 45
3990765577.5963 -4.0689631 -62.48904 -200 45 -200 45 -200 45
3991765694.2824 -4.0678186 -62.266109 -200 45 -200 45 -200 45
3992765810.9685 -4.0655966 -62.053867 -200 45 -200 45 -200 45
3993765927.6546 -4.0565667 -61.87875 -200 45 -200 45 -200 45
3994766044.3407 -4.0442109 -61.729912 -200 45 -200 45 -200 45
3995766161.0268 -4.0310588 -61.615295 -200 45 -200 45 -200 45
3996766277.713 -4.0192099 -61.556973 -200 45 -200 45 -200 45
3997766394.3991 -4.0112567 -61.522205 -200 45 -200 45 -200 45
3998766511.0852 -3.9991372 -61.51564 -200 45 -200 45 -200 45
3999766627.7713 -3.9970555 -61.537991 -200 45 -200 45 -200 45
4000766744.4574 -3.9937298 -61.582161 -200 45 -200 45 -200 45
4001766861.1435 -3.9952812 -61.629856 -200 45 -200 45 -200 45
4002766977.8296 -3.9981713 -61.689598 -200 45 -200 45 -200 45
4003767094.5158 -4.0020876 -61.73653 -200 45 -200 45 -200 45
4004767211.2019 -4.0036345 -61.799923 -200 45 -200 45 -200 45
4005767327.888 -4.0090871 -61.866749 -200 45 -200 45 -200 45
4006767444.5741 -4.010386 -61.923664 -200 45 -200 45 -200 45
4007767561.2602 -4.0147324 -61.991974 -200 45 -200 45 -200 45
4008767677.9463 -4.0125446 -62.084038 -200 45 -200 45 -200 45
4009767794.6324 -4.0134211 -62.192547 -200 45 -200 45 -200 45
4010767911.3186 -4.0151577 -62.294746 -200 45 -200 45 -200 45
4011768028.0047 -4.0143671 -62.437943 -200 45 -200 45 -200 45
4012768144.6908 -4.0158086 -62.566631 -200 45 -200 45 -200 45
4013768261.3769 -4.0123463 -62.689724 -200 45 -200 45 -200 45
4014768378.063 -4.0123854 -62.847923 -200 45 -200 45 -200 45
4015768494.7491 -4.0082259 -62.989151 -200 45 -200 45 -200 45
4016768611.4352 -4.0056643 -63.159046 -200 45 -200 45 -200 45
4017768728.1214 -4.0019526 -63.344822 -200 45 -200 45 -200 45
4018768844.8075 -4.0001445 -63.545273 -200 45 -200 45 -200 45
4019768961.4936 -3.9964366 -63.71365 -200 45 -200 45 -200 45
4020769078.1797 -3.9969373 -63.939465 -200 45 -200 45 -200 45
4021769194.8658 -3.9946289 -64.131569 -200 45 -200 45 -200 45
4022769311.5519 -3.9936559 -64.323677 -200 45 -200 45 -200 45
4023769428.238 -3.9943604 -64.519119 -200 45 -200 45 -200 45
4024769544.9242 -3.9900863 -64.713799 -200 45 -200 45 -200 45
4025769661.6103 -3.9884284 -64.895287 -200 45 -200 45 -200 45
4026769778.2964 -3.9881427 -65.0634 -200 45 -200 45 -200 45
4027769894.9825 -3.9866364 -65.237785 -200 45 -200 45 -200 45
4028770011.6686 -3.9852841 -65.389542 -200 45 -200 45 -200 45
4029770128.3547 -3.9779692 -65.524658 -200 45 -200 45 -200 45
4030770245.0408 -3.9763319 -65.658791 -200 45 -200 45 -200 45
4031770361.727 -3.9727204 -65.79451 -200 45 -200 45 -200 45
4032770478.4131 -3.9652359 -65.900185 -200 45 -200 45 -200 45
4033770595.0992 -3.9569149 -66.055656 -200 45 -200 45 -200 45
4034770711.7853 -3.955461 -66.173065 -200 45 -200 45 -200 45
4035770828.4714 -3.9474754 -66.232208 -200 45 -200 45 -200 45
4036770945.1575 -3.9434502 -66.354088 -200 45 -200 45 -200 45
4037771061.8436 -3.9320829 -66.417282 -200 45 -200 45 -200 45
4038771178.5298 -3.9257042 -66.480141 -200 45 -200 45 -200 45
4039771295.2159 -3.9178896 -66.557701 -200 45 -200 45 -200 45
4040771411.902 -3.9099576 -66.56546 -200 45 -200 45 -200 45
4041771528.5881 -3.8960996 -66.606316 -200 45 -200 45 -200 45
4042771645.2742 -3.8916955 -66.636383 -200 45 -200 45 -200 45
4043771761.9603 -3.8819966 -66.658218 -200 45 -200 45 -200 45
4044771878.6464 -3.8723483 -66.673615 -200 45 -200 45 -200 45
4045771995.3326 -3.8667407 -66.665733 -200 45 -200 45 -200 45
4046772112.0187 -3.8576715 -66.656975 -200 45 -200 45 -200 45
4047772228.7048 -3.8494692 -66.625549 -200 45 -200 45 -200 45
4048772345.3909 -3.8425145 -66.617027 -200 45 -200 45 -200 45
4049772462.077 -3.8334136 -66.587242 -200 45 -200 45 -200 45
4050772578.7631 -3.8269246 -66.51429 -200 45 -200 45 -200 45
4051772695.4492 -3.8201458 -66.479362 -200 45 -200 45 -200 45
4052772812.1354 -3.8142736 -66.412239 -200 45 -200 45 -200 45
4053772928.8215 -3.8087177 -66.343063 -200 45 -200 45 -200 45
4054773045.5076 -3.8040135 -66.295296 -200 45 -200 45 -200 45
4055773162.1937 -3.7987468 -66.215233 -200 45 -200 45 -200 45
4056773278.8798 -3.7936172 -66.136253 -200 45 -200 45 -200 45
4057773395.5659 -3.7901452 -66.050079 -200 45 -200 45 -200 45
4058773512.252 -3.7868485 -65.942772 -200 45 -200 45 -200 45
4059773628.9382 -3.7881792 -65.855415 -200 45 -200 45 -200 45
4060773745.6243 -3.7884099 -65.760765 -200 45 -200 45 -200 45
4061773862.3104 -3.7895851 -65.657051 -200 45 -200 45 -200 45
4062773978.9965 -3.7878361 -65.548012 -200 45 -200 45 -200 45
4063774095.6826 -3.789083 -65.476089 -200 45 -200 45 -200 45
4064774212.3687 -3.7930868 -65.366409 -200 45 -200 45 -200 45
4065774329.0548 -3.7927036 -65.258194 -200 45 -200 45 -200 45
4066774445.741 -3.7986302 -65.159058 -200 45 -200 45 -200 45
4067774562.4271 -3.8012996 -65.058533 -200 45 -200 45 -200 45
4068774679.1132 -3.8075829 -64.971825 -200 45 -200 45 -200 45
4069774795.7993 -3.8102167 -64.863289 -200 45 -200 45 -200 45
4070774912.4854 -3.8161299 -64.777184 -200 45 -200 45 -200 45
4071775029.1715 -3.8220277 -64.678864 -200 45 -200 45 -200 45
4072775145.8576 -3.8319948 -64.577995 -200 45 -200 45 -200 45
4073775262.5438 -3.8370769 -64.496521 -200 45 -200 45 -200 45
4074775379.2299 -3.845247 -64.44516 -200 45 -200 45 -200 45
4075775495.916 -3.8558288 -64.364265 -200 45 -200 45 -200 45
4076775612.6021 -3.8653674 -64.278656 -200 45 -200 45 -200 45
4077775729.2882 -3.8799434 -64.252426 -200 45 -200 45 -200 45
4078775845.9743 -3.8886337 -64.215187 -200 45 -200 45 -200 45
4079775962.6604 -3.9007599 -64.156105 -200 45 -200 45 -200 45
4080776079.3466 -3.9121823 -64.130684 -200 45 -200 45 -200 45
4081776196.0327 -3.9218273 -64.109528 -200 45 -200 45 -200 45
4082776312.7188 -3.9316504 -64.080811 -200 45 -200 45 -200 45
4083776429.4049 -3.9433692 -64.085785 -200 45 -200 45 -200 45
4084776546.091 -3.9562714 -64.084763 -200 45 -200 45 -200 45
4085776662.7771 -3.9694169 -64.092949 -200 45 -200 45 -200 45
4086776779.4632 -3.9825861 -64.126656 -200 45 -200 45 -200 45
4087776896.1494 -3.9953527 -64.149498 -200 45 -200 45 -200 45
4088777012.8355 -4.0055847 -64.199211 -200 45 -200 45 -200 45
4089777129.5216 -4.0180464 -64.238724 -200 45 -200 45 -200 45
4090777246.2077 -4.0278082 -64.287247 -200 45 -200 45 -200 45
4091777362.8938 -4.039474 -64.348076 -200 45 -200 45 -200 45
4092777479.5799 -4.0537033 -64.428513 -200 45 -200 45 -200 45
4093777596.266 -4.0600858 -64.511932 -200 45 -200 45 -200 45
4094777712.9522 -4.0735331 -64.603081 -200 45 -200 45 -200 45
4095777829.6383 -4.0823355 -64.703438 -200 45 -200 45 -200 45
4096777946.3244 -4.089951 -64.819695 -200 45 -200 45 -200 45
4097778063.0105 -4.1010675 -64.918503 -200 45 -200 45 -200 45
4098778179.6966 -4.1043139 -65.043282 -200 45 -200 45 -200 45
4099778296.3827 -4.1151466 -65.149422 -200 45 -200 45 -200 45
4100778413.0688 -4.1207681 -65.281364 -200 45 -200 45 -200 45
4101778529.755 -4.1230321 -65.417747 -200 45 -200 45 -200 45
4102778646.4411 -4.1270142 -65.556503 -200 45 -200 45 -200 45
4103778763.1272 -4.1341057 -65.724548 -200 45 -200 45 -200 45
4104778879.8133 -4.140954 -65.880859 -200 45 -200 45 -200 45
4105778996.4994 -4.1404319 -65.990967 -200 45 -200 45 -200 45
4106779113.1855 -4.1424909 -66.14843 -200 45 -200 45 -200 45
4107779229.8716 -4.1421142 -66.282021 -200 45 -200 45 -200 45
4108779346.5578 -4.1425657 -66.417259 -200 45 -200 45 -200 45
4109779463.2439 -4.1407599 -66.552353 -200 45 -200 45 -200 45
4110779579.93 -4.1397128 -66.690491 -200 45 -200 45 -200 45
4111779696.6161 -4.1337132 -66.833565 -200 45 -200 45 -200 45
4112779813.3022 -4.1339288 -66.957024 -200 45 -200 45 -200 45
4113779929.9883 -4.1266985 -67.070396 -200 45 -200 45 -200 45
4114780046.6744 -4.1232548 -67.205261 -200 45 -200 45 -200 45
4115780163.3606 -4.1185617 -67.320404 -200 45 -200 45 -200 45
4116780280.0467 -4.111475 -67.424278 -200 45 -200 45 -200 45
4117780396.7328 -4.1037731 -67.527687 -200 45 -200 45 -200 45
4118780513.4189 -4.0978599 -67.608498 -200 45 -200 45 -200 45
4119780630.105 -4.0915589 -67.690346 -200 45 -200 45 -200 45
4120780746.7911 -4.0834575 -67.770851 -200 45 -200 45 -200 45
4121780863.4772 -4.078681 -67.834702 -200 45 -200 45 -200 45
4122780980.1634 -4.0709958 -67.860847 -200 45 -200 45 -200 45
4123781096.8495 -4.0599771 -67.935791 -200 45 -200 45 -200 45
4124781213.5356 -4.0518098 -67.960205 -200 45 -200 45 -200 45
4125781330.2217 -4.0444145 -67.975288 -200 45 -200 45 -200 45
4126781446.9078 -4.0351672 -67.989189 -200 45 -200 45 -200 45
4127781563.5939 -4.0280104 -67.983177 -200 45 -200 45 -200 45
4128781680.28 -4.0191283 -67.982063 -200 45 -200 45 -200 45
4129781796.9662 -4.0130229 -67.964417 -200 45 -200 45 -200 45
4130781913.6523 -4.0067754 -67.924179 -200 45 -200 45 -200 45
4131782030.3384 -3.9988613 -67.862556 -200 45 -200 45 -200 45
4132782147.0245 -3.9930522 -67.808823 -200 45 -200 45 -200 45
4133782263.7106 -3.9890144 -67.737572 -200 45 -200 45 -200 45
4134782380.3967 -3.9816639 -67.645638 -200 45 -200 45 -200 45
4135782497.0828 -3.9755456 -67.518906 -200 45 -200 45 -200 45
4136782613.769 -3.9700067 -67.405807 -200 45 -200 45 -200 45
4137782730.4551 -3.9625199 -67.3088 -200 45 -200 45 -200 45
4138782847.1412 -3.9567249 -67.144646 -200 45 -200 45 -200 45
4139782963.8273 -3.9503713 -67.010002 -200 45 -200 45 -200 45
4140783080.5134 -3.9404531 -66.836418 -200 45 -200 45 -200 45
4141783197.1995 -3.9312866 -66.67939 -200 45 -200 45 -200 45
4142783313.8856 -3.9203529 -66.538994 -200 45 -200 45 -200 45
4143783430.5718 -3.9112077 -66.394562 -200 45 -200 45 -200 45
4144783547.2579 -3.8980992 -66.24559 -200 45 -200 45 -200 45
4145783663.944 -3.8892324 -66.103325 -200 45 -200 45 -200 45
4146783780.6301 -3.879776 -65.976799 -200 45 -200 45 -200 45
4147783897.3162 -3.8715951 -65.848785 -200 45 -200 45 -200 45
4148784014.0023 -3.861902 -65.711105 -200 45 -200 45 -200 45
4149784130.6884 -3.8586452 -65.596771 -200 45 -200 45 -200 45
4150784247.3746 -3.8519096 -65.482681 -200 45 -200 45 -200 45
4151784364.0607 -3.8457248 -65.385315 -200 45 -200 45 -200 45
4152784480.7468 -3.8432977 -65.286438 -200 45 -200 45 -200 45
4153784597.4329 -3.8435194 -65.213196 -200 45 -200 45 -200 45
4154784714.119 -3.8415499 -65.120071 -200 45 -200 45 -200 45
4155784830.8051 -3.8465319 -65.058861 -200 45 -200 45 -200 45
4156784947.4912 -3.8492668 -64.97036 -200 45 -200 45 -200 45
4157785064.1774 -3.8504832 -64.889503 -200 45 -200 45 -200 45
4158785180.8635 -3.8559043 -64.79818 -200 45 -200 45 -200 45
4159785297.5496 -3.85887 -64.714363 -200 45 -200 45 -200 45
4160785414.2357 -3.8672369 -64.670647 -200 45 -200 45 -200 45
4161785530.9218 -3.8716826 -64.625198 -200 45 -200 45 -200 45
4162785647.6079 -3.8821878 -64.571976 -200 45 -200 45 -200 45
4163785764.294 -3.8882244 -64.52195 -200 45 -200 45 -200 45
4164785880.9802 -3.8974948 -64.49453 -200 45 -200 45 -200 45
4165785997.6663 -3.9052782 -64.483269 -200 45 -200 45 -200 45
4166786114.3524 -3.9136198 -64.467194 -200 45 -200 45 -200 45
4167786231.0385 -3.9232302 -64.467957 -200 45 -200 45 -200 45
4168786347.7246 -3.9328251 -64.469627 -200 45 -200 45 -200 45
4169786464.4107 -3.9420097 -64.491676 -200 45 -200 45 -200 45
4170786581.0968 -3.9540596 -64.538895 -200 45 -200 45 -200 45
4171786697.783 -3.9624987 -64.598663 -200 45 -200 45 -200 45
4172786814.4691 -3.9727309 -64.623039 -200 45 -200 45 -200 45
4173786931.1552 -3.9855118 -64.677162 -200 45 -200 45 -200 45
4174787047.8413 -3.9985199 -64.756485 -200 45 -200 45 -200 45
4175787164.5274 -4.0062022 -64.798569 -200 45 -200 45 -200 45
4176787281.2135 -4.0172114 -64.912415 -200 45 -200 45 -200 45
4177787397.8997 -4.030036 -65.008865 -200 45 -200 45 -200 45
4178787514.5858 -4.0373716 -65.084618 -200 45 -200 45 -200 45
4179787631.2719 -4.0399456 -65.207161 -200 45 -200 45 -200 45
4180787747.958 -4.0462804 -65.29834 -200 45 -200 45 -200 45
4181787864.6441 -4.0538135 -65.407135 -200 45 -200 45 -200 45
4182787981.3302 -4.0552006 -65.538872 -200 45 -200 45 -200 45
4183788098.0163 -4.0633192 -65.69619 -200 45 -200 45 -200 45
4184788214.7025 -4.0627179 -65.832497 -200 45 -200 45 -200 45
4185788331.3886 -4.0691304 -65.97831 -200 45 -200 45 -200 45
4186788448.0747 -4.0706654 -66.133904 -200 45 -200 45 -200 45
4187788564.7608 -4.074966 -66.302597 -200 45 -200 45 -200 45
4188788681.4469 -4.0731206 -66.460243 -200 45 -200 45 -200 45
4189788798.133 -4.078135 -66.638 -200 45 -200 45 -200 45
4190788914.8191 -4.0794296 -66.809586 -200 45 -200 45 -200 45
4191789031.5053 -4.0796227 -66.972237 -200 45 -200 45 -200 45
4192789148.1914 -4.0769372 -67.156403 -200 45 -200 45 -200 45
4193789264.8775 -4.0743852 -67.297691 -200 45 -200 45 -200 45
4194789381.5636 -4.0717602 -67.447052 -200 45 -200 45 -200 45
4195789498.2497 -4.0694451 -67.622696 -200 45 -200 45 -200 45
4196789614.9358 -4.0670357 -67.766655 -200 45 -200 45 -200 45
4197789731.6219 -4.0596342 -67.903679 -200 45 -200 45 -200 45
4198789848.3081 -4.0564146 -68.042351 -200 45 -200 45 -200 45
4199789964.9942 -4.0514469 -68.156441 -200 45 -200 45 -200 45
4200790081.6803 -4.0424528 -68.298294 -200 45 -200 45 -200 45
4201790198.3664 -4.0356035 -68.418159 -200 45 -200 45 -200 45
4202790315.0525 -4.0242739 -68.496208 -200 45 -200 45 -200 45
4203790431.7386 -4.0192757 -68.607765 -200 45 -200 45 -200 45
4204790548.4247 -4.0126996 -68.723106 -200 45 -200 45 -200 45
4205790665.1109 -4.0005565 -68.792389 -200 45 -200 45 -200 45
4206790781.797 -3.9899454 -68.866531 -200 45 -200 45 -200 45
4207790898.4831 -3.9798152 -68.918327 -200 45 -200 45 -200 45
4208791015.1692 -3.9703698 -68.975227 -200 45 -200 45 -200 45
4209791131.8553 -3.9634445 -69.005806 -200 45 -200 45 -200 45
4210791248.5414 -3.9486396 -69.06263 -200 45 -200 45 -200 45
4211791365.2275 -3.9384227 -69.06591 -200 45 -200 45 -200 45
4212791481.9137 -3.9263232 -69.081009 -200 45 -200 45 -200 45
4213791598.5998 -3.9175291 -69.107506 -200 45 -200 45 -200 45
4214791715.2859 -3.9073386 -69.081322 -200 45 -200 45 -200 45
4215791831.972 -3.8969767 -69.052956 -200 45 -200 45 -200 45
4216791948.6581 -3.8890672 -69.021408 -200 45 -200 45 -200 45
4217792065.3442 -3.8808594 -68.978004 -200 45 -200 45 -200 45
4218792182.0303 -3.8692126 -68.95295 -200 45 -200 45 -200 45
4219792298.7165 -3.861773 -68.893379 -200 45 -200 45 -200 45
4220792415.4026 -3.8516276 -68.820877 -200 45 -200 45 -200 45
4221792532.0887 -3.8425901 -68.769417 -200 45 -200 45 -200 45
4222792648.7748 -3.8366673 -68.675301 -200 45 -200 45 -200 45
4223792765.4609 -3.8298552 -68.584915 -200 45 -200 45 -200 45
4224792882.147 -3.822087 -68.499451 -200 45 -200 45 -200 45
4225792998.8331 -3.8192241 -68.408974 -200 45 -200 45 -200 45
4226793115.5193 -3.8173277 -68.296654 -200 45 -200 45 -200 45
4227793232.2054 -3.8110905 -68.194138 -200 45 -200 45 -200 45
4228793348.8915 -3.8063517 -68.083488 -200 45 -200 45 -200 45
4229793465.5776 -3.8039534 -67.970741 -200 45 -200 45 -200 45
4230793582.2637 -3.8005667 -67.843544 -200 45 -200 45 -200 45
4231793698.9498 -3.8009875 -67.744606 -200 45 -200 45 -200 45
4232793815.6359 -3.803864 -67.632393 -200 45 -200 45 -200 45
4233793932.3221 -3.8055632 -67.478447 -200 45 -200 45 -200 45
4234794049.0082 -3.8051479 -67.368004 -200 45 -200 45 -200 45
4235794165.6943 -3.8083887 -67.240852 -200 45 -200 45 -200 45
4236794282.3804 -3.8078034 -67.137451 -200 45 -200 45 -200 45
4237794399.0665 -3.8154144 -67.02916 -200 45 -200 45 -200 45
4238794515.7526 -3.8208084 -66.922867 -200 45 -200 45 -200 45
4239794632.4387 -3.8268344 -66.802391 -200 45 -200 45 -200 45
4240794749.1249 -3.8349729 -66.71022 -200 45 -200 45 -200 45
4241794865.811 -3.8403385 -66.602257 -200 45 -200 45 -200 45
4242794982.4971 -3.8511083 -66.498741 -200 45 -200 45 -200 45
4243795099.1832 -3.8578644 -66.399559 -200 45 -200 45 -200 45
4244795215.8693 -3.8673546 -66.345299 -200 45 -200 45 -200 45
4245795332.5554 -3.8748794 -66.251213 -200 45 -200 45 -200 45
4246795449.2415 -3.8875239 -66.20623 -200 45 -200 45 -200 45
4247795565.9277 -3.8942177 -66.120354 -200 45 -200 45 -200 45
4248795682.6138 -3.9078031 -66.074776 -200 45 -200 45 -200 45
4249795799.2999 -3.9203041 -66.042923 -200 45 -200 45 -200 45
4250795915.986 -3.9348586 -66.018784 -200 45 -200 45 -200 45
4251796032.6721 -3.9443913 -65.977875 -200 45 -200 45 -200 45
4252796149.3582 -3.9578044 -65.993423 -200 45 -200 45 -200 45
4253796266.0443 -3.9700446 -65.994888 -200 45 -200 45 -200 45
4254796382.7305 -3.9839776 -65.993576 -200 45 -200 45 -200 45
4255796499.4166 -3.9942012 -66.00248 -200 45 -200 45 -200 45
4256796616.1027 -4.00843 -66.039536 -200 45 -200 45 -200 45
4257796732.7888 -4.0179572 -66.082085 -200 45 -200 45 -200 45
4258796849.4749 -4.0338864 -66.118256 -200 45 -200 45 -200 45
4259796966.161 -4.0467739 -66.18605 -200 45 -200 45 -200 45
4260797082.8471 -4.0554686 -66.261589 -200 45 -200 45 -200 45
4261797199.5333 -4.0679202 -66.33062 -200 45 -200 45 -200 45
4262797316.2194 -4.0770674 -66.429214 -200 45 -200 45 -200 45
4263797432.9055 -4.0872731 -66.502693 -200 45 -200 45 -200 45
4264797549.5916 -4.0973358 -66.626251 -200 45 -200 45 -200 45
4265797666.2777 -4.1087689 -66.739876 -200 45 -200 45 -200 45
4266797782.9638 -4.1164584 -66.876236 -200 45 -200 45 -200 45
4267797899.6499 -4.1254478 -66.994484 -200 45 -200 45 -200 45
4268798016.3361 -4.1285191 -67.126678 -200 45 -200 45 -200 45
4269798133.0222 -4.1378365 -67.263885 -200 45 -200 45 -200 45
4270798249.7083 -4.138752 -67.395393 -200 45 -200 45 -200 45
4271798366.3944 -4.1459842 -67.54171 -200 45 -200 45 -200 45
4272798483.0805 -4.1506295 -67.719681 -200 45 -200 45 -200 45
4273798599.7666 -4.1497397 -67.862526 -200 45 -200 45 -200 45
4274798716.4527 -4.1520343 -68.019707 -200 45 -200 45 -200 45
4275798833.1389 -4.1506963 -68.177429 -200 45 -200 45 -200 45
4276798949.825 -4.1479192 -68.322495 -200 45 -200 45 -200 45
4277799066.5111 -4.147913 -68.485756 -200 45 -200 45 -200 45
4278799183.1972 -4.1464572 -68.626984 -200 45 -200 45 -200 45
4279799299.8833 -4.1426258 -68.781143 -200 45 -200 45 -200 45
4280799416.5694 -4.1353612 -68.93972 -200 45 -200 45 -200 45
4281799533.2555 -4.1323242 -69.080551 -200 45 -200 45 -200 45
4282799649.9417 -4.1233459 -69.212807 -200 45 -200 45 -200 45
4283799766.6278 -4.1179042 -69.329628 -200 45 -200 45 -200 45
4284799883.3139 -4.1097245 -69.462936 -200 45 -200 45 -200 45
4285800000 -4.1036944 -69.567207 -200 45 -200 45 -200 45
4286800116.6861 -4.0931005 -69.677307 -200 45 -200 45 -200 45
4287800233.3722 -4.0787635 -69.776077 -200 45 -200 45 -200 45
4288800350.0583 -4.067111 -69.87307 -200 45 -200 45 -200 45
4289800466.7445 -4.0604653 -69.967827 -200 45 -200 45 -200 45
4290800583.4306 -4.0487909 -70.047478 -200 45 -200 45 -200 45
4291800700.1167 -4.0341773 -70.074051 -200 45 -200 45 -200 45
4292800816.8028 -4.0217614 -70.14505 -200 45 -200 45 -200 45
4293800933.4889 -4.0137978 -70.185211 -200 45 -200 45 -200 45
4294801050.175 -4.000721 -70.212593 -200 45 -200 45 -200 45
4295801166.8611 -3.9859555 -70.245766 -200 45 -200 45 -200 45
4296801283.5473 -3.9732664 -70.245331 -200 45 -200 45 -200 45
4297801400.2334 -3.9639864 -70.256241 -200 45 -200 45 -200 45
4298801516.9195 -3.9528017 -70.251305 -200 45 -200 45 -200 45
4299801633.6056 -3.9383743 -70.248184 -200 45 -200 45 -200 45
4300801750.2917 -3.9288762 -70.209518 -200 45 -200 45 -200 45
4301801866.9778 -3.9176137 -70.169014 -200 45 -200 45 -200 45
4302801983.6639 -3.9057651 -70.107353 -200 45 -200 45 -200 45
4303802100.3501 -3.8989017 -70.070473 -200 45 -200 45 -200 45
4304802217.0362 -3.8889968 -70.004631 -200 45 -200 45 -200 45
4305802333.7223 -3.8755701 -69.925171 -200 45 -200 45 -200 45
4306802450.4084 -3.8680856 -69.848114 -200 45 -200 45 -200 45
4307802567.0945 -3.8628988 -69.750031 -200 45 -200 45 -200 45
4308802683.7806 -3.8552792 -69.670174 -200 45 -200 45 -200 45
4309802800.4667 -3.8496928 -69.576614 -200 45 -200 45 -200 45
4310802917.1529 -3.8432341 -69.451927 -200 45 -200 45 -200 45
4311803033.839 -3.8383324 -69.348953 -200 45 -200 45 -200 45
4312803150.5251 -3.8320231 -69.240692 -200 45 -200 45 -200 45
4313803267.2112 -3.8301454 -69.129295 -200 45 -200 45 -200 45
4314803383.8973 -3.831115 -68.996529 -200 45 -200 45 -200 45
4315803500.5834 -3.8272197 -68.878197 -200 45 -200 45 -200 45
4316803617.2695 -3.8271625 -68.748619 -200 45 -200 45 -200 45
4317803733.9557 -3.8264866 -68.632271 -200 45 -200 45 -200 45
4318803850.6418 -3.8291135 -68.507767 -200 45 -200 45 -200 45
4319803967.3279 -3.8326578 -68.385559 -200 45 -200 45 -200 45
4320804084.014 -3.8336108 -68.28199 -200 45 -200 45 -200 45
4321804200.7001 -3.8365371 -68.133636 -200 45 -200 45 -200 45
4322804317.3862 -3.8417635 -68.02417 -200 45 -200 45 -200 45
4323804434.0723 -3.8493314 -67.919128 -200 45 -200 45 -200 45
4324804550.7585 -3.8536341 -67.802734 -200 45 -200 45 -200 45
4325804667.4446 -3.8610337 -67.686256 -200 45 -200 45 -200 45
4326804784.1307 -3.8698945 -67.608078 -200 45 -200 45 -200 45
4327804900.8168 -3.8795056 -67.503441 -200 45 -200 45 -200 45
4328805017.5029 -3.8878152 -67.427109 -200 45 -200 45 -200 45
4329805134.189 -3.8973193 -67.311317 -200 45 -200 45 -200 45
4330805250.8751 -3.9077184 -67.268356 -200 45 -200 45 -200 45
4331805367.5613 -3.9184999 -67.223145 -200 45 -200 45 -200 45
4332805484.2474 -3.9297042 -67.134514 -200 45 -200 45 -200 45
4333805600.9335 -3.9447117 -67.114449 -200 45 -200 45 -200 45
4334805717.6196 -3.9535735 -67.083878 -200 45 -200 45 -200 45
4335805834.3057 -3.9676561 -67.045967 -200 45 -200 45 -200 45
4336805950.9918 -3.9814599 -67.031029 -200 45 -200 45 -200 45
4337806067.6779 -3.9938974 -67.02404 -200 45 -200 45 -200 45
4338806184.3641 -4.0070481 -67.042831 -200 45 -200 45 -200 45
4339806301.0502 -4.0215087 -67.070221 -200 45 -200 45 -200 45
4340806417.7363 -4.034462 -67.093315 -200 45 -200 45 -200 45
4341806534.4224 -4.0499244 -67.13253 -200 45 -200 45 -200 45
4342806651.1085 -4.0613828 -67.188698 -200 45 -200 45 -200 45
4343806767.7946 -4.0754781 -67.243652 -200 45 -200 45 -200 45
4344806884.4807 -4.0866976 -67.322235 -200 45 -200 45 -200 45
4345807001.1669 -4.0943351 -67.388092 -200 45 -200 45 -200 45
4346807117.853 -4.1096921 -67.470688 -200 45 -200 45 -200 45
4347807234.5391 -4.1189198 -67.559837 -200 45 -200 45 -200 45
4348807351.2252 -4.1291471 -67.693718 -200 45 -200 45 -200 45
4349807467.9113 -4.1383233 -67.791473 -200 45 -200 45 -200 45
4350807584.5974 -4.149961 -67.910751 -200 45 -200 45 -200 45
4351807701.2835 -4.1592422 -68.037987 -200 45 -200 45 -200 45
4352807817.9697 -4.1642756 -68.213951 -200 45 -200 45 -200 45
4353807934.6558 -4.1712995 -68.330345 -200 45 -200 45 -200 45
4354808051.3419 -4.1758432 -68.479691 -200 45 -200 45 -200 45
4355808168.028 -4.1828079 -68.635284 -200 45 -200 45 -200 45
4356808284.7141 -4.1828256 -68.772171 -200 45 -200 45 -200 45
4357808401.4002 -4.1882076 -68.938736 -200 45 -200 45 -200 45
4358808518.0863 -4.1877089 -69.105278 -200 45 -200 45 -200 45
4359808634.7725 -4.1875525 -69.250008 -200 45 -200 45 -200 45
4360808751.4586 -4.1908512 -69.424858 -200 45 -200 45 -200 45
4361808868.1447 -4.1896691 -69.597374 -200 45 -200 45 -200 45
4362808984.8308 -4.188663 -69.740471 -200 45 -200 45 -200 45
4363809101.5169 -4.1786666 -69.886452 -200 45 -200 45 -200 45
4364809218.203 -4.1765857 -70.022522 -200 45 -200 45 -200 45
4365809334.8891 -4.1728058 -70.189293 -200 45 -200 45 -200 45
4366809451.5753 -4.1652389 -70.330772 -200 45 -200 45 -200 45
4367809568.2614 -4.1579523 -70.47805 -200 45 -200 45 -200 45
4368809684.9475 -4.1522398 -70.593704 -200 45 -200 45 -200 45
4369809801.6336 -4.1406803 -70.708488 -200 45 -200 45 -200 45
4370809918.3197 -4.1288729 -70.850815 -200 45 -200 45 -200 45
4371810035.0058 -4.1221709 -70.95311 -200 45 -200 45 -200 45
4372810151.6919 -4.112349 -71.025414 -200 45 -200 45 -200 45
4373810268.3781 -4.0990438 -71.116325 -200 45 -200 45 -200 45
4374810385.0642 -4.0872846 -71.190659 -200 45 -200 45 -200 45
4375810501.7503 -4.0767436 -71.248665 -200 45 -200 45 -200 45
4376810618.4364 -4.0652428 -71.304398 -200 45 -200 45 -200 45
4377810735.1225 -4.0523047 -71.349754 -200 45 -200 45 -200 45
4378810851.8086 -4.0421472 -71.39064 -200 45 -200 45 -200 45
4379810968.4947 -4.025537 -71.426323 -200 45 -200 45 -200 45
4380811085.1809 -4.0144267 -71.401291 -200 45 -200 45 -200 45
4381811201.867 -4.0046091 -71.419373 -200 45 -200 45 -200 45
4382811318.5531 -3.9887893 -71.404175 -200 45 -200 45 -200 45
4383811435.2392 -3.9779792 -71.385246 -200 45 -200 45 -200 45
4384811551.9253 -3.9641421 -71.354164 -200 45 -200 45 -200 45
4385811668.6114 -3.9505813 -71.314789 -200 45 -200 45 -200 45
4386811785.2976 -3.939765 -71.255432 -200 45 -200 45 -200 45
4387811901.9837 -3.9284203 -71.19416 -200 45 -200 45 -200 45
4388812018.6698 -3.9169774 -71.126457 -200 45 -200 45 -200 45
4389812135.3559 -3.9047694 -71.037193 -200 45 -200 45 -200 45
4390812252.042 -3.8935475 -70.950623 -200 45 -200 45 -200 45
4391812368.7281 -3.887454 -70.855492 -200 45 -200 45 -200 45
4392812485.4142 -3.8751583 -70.73391 -200 45 -200 45 -200 45
4393812602.1004 -3.8724885 -70.639999 -200 45 -200 45 -200 45
4394812718.7865 -3.8648384 -70.532242 -200 45 -200 45 -200 45
4395812835.4726 -3.8574705 -70.406189 -200 45 -200 45 -200 45
4396812952.1587 -3.8541307 -70.302841 -200 45 -200 45 -200 45
4397813068.8448 -3.8497589 -70.17067 -200 45 -200 45 -200 45
4398813185.5309 -3.8481374 -70.031113 -200 45 -200 45 -200 45
4399813302.217 -3.8467941 -69.914902 -200 45 -200 45 -200 45
4400813418.9032 -3.8422647 -69.768631 -200 45 -200 45 -200 45
4401813535.5893 -3.8410506 -69.647881 -200 45 -200 45 -200 45
4402813652.2754 -3.8447032 -69.51178 -200 45 -200 45 -200 45
4403813768.9615 -3.8465397 -69.378296 -200 45 -200 45 -200 45
4404813885.6476 -3.846946 -69.249298 -200 45 -200 45 -200 45
4405814002.3337 -3.8510268 -69.130432 -200 45 -200 45 -200 45
4406814119.0198 -3.8553374 -68.982666 -200 45 -200 45 -200 45
4407814235.706 -3.8602467 -68.872246 -200 45 -200 45 -200 45
4408814352.3921 -3.8687019 -68.751846 -200 45 -200 45 -200 45
4409814469.0782 -3.8772204 -68.650749 -200 45 -200 45 -200 45
4410814585.7643 -3.8903632 -68.550079 -200 45 -200 45 -200 45
4411814702.4504 -3.8960595 -68.455353 -200 45 -200 45 -200 45
4412814819.1365 -3.9057181 -68.388924 -200 45 -200 45 -200 45
4413814935.8226 -3.9177368 -68.286438 -200 45 -200 45 -200 45
4414815052.5088 -3.92998 -68.228096 -200 45 -200 45 -200 45
4415815169.1949 -3.9407585 -68.13681 -200 45 -200 45 -200 45
4416815285.881 -3.9555123 -68.086334 -200 45 -200 45 -200 45
4417815402.5671 -3.9677885 -68.028641 -200 45 -200 45 -200 45
4418815519.2532 -3.9791896 -67.992004 -200 45 -200 45 -200 45
4419815635.9393 -3.9947298 -67.97393 -200 45 -200 45 -200 45
4420815752.6254 -4.0084929 -67.953766 -200 45 -200 45 -200 45
4421815869.3116 -4.0199771 -67.942314 -200 45 -200 45 -200 45
4422815985.9977 -4.037931 -67.95269 -200 45 -200 45 -200 45
4423816102.6838 -4.0519257 -67.959999 -200 45 -200 45 -200 45
4424816219.3699 -4.0679321 -67.992348 -200 45 -200 45 -200 45
4425816336.056 -4.0840535 -68.028244 -200 45 -200 45 -200 45
4426816452.7421 -4.095686 -68.091629 -200 45 -200 45 -200 45
4427816569.4282 -4.1117911 -68.148956 -200 45 -200 45 -200 45
4428816686.1144 -4.1229005 -68.216393 -200 45 -200 45 -200 45
4429816802.8005 -4.1371207 -68.301735 -200 45 -200 45 -200 45
4430816919.4866 -4.1477981 -68.377777 -200 45 -200 45 -200 45
4431817036.1727 -4.1618943 -68.505661 -200 45 -200 45 -200 45
4432817152.8588 -4.1726761 -68.600014 -200 45 -200 45 -200 45
4433817269.5449 -4.18646 -68.712906 -200 45 -200 45 -200 45
4434817386.231 -4.1889906 -68.850769 -200 45 -200 45 -200 45
4435817502.9172 -4.2016401 -68.974228 -200 45 -200 45 -200 45
4436817619.6033 -4.2098598 -69.124504 -200 45 -200 45 -200 45
4437817736.2894 -4.2170677 -69.278976 -200 45 -200 45 -200 45
4438817852.9755 -4.2233343 -69.436165 -200 45 -200 45 -200 45
4439817969.6616 -4.2277007 -69.60482 -200 45 -200 45 -200 45
4440818086.3477 -4.2347112 -69.761139 -200 45 -200 45 -200 45
4441818203.0338 -4.2367086 -69.928345 -200 45 -200 45 -200 45
4442818319.72 -4.2396383 -70.085724 -200 45 -200 45 -200 45
4443818436.4061 -4.2382889 -70.270264 -200 45 -200 45 -200 45
4444818553.0922 -4.236917 -70.431618 -200 45 -200 45 -200 45
4445818669.7783 -4.2373724 -70.611313 -200 45 -200 45 -200 45
4446818786.4644 -4.234592 -70.789055 -200 45 -200 45 -200 45
4447818903.1505 -4.2310452 -70.947769 -200 45 -200 45 -200 45
4448819019.8366 -4.2268147 -71.113777 -200 45 -200 45 -200 45
4449819136.5228 -4.2214298 -71.289742 -200 45 -200 45 -200 45
4450819253.2089 -4.2139378 -71.430321 -200 45 -200 45 -200 45
4451819369.895 -4.2059407 -71.576828 -200 45 -200 45 -200 45
4452819486.5811 -4.1977248 -71.710693 -200 45 -200 45 -200 45
4453819603.2672 -4.1909556 -71.853592 -200 45 -200 45 -200 45
4454819719.9533 -4.176209 -71.973381 -200 45 -200 45 -200 45
4455819836.6394 -4.170577 -72.09185 -200 45 -200 45 -200 45
4456819953.3256 -4.1568213 -72.194038 -200 45 -200 45 -200 45
4457820070.0117 -4.1439843 -72.291595 -200 45 -200 45 -200 45
4458820186.6978 -4.1312742 -72.374847 -200 45 -200 45 -200 45
4459820303.3839 -4.1193576 -72.442841 -200 45 -200 45 -200 45
4460820420.07 -4.1025181 -72.510162 -200 45 -200 45 -200 45
4461820536.7561 -4.0893269 -72.545586 -200 45 -200 45 -200 45
4462820653.4422 -4.0785494 -72.619743 -200 45 -200 45 -200 45
4463820770.1284 -4.0647917 -72.628181 -200 45 -200 45 -200 45
4464820886.8145 -4.0507755 -72.660149 -200 45 -200 45 -200 45
4465821003.5006 -4.0406642 -72.671478 -200 45 -200 45 -200 45
4466821120.1867 -4.0243649 -72.667389 -200 45 -200 45 -200 45
4467821236.8728 -4.0140743 -72.66069 -200 45 -200 45 -200 45
4468821353.5589 -4.0015273 -72.622055 -200 45 -200 45 -200 45
4469821470.245 -3.9858837 -72.583656 -200 45 -200 45 -200 45
4470821586.9312 -3.9728241 -72.535439 -200 45 -200 45 -200 45
4471821703.6173 -3.9632754 -72.487236 -200 45 -200 45 -200 45
4472821820.3034 -3.9512284 -72.422569 -200 45 -200 45 -200 45
4473821936.9895 -3.9430811 -72.343002 -200 45 -200 45 -200 45
4474822053.6756 -3.932142 -72.247231 -200 45 -200 45 -200 45
4475822170.3617 -3.9230788 -72.145676 -200 45 -200 45 -200 45
4476822287.0478 -3.9177773 -72.066872 -200 45 -200 45 -200 45
4477822403.734 -3.9096138 -71.944939 -200 45 -200 45 -200 45
4478822520.4201 -3.9015605 -71.834991 -200 45 -200 45 -200 45
4479822637.1062 -3.8966131 -71.720795 -200 45 -200 45 -200 45
4480822753.7923 -3.8906958 -71.595581 -200 45 -200 45 -200 45
4481822870.4784 -3.884393 -71.450302 -200 45 -200 45 -200 45
4482822987.1645 -3.8865497 -71.329567 -200 45 -200 45 -200 45
4483823103.8506 -3.8835855 -71.172554 -200 45 -200 45 -200 45
4484823220.5368 -3.8851397 -71.055916 -200 45 -200 45 -200 45
4485823337.2229 -3.8842418 -70.905579 -200 45 -200 45 -200 45
4486823453.909 -3.8866138 -70.750053 -200 45 -200 45 -200 45
4487823570.5951 -3.8867986 -70.630226 -200 45 -200 45 -200 45
4488823687.2812 -3.891757 -70.494095 -200 45 -200 45 -200 45
4489823803.9673 -3.8957326 -70.358002 -200 45 -200 45 -200 45
4490823920.6534 -3.8987246 -70.223793 -200 45 -200 45 -200 45
4491824037.3396 -3.909353 -70.091309 -200 45 -200 45 -200 45
4492824154.0257 -3.9182043 -69.954391 -200 45 -200 45 -200 45
4493824270.7118 -3.9251823 -69.828568 -200 45 -200 45 -200 45
4494824387.3979 -3.935277 -69.720352 -200 45 -200 45 -200 45
4495824504.084 -3.9444332 -69.608521 -200 45 -200 45 -200 45
4496824620.7701 -3.9541564 -69.521011 -200 45 -200 45 -200 45
4497824737.4562 -3.9675674 -69.40461 -200 45 -200 45 -200 45
4498824854.1424 -3.9811342 -69.281113 -200 45 -200 45 -200 45
4499824970.8285 -3.9952621 -69.216293 -200 45 -200 45 -200 45
4500825087.5146 -4.0107937 -69.155823 -200 45 -200 45 -200 45
4501825204.2007 -4.0286617 -69.069328 -200 45 -200 45 -200 45
4502825320.8868 -4.0391579 -69.001251 -200 45 -200 45 -200 45
4503825437.5729 -4.0574617 -68.954514 -200 45 -200 45 -200 45
4504825554.259 -4.0707259 -68.921021 -200 45 -200 45 -200 45
4505825670.9452 -4.0863609 -68.87162 -200 45 -200 45 -200 45
4506825787.6313 -4.1000595 -68.88253 -200 45 -200 45 -200 45
4507825904.3174 -4.1160202 -68.84462 -200 45 -200 45 -200 45
4508826021.0035 -4.1316438 -68.85405 -200 45 -200 45 -200 45
4509826137.6896 -4.1459503 -68.859955 -200 45 -200 45 -200 45
4510826254.3757 -4.1600718 -68.896278 -200 45 -200 45 -200 45
4511826371.0618 -4.1707301 -68.915695 -200 45 -200 45 -200 45
4512826487.748 -4.1819487 -68.984764 -200 45 -200 45 -200 45
4513826604.4341 -4.1924601 -69.06192 -200 45 -200 45 -200 45
4514826721.1202 -4.2009048 -69.154785 -200 45 -200 45 -200 45
4515826837.8063 -4.2112098 -69.247139 -200 45 -200 45 -200 45
4516826954.4924 -4.2225337 -69.355507 -200 45 -200 45 -200 45
4517827071.1785 -4.2335916 -69.489265 -200 45 -200 45 -200 45
4518827187.8646 -4.2388902 -69.624855 -200 45 -200 45 -200 45
4519827304.5508 -4.2458715 -69.75515 -200 45 -200 45 -200 45
4520827421.2369 -4.2498364 -69.904846 -200 45 -200 45 -200 45
4521827537.923 -4.2585368 -70.078804 -200 45 -200 45 -200 45
4522827654.6091 -4.2628584 -70.224075 -200 45 -200 45 -200 45
4523827771.2952 -4.2670999 -70.407021 -200 45 -200 45 -200 45
4524827887.9813 -4.2685046 -70.581284 -200 45 -200 45 -200 45
4525828004.6674 -4.2730365 -70.7453 -200 45 -200 45 -200 45
4526828121.3536 -4.2730026 -70.921913 -200 45 -200 45 -200 45
4527828238.0397 -4.2745781 -71.091133 -200 45 -200 45 -200 45
4528828354.7258 -4.2703643 -71.283218 -200 45 -200 45 -200 45
4529828471.4119 -4.2695031 -71.490356 -200 45 -200 45 -200 45
4530828588.098 -4.265379 -71.65834 -200 45 -200 45 -200 45
4531828704.7841 -4.2580953 -71.830917 -200 45 -200 45 -200 45
4532828821.4702 -4.2537489 -72.0047 -200 45 -200 45 -200 45
4533828938.1564 -4.2478747 -72.186737 -200 45 -200 45 -200 45
4534829054.8425 -4.2407503 -72.340302 -200 45 -200 45 -200 45
4535829171.5286 -4.2313933 -72.512436 -200 45 -200 45 -200 45
4536829288.2147 -4.2176423 -72.667564 -200 45 -200 45 -200 45
4537829404.9008 -4.2064342 -72.80278 -200 45 -200 45 -200 45
4538829521.5869 -4.194252 -72.964493 -200 45 -200 45 -200 45
4539829638.273 -4.1815987 -73.092636 -200 45 -200 45 -200 45
4540829754.9592 -4.1734724 -73.207504 -200 45 -200 45 -200 45
4541829871.6453 -4.1579161 -73.324348 -200 45 -200 45 -200 45
4542829988.3314 -4.1464925 -73.46196 -200 45 -200 45 -200 45
4543830105.0175 -4.1323023 -73.523552 -200 45 -200 45 -200 45
4544830221.7036 -4.1197343 -73.605179 -200 45 -200 45 -200 45
4545830338.3897 -4.1034441 -73.651932 -200 45 -200 45 -200 45
4546830455.0758 -4.090054 -73.744354 -200 45 -200 45 -200 45
4547830571.762 -4.0740957 -73.772919 -200 45 -200 45 -200 45
4548830688.4481 -4.0592394 -73.807915 -200 45 -200 45 -200 45
4549830805.1342 -4.0443473 -73.818115 -200 45 -200 45 -200 45
4550830921.8203 -4.0300212 -73.82193 -200 45 -200 45 -200 45
4551831038.5064 -4.0200086 -73.810692 -200 45 -200 45 -200 45
4552831155.1925 -4.007113 -73.783806 -200 45 -200 45 -200 45
4553831271.8786 -3.9906621 -73.757332 -200 45 -200 45 -200 45
4554831388.5648 -3.9760306 -73.708298 -200 45 -200 45 -200 45
4555831505.2509 -3.9625521 -73.649712 -200 45 -200 45 -200 45
4556831621.937 -3.9518681 -73.603325 -200 45 -200 45 -200 45
4557831738.6231 -3.939702 -73.53788 -200 45 -200 45 -200 45
4558831855.3092 -3.9283314 -73.424393 -200 45 -200 45 -200 45
4559831971.9953 -3.9216602 -73.347404 -200 45 -200 45 -200 45
4560832088.6814 -3.9129686 -73.211632 -200 45 -200 45 -200 45
4561832205.3676 -3.9033995 -73.121544 -200 45 -200 45 -200 45
4562832322.0537 -3.8958275 -73.002129 -200 45 -200 45 -200 45
4563832438.7398 -3.8868954 -72.897125 -200 45 -200 45 -200 45
4564832555.4259 -3.881202 -72.750671 -200 45 -200 45 -200 45
4565832672.112 -3.8804934 -72.616074 -200 45 -200 45 -200 45
4566832788.7981 -3.8752749 -72.483894 -200 45 -200 45 -200 45
4567832905.4842 -3.8747461 -72.339714 -200 45 -200 45 -200 45
4568833022.1704 -3.8726075 -72.189316 -200 45 -200 45 -200 45
4569833138.8565 -3.8729823 -72.023903 -200 45 -200 45 -200 45
4570833255.5426 -3.8735707 -71.881622 -200 45 -200 45 -200 45
4571833372.2287 -3.8728449 -71.729553 -200 45 -200 45 -200 45
4572833488.9148 -3.876776 -71.6147 -200 45 -200 45 -200 45
4573833605.6009 -3.8794262 -71.47287 -200 45 -200 45 -200 45
4574833722.287 -3.8848901 -71.307114 -200 45 -200 45 -200 45
4575833838.9732 -3.8930948 -71.17585 -200 45 -200 45 -200 45
4576833955.6593 -3.8979383 -71.039421 -200 45 -200 45 -200 45
4577834072.3454 -3.9058771 -70.898483 -200 45 -200 45 -200 45
4578834189.0315 -3.918298 -70.764038 -200 45 -200 45 -200 45
4579834305.7176 -3.9253647 -70.670914 -200 45 -200 45 -200 45
4580834422.4037 -3.9358044 -70.546417 -200 45 -200 45 -200 45
4581834539.0898 -3.9430435 -70.435585 -200 45 -200 45 -200 45
4582834655.776 -3.9601343 -70.352219 -200 45 -200 45 -200 45
4583834772.4621 -3.9731088 -70.272972 -200 45 -200 45 -200 45
4584834889.1482 -3.9863238 -70.17305 -200 45 -200 45 -200 45
4585835005.8343 -4.0007548 -70.111473 -200 45 -200 45 -200 45
4586835122.5204 -4.016468 -70.038795 -200 45 -200 45 -200 45
4587835239.2065 -4.0317206 -70.02227 -200 45 -200 45 -200 45
4588835355.8926 -4.0449033 -69.986443 -200 45 -200 45 -200 45
4589835472.5788 -4.0597935 -69.953239 -200 45 -200 45 -200 45
4590835589.2649 -4.0787334 -69.94812 -200 45 -200 45 -200 45
4591835705.951 -4.0939274 -69.95063 -200 45 -200 45 -200 45
4592835822.6371 -4.1113758 -69.979408 -200 45 -200 45 -200 45
4593835939.3232 -4.1260891 -69.996376 -200 45 -200 45 -200 45
4594836056.0093 -4.142693 -70.036514 -200 45 -200 45 -200 45
4595836172.6954 -4.1609645 -70.104668 -200 45 -200 45 -200 45
4596836289.3816 -4.1756601 -70.163422 -200 45 -200 45 -200 45
4597836406.0677 -4.1886687 -70.239777 -200 45 -200 45 -200 45
4598836522.7538 -4.2048941 -70.339073 -200 45 -200 45 -200 45
4599836639.4399 -4.2196112 -70.429626 -200 45 -200 45 -200 45
4600836756.126 -4.2357621 -70.540131 -200 45 -200 45 -200 45
4601836872.8121 -4.2471571 -70.662941 -200 45 -200 45 -200 45
4602836989.4983 -4.2588315 -70.786415 -200 45 -200 45 -200 45
4603837106.1844 -4.2701244 -70.915703 -200 45 -200 45 -200 45
4604837222.8705 -4.282063 -71.047844 -200 45 -200 45 -200 45
4605837339.5566 -4.2883039 -71.230385 -200 45 -200 45 -200 45
4606837456.2427 -4.2943501 -71.385452 -200 45 -200 45 -200 45
4607837572.9288 -4.304914 -71.598335 -200 45 -200 45 -200 45
4608837689.6149 -4.3106613 -71.740601 -200 45 -200 45 -200 45
4609837806.3011 -4.3149014 -71.936256 -200 45 -200 45 -200 45
4610837922.9872 -4.3214364 -72.108833 -200 45 -200 45 -200 45
4611838039.6733 -4.3216581 -72.270683 -200 45 -200 45 -200 45
4612838156.3594 -4.3191352 -72.464615 -200 45 -200 45 -200 45
4613838273.0455 -4.3214288 -72.623856 -200 45 -200 45 -200 45
4614838389.7316 -4.317646 -72.84771 -200 45 -200 45 -200 45
4615838506.4177 -4.3147769 -73.023148 -200 45 -200 45 -200 45
4616838623.1039 -4.3100324 -73.202377 -200 45 -200 45 -200 45
4617838739.79 -4.308475 -73.362282 -200 45 -200 45 -200 45
4618838856.4761 -4.2996297 -73.5355 -200 45 -200 45 -200 45
4619838973.1622 -4.2907319 -73.703636 -200 45 -200 45 -200 45
4620839089.8483 -4.2853336 -73.854103 -200 45 -200 45 -200 45
4621839206.5344 -4.2750106 -74.018463 -200 45 -200 45 -200 45
4622839323.2205 -4.2637415 -74.143013 -200 45 -200 45 -200 45
4623839439.9067 -4.2528758 -74.282806 -200 45 -200 45 -200 45
4624839556.5928 -4.235693 -74.395065 -200 45 -200 45 -200 45
4625839673.2789 -4.225668 -74.493912 -200 45 -200 45 -200 45
4626839789.965 -4.2152495 -74.586586 -200 45 -200 45 -200 45
4627839906.6511 -4.199316 -74.686249 -200 45 -200 45 -200 45
4628840023.3372 -4.1856251 -74.786377 -200 45 -200 45 -200 45
4629840140.0233 -4.1707335 -74.801338 -200 45 -200 45 -200 45
4630840256.7095 -4.1554985 -74.869881 -200 45 -200 45 -200 45
4631840373.3956 -4.1412139 -74.91481 -200 45 -200 45 -200 45
4632840490.0817 -4.1240754 -74.935997 -200 45 -200 45 -200 45
4633840606.7678 -4.1115136 -74.943069 -200 45 -200 45 -200 45
4634840723.4539 -4.0959272 -74.937798 -200 45 -200 45 -200 45
4635840840.14 -4.0839472 -74.920044 -200 45 -200 45 -200 45
4636840956.8261 -4.0676498 -74.90519 -200 45 -200 45 -200 45
4637841073.5123 -4.0521173 -74.882355 -200 45 -200 45 -200 45
4638841190.1984 -4.03932 -74.825066 -200 45 -200 45 -200 45
4639841306.8845 -4.024693 -74.764145 -200 45 -200 45 -200 45
4640841423.5706 -4.0103593 -74.703636 -200 45 -200 45 -200 45
4641841540.2567 -3.9984899 -74.622215 -200 45 -200 45 -200 45
4642841656.9428 -3.9890029 -74.511017 -200 45 -200 45 -200 45
4643841773.6289 -3.9793179 -74.419792 -200 45 -200 45 -200 45
4644841890.3151 -3.9704986 -74.305885 -200 45 -200 45 -200 45
4645842007.0012 -3.9626718 -74.183693 -200 45 -200 45 -200 45
4646842123.6873 -3.9538229 -74.069443 -200 45 -200 45 -200 45
4647842240.3734 -3.9461904 -73.92926 -200 45 -200 45 -200 45
4648842357.0595 -3.9399858 -73.795395 -200 45 -200 45 -200 45
4649842473.7456 -3.932704 -73.643608 -200 45 -200 45 -200 45
4650842590.4317 -3.9344876 -73.513557 -200 45 -200 45 -200 45
4651842707.1179 -3.9320748 -73.351448 -200 45 -200 45 -200 45
4652842823.804 -3.9270556 -73.186943 -200 45 -200 45 -200 45
4653842940.4901 -3.9250212 -73.034218 -200 45 -200 45 -200 45
4654843057.1762 -3.9269235 -72.848785 -200 45 -200 45 -200 45
4655843173.8623 -3.9292758 -72.716965 -200 45 -200 45 -200 45
4656843290.5484 -3.9316981 -72.545319 -200 45 -200 45 -200 45
4657843407.2345 -3.9339368 -72.403702 -200 45 -200 45 -200 45
4658843523.9207 -3.9373877 -72.218361 -200 45 -200 45 -200 45
4659843640.6068 -3.9431281 -72.091347 -200 45 -200 45 -200 45
4660843757.2929 -3.9484191 -71.935127 -200 45 -200 45 -200 45
4661843873.979 -3.9545331 -71.78212 -200 45 -200 45 -200 45
4662843990.6651 -3.9616976 -71.641899 -200 45 -200 45 -200 45
4663844107.3512 -3.9697692 -71.520241 -200 45 -200 45 -200 45
4664844224.0373 -3.9786956 -71.396912 -200 45 -200 45 -200 45
4665844340.7235 -3.9892762 -71.324524 -200 45 -200 45 -200 45
4666844457.4096 -3.9986048 -71.207825 -200 45 -200 45 -200 45
4667844574.0957 -4.0121865 -71.135002 -200 45 -200 45 -200 45
4668844690.7818 -4.0216618 -71.042038 -200 45 -200 45 -200 45
4669844807.4679 -4.0381708 -70.974586 -200 45 -200 45 -200 45
4670844924.154 -4.0523615 -70.914665 -200 45 -200 45 -200 45
4671845040.8401 -4.065042 -70.886208 -200 45 -200 45 -200 45
4672845157.5263 -4.0831223 -70.856888 -200 45 -200 45 -200 45
4673845274.2124 -4.0951509 -70.844109 -200 45 -200 45 -200 45
4674845390.8985 -4.1113682 -70.85553 -200 45 -200 45 -200 45
4675845507.5846 -4.1295142 -70.865471 -200 45 -200 45 -200 45
4676845624.2707 -4.1450377 -70.883446 -200 45 -200 45 -200 45
4677845740.9568 -4.1625652 -70.917862 -200 45 -200 45 -200 45
4678845857.6429 -4.1792655 -70.942245 -200 45 -200 45 -200 45
4679845974.3291 -4.195919 -71.01207 -200 45 -200 45 -200 45
4680846091.0152 -4.2083602 -71.084984 -200 45 -200 45 -200 45
4681846207.7013 -4.2225151 -71.147934 -200 45 -200 45 -200 45
4682846324.3874 -4.2399449 -71.27298 -200 45 -200 45 -200 45
4683846441.0735 -4.255908 -71.384285 -200 45 -200 45 -200 45
4684846557.7596 -4.2691569 -71.504601 -200 45 -200 45 -200 45
4685846674.4457 -4.2841454 -71.626137 -200 45 -200 45 -200 45
4686846791.1319 -4.2963848 -71.770508 -200 45 -200 45 -200 45
4687846907.818 -4.3084669 -71.928108 -200 45 -200 45 -200 45
4688847024.5041 -4.3221626 -72.095123 -200 45 -200 45 -200 45
4689847141.1902 -4.3273177 -72.26738 -200 45 -200 45 -200 45
4690847257.8763 -4.3387341 -72.42749 -200 45 -200 45 -200 45
4691847374.5624 -4.3409066 -72.588371 -200 45 -200 45 -200 45
4692847491.2485 -4.3490577 -72.798759 -200 45 -200 45 -200 45
4693847607.9347 -4.3558779 -72.976448 -200 45 -200 45 -200 45
4694847724.6208 -4.3587756 -73.161118 -200 45 -200 45 -200 45
4695847841.3069 -4.3674755 -73.363297 -200 45 -200 45 -200 45
4696847957.993 -4.3661609 -73.565636 -200 45 -200 45 -200 45
4697848074.6791 -4.3662281 -73.751221 -200 45 -200 45 -200 45
4698848191.3652 -4.3598146 -73.924057 -200 45 -200 45 -200 45
4699848308.0513 -4.3608127 -74.123619 -200 45 -200 45 -200 45
4700848424.7375 -4.3534951 -74.30262 -200 45 -200 45 -200 45
4701848541.4236 -4.3493843 -74.484955 -200 45 -200 45 -200 45
4702848658.1097 -4.3448591 -74.665482 -200 45 -200 45 -200 45
4703848774.7958 -4.3362904 -74.821762 -200 45 -200 45 -200 45
4704848891.4819 -4.3281045 -74.98539 -200 45 -200 45 -200 45
4705849008.168 -4.316247 -75.118454 -200 45 -200 45 -200 45
4706849124.8541 -4.3042626 -75.271599 -200 45 -200 45 -200 45
4707849241.5403 -4.2945619 -75.417381 -200 45 -200 45 -200 45
4708849358.2264 -4.2831559 -75.513824 -200 45 -200 45 -200 45
4709849474.9125 -4.2742181 -75.642014 -200 45 -200 45 -200 45
4710849591.5986 -4.2589674 -75.740532 -200 45 -200 45 -200 45
4711849708.2847 -4.2453332 -75.804237 -200 45 -200 45 -200 45
4712849824.9708 -4.22967 -75.883499 -200 45 -200 45 -200 45
4713849941.6569 -4.2108345 -75.956886 -200 45 -200 45 -200 45
4714850058.3431 -4.1981945 -75.996895 -200 45 -200 45 -200 45
4715850175.0292 -4.1819968 -76.023453 -200 45 -200 45 -200 45
4716850291.7153 -4.1679077 -76.026627 -200 45 -200 45 -200 45
4717850408.4014 -4.1526933 -76.05542 -200 45 -200 45 -200 45
4718850525.0875 -4.1353855 -76.046349 -200 45 -200 45 -200 45
4719850641.7736 -4.1221094 -76.041809 -200 45 -200 45 -200 45
4720850758.4597 -4.1089263 -75.98851 -200 45 -200 45 -200 45
4721850875.1459 -4.0929613 -75.940987 -200 45 -200 45 -200 45
4722850991.832 -4.0835915 -75.895851 -200 45 -200 45 -200 45
4723851108.5181 -4.0667415 -75.797897 -200 45 -200 45 -200 45
4724851225.2042 -4.0579839 -75.724251 -200 45 -200 45 -200 45
4725851341.8903 -4.0454926 -75.624245 -200 45 -200 45 -200 45
4726851458.5764 -4.032351 -75.525719 -200 45 -200 45 -200 45
4727851575.2625 -4.0252805 -75.396667 -200 45 -200 45 -200 45
4728851691.9487 -4.0157981 -75.264229 -200 45 -200 45 -200 45
4729851808.6348 -4.0067668 -75.124619 -200 45 -200 45 -200 45
4730851925.3209 -3.9988313 -74.989105 -200 45 -200 45 -200 45
4731852042.007 -3.9934704 -74.830917 -200 45 -200 45 -200 45
4732852158.6931 -3.990448 -74.657455 -200 45 -200 45 -200 45
4733852275.3792 -3.9867024 -74.490929 -200 45 -200 45 -200 45
4734852392.0653 -3.9819896 -74.310379 -200 45 -200 45 -200 45
4735852508.7515 -3.9775214 -74.115662 -200 45 -200 45 -200 45
4736852625.4376 -3.9759841 -73.931274 -200 45 -200 45 -200 45
4737852742.1237 -3.9780266 -73.746773 -200 45 -200 45 -200 45
4738852858.8098 -3.9763691 -73.567848 -200 45 -200 45 -200 45
4739852975.4959 -3.9745171 -73.380943 -200 45 -200 45 -200 45
4740853092.182 -3.9755025 -73.172142 -200 45 -200 45 -200 45
4741853208.8681 -3.9807496 -72.98336 -200 45 -200 45 -200 45
4742853325.5543 -3.981132 -72.777115 -200 45 -200 45 -200 45
4743853442.2404 -3.9835587 -72.620735 -200 45 -200 45 -200 45
4744853558.9265 -3.9869757 -72.447372 -200 45 -200 45 -200 45
4745853675.6126 -3.9899728 -72.29187 -200 45 -200 45 -200 45
4746853792.2987 -3.9949059 -72.140938 -200 45 -200 45 -200 45
4747853908.9848 -3.9986343 -71.98806 -200 45 -200 45 -200 45
4748854025.6709 -4.003809 -71.855812 -200 45 -200 45 -200 45
4749854142.3571 -4.007688 -71.751144 -200 45 -200 45 -200 45
4750854259.0432 -4.0188618 -71.619621 -200 45 -200 45 -200 45
4751854375.7293 -4.0272055 -71.539948 -200 45 -200 45 -200 45
4752854492.4154 -4.0385036 -71.456841 -200 45 -200 45 -200 45
4753854609.1015 -4.0462036 -71.383194 -200 45 -200 45 -200 45
4754854725.7876 -4.0563836 -71.326195 -200 45 -200 45 -200 45
4755854842.4737 -4.0698152 -71.290291 -200 45 -200 45 -200 45
4756854959.1599 -4.0826302 -71.2827 -200 45 -200 45 -200 45
4757855075.846 -4.0959845 -71.266144 -200 45 -200 45 -200 45
4758855192.5321 -4.1088243 -71.267815 -200 45 -200 45 -200 45
4759855309.2182 -4.124876 -71.282562 -200 45 -200 45 -200 45
4760855425.9043 -4.1399174 -71.341515 -200 45 -200 45 -200 45
4761855542.5904 -4.1551313 -71.373039 -200 45 -200 45 -200 45
4762855659.2765 -4.1670489 -71.451408 -200 45 -200 45 -200 45
4763855775.9627 -4.1816821 -71.512054 -200 45 -200 45 -200 45
4764855892.6488 -4.1961579 -71.605835 -200 45 -200 45 -200 45
4765856009.3349 -4.2106528 -71.714218 -200 45 -200 45 -200 45
4766856126.021 -4.2293196 -71.84449 -200 45 -200 45 -200 45
4767856242.7071 -4.2426162 -71.986488 -200 45 -200 45 -200 45
4768856359.3932 -4.2570276 -72.107994 -200 45 -200 45 -200 45
4769856476.0793 -4.2690024 -72.244408 -200 45 -200 45 -200 45
4770856592.7655 -4.282856 -72.424522 -200 45 -200 45 -200 45
4771856709.4516 -4.2929978 -72.5914 -200 45 -200 45 -200 45
4772856826.1377 -4.3071508 -72.802879 -200 45 -200 45 -200 45
4773856942.8238 -4.3150573 -72.967628 -200 45 -200 45 -200 45
4774857059.5099 -4.3256788 -73.170639 -200 45 -200 45 -200 45
4775857176.196 -4.3355379 -73.362503 -200 45 -200 45 -200 45
4776857292.8821 -4.3441 -73.559883 -200 45 -200 45 -200 45
4777857409.5683 -4.3502207 -73.768188 -200 45 -200 45 -200 45
4778857526.2544 -4.3511462 -73.99247 -200 45 -200 45 -200 45
4779857642.9405 -4.3542476 -74.183167 -200 45 -200 45 -200 45
4780857759.6266 -4.3567967 -74.393906 -200 45 -200 45 -200 45
4781857876.3127 -4.3566346 -74.596031 -200 45 -200 45 -200 45
4782857992.9988 -4.3561716 -74.796051 -200 45 -200 45 -200 45
4783858109.6849 -4.3538857 -74.993805 -200 45 -200 45 -200 45
4784858226.3711 -4.3507667 -75.200279 -200 45 -200 45 -200 45
4785858343.0572 -4.3470864 -75.373657 -200 45 -200 45 -200 45
4786858459.7433 -4.3368769 -75.579254 -200 45 -200 45 -200 45
4787858576.4294 -4.3272824 -75.735397 -200 45 -200 45 -200 45
4788858693.1155 -4.3190022 -75.914352 -200 45 -200 45 -200 45
4789858809.8016 -4.3108916 -76.076492 -200 45 -200 45 -200 45
4790858926.4877 -4.3011608 -76.241089 -200 45 -200 45 -200 45
4791859043.1739 -4.2900496 -76.38047 -200 45 -200 45 -200 45
4792859159.86 -4.279469 -76.519753 -200 45 -200 45 -200 45
4793859276.5461 -4.2649102 -76.603683 -200 45 -200 45 -200 45
4794859393.2322 -4.2513208 -76.714935 -200 45 -200 45 -200 45
4795859509.9183 -4.2383451 -76.785545 -200 45 -200 45 -200 45
4796859626.6044 -4.2230515 -76.883377 -200 45 -200 45 -200 45
4797859743.2905 -4.2053461 -76.943748 -200 45 -200 45 -200 45
4798859859.9767 -4.1904216 -77.013786 -200 45 -200 45 -200 45
4799859976.6628 -4.1681948 -77.012154 -200 45 -200 45 -200 45
4800860093.3489 -4.1535034 -77.039307 -200 45 -200 45 -200 45
4801860210.035 -4.1386876 -77.041344 -200 45 -200 45 -200 45
4802860326.7211 -4.1208491 -77.020775 -200 45 -200 45 -200 45
4803860443.4072 -4.1044474 -76.995926 -200 45 -200 45 -200 45
4804860560.0933 -4.0852208 -76.949844 -200 45 -200 45 -200 45
4805860676.7795 -4.0699887 -76.890167 -200 45 -200 45 -200 45
4806860793.4656 -4.046896 -76.84465 -200 45 -200 45 -200 45
4807860910.1517 -4.0310907 -76.77211 -200 45 -200 45 -200 45
4808861026.8378 -4.0170512 -76.688599 -200 45 -200 45 -200 45
4809861143.5239 -4.0059609 -76.588905 -200 45 -200 45 -200 45
4810861260.21 -3.9915862 -76.513268 -200 45 -200 45 -200 45
4811861376.8961 -3.9772229 -76.406174 -200 45 -200 45 -200 45
4812861493.5823 -3.9644618 -76.277573 -200 45 -200 45 -200 45
4813861610.2684 -3.9525106 -76.153969 -200 45 -200 45 -200 45
4814861726.9545 -3.9407735 -76.030945 -200 45 -200 45 -200 45
4815861843.6406 -3.9379656 -75.917664 -200 45 -200 45 -200 45
4816861960.3267 -3.9304845 -75.764267 -200 45 -200 45 -200 45
4817862077.0128 -3.9247301 -75.62355 -200 45 -200 45 -200 45
4818862193.6989 -3.9186413 -75.483849 -200 45 -200 45 -200 45
4819862310.3851 -3.9164078 -75.318909 -200 45 -200 45 -200 45
4820862427.0712 -3.9129169 -75.143654 -200 45 -200 45 -200 45
4821862543.7573 -3.9093556 -74.97715 -200 45 -200 45 -200 45
4822862660.4434 -3.9107039 -74.829033 -200 45 -200 45 -200 45
4823862777.1295 -3.9104278 -74.677795 -200 45 -200 45 -200 45
4824862893.8156 -3.9132507 -74.514923 -200 45 -200 45 -200 45
4825863010.5018 -3.920691 -74.354057 -200 45 -200 45 -200 45
4826863127.1879 -3.9277682 -74.197594 -200 45 -200 45 -200 45
4827863243.874 -3.9336216 -74.051407 -200 45 -200 45 -200 45
4828863360.5601 -3.9399204 -73.901093 -200 45 -200 45 -200 45
4829863477.2462 -3.9490292 -73.767952 -200 45 -200 45 -200 45
4830863593.9323 -3.9565272 -73.637306 -200 45 -200 45 -200 45
4831863710.6184 -3.9676008 -73.495697 -200 45 -200 45 -200 45
4832863827.3046 -3.9822297 -73.386314 -200 45 -200 45 -200 45
4833863943.9907 -3.9955957 -73.288048 -200 45 -200 45 -200 45
4834864060.6768 -4.0102735 -73.157005 -200 45 -200 45 -200 45
4835864177.3629 -4.0271587 -73.075645 -200 45 -200 45 -200 45
4836864294.049 -4.0423188 -72.962891 -200 45 -200 45 -200 45
4837864410.7351 -4.0566354 -72.911072 -200 45 -200 45 -200 45
4838864527.4212 -4.0772624 -72.847694 -200 45 -200 45 -200 45
4839864644.1074 -4.0920892 -72.813072 -200 45 -200 45 -200 45
4840864760.7935 -4.1096826 -72.778328 -200 45 -200 45 -200 45
4841864877.4796 -4.1300383 -72.753082 -200 45 -200 45 -200 45
4842864994.1657 -4.1511741 -72.754517 -200 45 -200 45 -200 45
4843865110.8518 -4.1699791 -72.74752 -200 45 -200 45 -200 45
4844865227.5379 -4.1884584 -72.770767 -200 45 -200 45 -200 45
4845865344.224 -4.2097921 -72.791771 -200 45 -200 45 -200 45
4846865460.9102 -4.2310896 -72.857491 -200 45 -200 45 -200 45
4847865577.5963 -4.2479076 -72.934639 -200 45 -200 45 -200 45
4848865694.2824 -4.2618809 -72.997482 -200 45 -200 45 -200 45
4849865810.9685 -4.2832241 -73.095909 -200 45 -200 45 -200 45
4850865927.6546 -4.2990952 -73.187561 -200 45 -200 45 -200 45
4851866044.3407 -4.3194246 -73.283409 -200 45 -200 45 -200 45
4852866161.0268 -4.3358994 -73.424805 -200 45 -200 45 -200 45
4853866277.713 -4.355371 -73.552452 -200 45 -200 45 -200 45
4854866394.3991 -4.3695431 -73.71373 -200 45 -200 45 -200 45
4855866511.0852 -4.3819742 -73.865982 -200 45 -200 45 -200 45
4856866627.7713 -4.3942418 -74.048615 -200 45 -200 45 -200 45
4857866744.4574 -4.4013109 -74.219879 -200 45 -200 45 -200 45
4858866861.1435 -4.4153423 -74.407753 -200 45 -200 45 -200 45
4859866977.8296 -4.4233723 -74.587151 -200 45 -200 45 -200 45
4860867094.5158 -4.4313946 -74.792519 -200 45 -200 45 -200 45
4861867211.2019 -4.4388094 -75.006416 -200 45 -200 45 -200 45
4862867327.888 -4.4431524 -75.187515 -200 45 -200 45 -200 45
4863867444.5741 -4.4439788 -75.403191 -200 45 -200 45 -200 45
4864867561.2602 -4.4430127 -75.578407 -200 45 -200 45 -200 45
4865867677.9463 -4.4437094 -75.823471 -200 45 -200 45 -200 45
4866867794.6324 -4.4401631 -76.024612 -200 45 -200 45 -200 45
4867867911.3186 -4.439343 -76.242096 -200 45 -200 45 -200 45
4868868028.0047 -4.4397273 -76.424988 -200 45 -200 45 -200 45
4869868144.6908 -4.4339762 -76.632408 -200 45 -200 45 -200 45
4870868261.3769 -4.425281 -76.826653 -200 45 -200 45 -200 45
4871868378.063 -4.4166021 -76.990044 -200 45 -200 45 -200 45
4872868494.7491 -4.4079547 -77.173012 -200 45 -200 45 -200 45
4873868611.4352 -4.3940635 -77.341095 -200 45 -200 45 -200 45
4874868728.1214 -4.378902 -77.500404 -200 45 -200 45 -200 45
4875868844.8075 -4.365612 -77.652626 -200 45 -200 45 -200 45
4876868961.4936 -4.3529458 -77.774986 -200 45 -200 45 -200 45
4877869078.1797 -4.3392467 -77.878067 -200 45 -200 45 -200 45
4878869194.8658 -4.3255162 -77.995834 -200 45 -200 45 -200 45
4879869311.5519 -4.3123622 -78.089546 -200 45 -200 45 -200 45
4880869428.238 -4.2912617 -78.18367 -200 45 -200 45 -200 45
4881869544.9242 -4.2736573 -78.244064 -200 45 -200 45 -200 45
4882869661.6103 -4.2566361 -78.309814 -200 45 -200 45 -200 45
4883869778.2964 -4.2374525 -78.341492 -200 45 -200 45 -200 45
4884869894.9825 -4.2221684 -78.368568 -200 45 -200 45 -200 45
4885870011.6686 -4.2087126 -78.378258 -200 45 -200 45 -200 45
4886870128.3547 -4.1901731 -78.365181 -200 45 -200 45 -200 45
4887870245.0408 -4.175766 -78.347435 -200 45 -200 45 -200 45
4888870361.727 -4.156014 -78.31118 -200 45 -200 45 -200 45
4889870478.4131 -4.1382966 -78.242729 -200 45 -200 45 -200 45
4890870595.0992 -4.1226435 -78.207939 -200 45 -200 45 -200 45
4891870711.7853 -4.1090403 -78.138924 -200 45 -200 45 -200 45
4892870828.4714 -4.0951204 -78.059998 -200 45 -200 45 -200 45
4893870945.1575 -4.0830259 -77.969978 -200 45 -200 45 -200 45
4894871061.8436 -4.0753226 -77.83873 -200 45 -200 45 -200 45
4895871178.5298 -4.0625844 -77.714745 -200 45 -200 45 -200 45
4896871295.2159 -4.052845 -77.58931 -200 45 -200 45 -200 45
4897871411.902 -4.0441413 -77.45768 -200 45 -200 45 -200 45
4898871528.5881 -4.0366254 -77.310562 -200 45 -200 45 -200 45
4899871645.2742 -4.028697 -77.17865 -200 45 -200 45 -200 45
4900871761.9603 -4.0231724 -76.999168 -200 45 -200 45 -200 45
4901871878.6464 -4.0207725 -76.830383 -200 45 -200 45 -200 45
4902871995.3326 -4.0182095 -76.657265 -200 45 -200 45 -200 45
4903872112.0187 -4.0198493 -76.466377 -200 45 -200 45 -200 45
4904872228.7048 -4.0175018 -76.291656 -200 45 -200 45 -200 45
4905872345.3909 -4.0186925 -76.091652 -200 45 -200 45 -200 45
4906872462.077 -4.0209641 -75.902893 -200 45 -200 45 -200 45
4907872578.7631 -4.0235491 -75.726021 -200 45 -200 45 -200 45
4908872695.4492 -4.0261416 -75.51561 -200 45 -200 45 -200 45
4909872812.1354 -4.0355554 -75.334511 -200 45 -200 45 -200 45
4910872928.8215 -4.0435157 -75.158958 -200 45 -200 45 -200 45
4911873045.5076 -4.0530691 -74.939125 -200 45 -200 45 -200 45
4912873162.1937 -4.0632391 -74.754219 -200 45 -200 45 -200 45
4913873278.8798 -4.075181 -74.56324 -200 45 -200 45 -200 45
4914873395.5659 -4.0841961 -74.389023 -200 45 -200 45 -200 45
4915873512.252 -4.0995607 -74.221054 -200 45 -200 45 -200 45
4916873628.9382 -4.109674 -74.034187 -200 45 -200 45 -200 45
4917873745.6243 -4.1252947 -73.887085 -200 45 -200 45 -200 45
4918873862.3104 -4.1388774 -73.725342 -200 45 -200 45 -200 45
4919873978.9965 -4.1530619 -73.565887 -200 45 -200 45 -200 45
4920874095.6826 -4.1684198 -73.422432 -200 45 -200 45 -200 45
4921874212.3687 -4.1842346 -73.28093 -200 45 -200 45 -200 45
4922874329.0548 -4.1978908 -73.196396 -200 45 -200 45 -200 45
4923874445.741 -4.2100911 -73.101669 -200 45 -200 45 -200 45
4924874562.4271 -4.2235355 -73.032059 -200 45 -200 45 -200 45
4925874679.1132 -4.2371693 -72.962204 -200 45 -200 45 -200 45
4926874795.7993 -4.2492385 -72.931381 -200 45 -200 45 -200 45
4927874912.4854 -4.2671118 -72.890083 -200 45 -200 45 -200 45
4928875029.1715 -4.2837706 -72.893204 -200 45 -200 45 -200 45
4929875145.8576 -4.2966309 -72.908096 -200 45 -200 45 -200 45
4930875262.5438 -4.3138227 -72.941628 -200 45 -200 45 -200 45
4931875379.2299 -4.3243928 -72.989174 -200 45 -200 45 -200 45
4932875495.916 -4.3416862 -73.04586 -200 45 -200 45 -200 45
4933875612.6021 -4.3580604 -73.117882 -200 45 -200 45 -200 45
4934875729.2882 -4.3704448 -73.228577 -200 45 -200 45 -200 45
4935875845.9743 -4.384203 -73.324615 -200 45 -200 45 -200 45
4936875962.6604 -4.4004216 -73.448708 -200 45 -200 45 -200 45
4937876079.3466 -4.4125566 -73.556938 -200 45 -200 45 -200 45
4938876196.0327 -4.4223032 -73.709717 -200 45 -200 45 -200 45
4939876312.7188 -4.4311695 -73.861275 -200 45 -200 45 -200 45
4940876429.4049 -4.4404111 -74.055832 -200 45 -200 45 -200 45
4941876546.091 -4.445848 -74.214851 -200 45 -200 45 -200 45
4942876662.7771 -4.4504213 -74.409988 -200 45 -200 45 -200 45
4943876779.4632 -4.4540839 -74.611885 -200 45 -200 45 -200 45
4944876896.1494 -4.4576988 -74.817078 -200 45 -200 45 -200 45
4945877012.8355 -4.4584851 -75.021088 -200 45 -200 45 -200 45
4946877129.5216 -4.456686 -75.24408 -200 45 -200 45 -200 45
4947877246.2077 -4.4583368 -75.433113 -200 45 -200 45 -200 45
4948877362.8938 -4.4517627 -75.673775 -200 45 -200 45 -200 45
4949877479.5799 -4.4469628 -75.897438 -200 45 -200 45 -200 45
4950877596.266 -4.4405789 -76.114403 -200 45 -200 45 -200 45
4951877712.9522 -4.4343834 -76.350281 -200 45 -200 45 -200 45
4952877829.6383 -4.4234452 -76.580383 -200 45 -200 45 -200 45
4953877946.3244 -4.413403 -76.796455 -200 45 -200 45 -200 45
4954878063.0105 -4.4043136 -77.025414 -200 45 -200 45 -200 45
4955878179.6966 -4.3904448 -77.209839 -200 45 -200 45 -200 45
4956878296.3827 -4.3777218 -77.429291 -200 45 -200 45 -200 45
4957878413.0688 -4.3615065 -77.6017 -200 45 -200 45 -200 45
4958878529.755 -4.3449306 -77.814842 -200 45 -200 45 -200 45
4959878646.4411 -4.328959 -77.979988 -200 45 -200 45 -200 45
4960878763.1272 -4.308074 -78.147888 -200 45 -200 45 -200 45
4961878879.8133 -4.2933216 -78.305832 -200 45 -200 45 -200 45
4962878996.4994 -4.2769055 -78.406952 -200 45 -200 45 -200 45
4963879113.1855 -4.2553477 -78.558525 -200 45 -200 45 -200 45
4964879229.8716 -4.2389307 -78.658882 -200 45 -200 45 -200 45
4965879346.5578 -4.2185912 -78.757263 -200 45 -200 45 -200 45
4966879463.2439 -4.1982775 -78.844734 -200 45 -200 45 -200 45
4967879579.93 -4.1801038 -78.915962 -200 45 -200 45 -200 45
4968879696.6161 -4.1604066 -78.972397 -200 45 -200 45 -200 45
4969879813.3022 -4.1445594 -79.030975 -200 45 -200 45 -200 45
4970879929.9883 -4.1230798 -79.034454 -200 45 -200 45 -200 45
4971880046.6744 -4.1049447 -79.038673 -200 45 -200 45 -200 45
4972880163.3606 -4.0902448 -79.036278 -200 45 -200 45 -200 45
4973880280.0467 -4.0708184 -79.005775 -200 45 -200 45 -200 45
4974880396.7328 -4.0589638 -78.969185 -200 45 -200 45 -200 45
4975880513.4189 -4.0394373 -78.93071 -200 45 -200 45 -200 45
4976880630.105 -4.0261197 -78.866661 -200 45 -200 45 -200 45
4977880746.7911 -4.0124426 -78.784134 -200 45 -200 45 -200 45
4978880863.4772 -4.0022445 -78.680191 -200 45 -200 45 -200 45
4979880980.1634 -3.987705 -78.598221 -200 45 -200 45 -200 45
4980881096.8495 -3.9772239 -78.463242 -200 45 -200 45 -200 45
4981881213.5356 -3.9678476 -78.346291 -200 45 -200 45 -200 45
4982881330.2217 -3.9579632 -78.212723 -200 45 -200 45 -200 45
4983881446.9078 -3.9493203 -78.079979 -200 45 -200 45 -200 45
4984881563.5939 -3.9431372 -77.922943 -200 45 -200 45 -200 45
4985881680.28 -3.9367702 -77.78344 -200 45 -200 45 -200 45
4986881796.9662 -3.9341805 -77.612694 -200 45 -200 45 -200 45
4987881913.6523 -3.9320383 -77.448952 -200 45 -200 45 -200 45
4988882030.3384 -3.9310374 -77.29351 -200 45 -200 45 -200 45
4989882147.0245 -3.9298587 -77.120422 -200 45 -200 45 -200 45
4990882263.7106 -3.929826 -76.950211 -200 45 -200 45 -200 45
4991882380.3967 -3.9325042 -76.787964 -200 45 -200 45 -200 45
4992882497.0828 -3.9335811 -76.60685 -200 45 -200 45 -200 45
4993882613.769 -3.9417784 -76.437454 -200 45 -200 45 -200 45
4994882730.4551 -3.9464149 -76.254593 -200 45 -200 45 -200 45
4995882847.1412 -3.9550271 -76.110817 -200 45 -200 45 -200 45
4996882963.8273 -3.9663162 -75.937393 -200 45 -200 45 -200 45
4997883080.5134 -3.9742255 -75.808929 -200 45 -200 45 -200 45
4998883197.1995 -3.9845438 -75.655014 -200 45 -200 45 -200 45
4999883313.8856 -3.998445 -75.493973 -200 45 -200 45 -200 45
5000883430.5718 -4.0103612 -75.384193 -200 45 -200 45 -200 45
5001883547.2579 -4.0251017 -75.252747 -200 45 -200 45 -200 45
5002883663.944 -4.0391569 -75.132294 -200 45 -200 45 -200 45
5003883780.6301 -4.0557194 -75.034119 -200 45 -200 45 -200 45
5004883897.3162 -4.0744395 -74.938438 -200 45 -200 45 -200 45
5005884014.0023 -4.0892887 -74.84687 -200 45 -200 45 -200 45
5006884130.6884 -4.1070676 -74.785751 -200 45 -200 45 -200 45
5007884247.3746 -4.1264739 -74.718338 -200 45 -200 45 -200 45
5008884364.0607 -4.148499 -74.686424 -200 45 -200 45 -200 45
5009884480.7468 -4.1655087 -74.651726 -200 45 -200 45 -200 45
5010884597.4329 -4.1888366 -74.644745 -200 45 -200 45 -200 45
5011884714.119 -4.2077703 -74.641632 -200 45 -200 45 -200 45
5012884830.8051 -4.2264152 -74.63755 -200 45 -200 45 -200 45
5013884947.4912 -4.2490792 -74.669205 -200 45 -200 45 -200 45
5014885064.1774 -4.267436 -74.709259 -200 45 -200 45 -200 45
5015885180.8635 -4.2923269 -74.780075 -200 45 -200 45 -200 45
5016885297.5496 -4.310143 -74.847771 -200 45 -200 45 -200 45
5017885414.2357 -4.3291516 -74.943115 -200 45 -200 45 -200 45
5018885530.9218 -4.3472857 -75.021469 -200 45 -200 45 -200 45
5019885647.6079 -4.3627305 -75.131218 -200 45 -200 45 -200 45
5020885764.294 -4.3803449 -75.277306 -200 45 -200 45 -200 45
5021885880.9802 -4.394824 -75.417969 -200 45 -200 45 -200 45
5022885997.6663 -4.4090223 -75.548599 -200 45 -200 45 -200 45
5023886114.3524 -4.4246764 -75.726555 -200 45 -200 45 -200 45
5024886231.0385 -4.4362473 -75.890305 -200 45 -200 45 -200 45
5025886347.7246 -4.4512811 -76.080696 -200 45 -200 45 -200 45
5026886464.4107 -4.4615989 -76.254654 -200 45 -200 45 -200 45
5027886581.0968 -4.4711061 -76.457207 -200 45 -200 45 -200 45
5028886697.783 -4.4787807 -76.661438 -200 45 -200 45 -200 45
5029886814.4691 -4.487092 -76.878105 -200 45 -200 45 -200 45
5030886931.1552 -4.4915895 -77.093941 -200 45 -200 45 -200 45
5031887047.8413 -4.4957767 -77.306885 -200 45 -200 45 -200 45
5032887164.5274 -4.4929414 -77.53611 -200 45 -200 45 -200 45
5033887281.2135 -4.4965253 -77.742233 -200 45 -200 45 -200 45
5034887397.8997 -4.4918489 -77.958008 -200 45 -200 45 -200 45
5035887514.5858 -4.4864531 -78.178925 -200 45 -200 45 -200 45
5036887631.2719 -4.4828153 -78.397865 -200 45 -200 45 -200 45
5037887747.958 -4.4788752 -78.596733 -200 45 -200 45 -200 45
5038887864.6441 -4.4651289 -78.777939 -200 45 -200 45 -200 45
5039887981.3302 -4.4585762 -78.97123 -200 45 -200 45 -200 45
5040888098.0163 -4.4500055 -79.150276 -200 45 -200 45 -200 45
5041888214.7025 -4.4355307 -79.337067 -200 45 -200 45 -200 45
5042888331.3886 -4.4246612 -79.484116 -200 45 -200 45 -200 45
5043888448.0747 -4.4131637 -79.616707 -200 45 -200 45 -200 45
5044888564.7608 -4.399272 -79.752884 -200 45 -200 45 -200 45
5045888681.4469 -4.3801761 -79.873222 -200 45 -200 45 -200 45
5046888798.133 -4.3609643 -79.99575 -200 45 -200 45 -200 45
5047888914.8191 -4.3444605 -80.083344 -200 45 -200 45 -200 45
5048889031.5053 -4.3277507 -80.157387 -200 45 -200 45 -200 45
5049889148.1914 -4.3065004 -80.222145 -200 45 -200 45 -200 45
5050889264.8775 -4.2924299 -80.295906 -200 45 -200 45 -200 45
5051889381.5636 -4.2731047 -80.336754 -200 45 -200 45 -200 45
5052889498.2497 -4.2557631 -80.353027 -200 45 -200 45 -200 45
5053889614.9358 -4.2396975 -80.349014 -200 45 -200 45 -200 45
5054889731.6219 -4.2187438 -80.354263 -200 45 -200 45 -200 45
5055889848.3081 -4.2007608 -80.306404 -200 45 -200 45 -200 45
5056889964.9942 -4.1845584 -80.286911 -200 45 -200 45 -200 45
5057890081.6803 -4.1697235 -80.24057 -200 45 -200 45 -200 45
5058890198.3664 -4.1569347 -80.148361 -200 45 -200 45 -200 45
5059890315.0525 -4.1403713 -80.078102 -200 45 -200 45 -200 45
5060890431.7386 -4.1251264 -79.96608 -200 45 -200 45 -200 45
5061890548.4247 -4.1149144 -79.872566 -200 45 -200 45 -200 45
5062890665.1109 -4.1009178 -79.737244 -200 45 -200 45 -200 45
5063890781.797 -4.087276 -79.606407 -200 45 -200 45 -200 45
5064890898.4831 -4.0782309 -79.466286 -200 45 -200 45 -200 45
5065891015.1692 -4.0687022 -79.305908 -200 45 -200 45 -200 45
5066891131.8553 -4.0585938 -79.132301 -200 45 -200 45 -200 45
5067891248.5414 -4.0500903 -78.94249 -200 45 -200 45 -200 45
5068891365.2275 -4.0468426 -78.761261 -200 45 -200 45 -200 45
5069891481.9137 -4.037848 -78.572739 -200 45 -200 45 -200 45
5070891598.5998 -4.0353289 -78.381508 -200 45 -200 45 -200 45
5071891715.2859 -4.0282416 -78.164276 -200 45 -200 45 -200 45
5072891831.972 -4.0279198 -77.959602 -200 45 -200 45 -200 45
5073891948.6581 -4.0276213 -77.7397 -200 45 -200 45 -200 45
5074892065.3442 -4.0274138 -77.512245 -200 45 -200 45 -200 45
5075892182.0303 -4.0305438 -77.287918 -200 45 -200 45 -200 45
5076892298.7165 -4.0296216 -77.059227 -200 45 -200 45 -200 45
5077892415.4026 -4.0329237 -76.86911 -200 45 -200 45 -200 45
5078892532.0887 -4.0334983 -76.659363 -200 45 -200 45 -200 45
5079892648.7748 -4.034451 -76.442947 -200 45 -200 45 -200 45
5080892765.4609 -4.0384359 -76.284019 -200 45 -200 45 -200 45
5081892882.147 -4.0419416 -76.098152 -200 45 -200 45 -200 45
5082892998.8331 -4.0487833 -75.903694 -200 45 -200 45 -200 45
5083893115.5193 -4.058259 -75.767159 -200 45 -200 45 -200 45
5084893232.2054 -4.0646172 -75.605843 -200 45 -200 45 -200 45
5085893348.8915 -4.073894 -75.478874 -200 45 -200 45 -200 45
5086893465.5776 -4.0787311 -75.325905 -200 45 -200 45 -200 45
5087893582.2637 -4.0903692 -75.219978 -200 45 -200 45 -200 45
5088893698.9498 -4.1009884 -75.124352 -200 45 -200 45 -200 45
5089893815.6359 -4.1125045 -75.063599 -200 45 -200 45 -200 45
5090893932.3221 -4.1261754 -74.998787 -200 45 -200 45 -200 45
5091894049.0082 -4.138155 -74.927757 -200 45 -200 45 -200 45
5092894165.6943 -4.1581659 -74.937172 -200 45 -200 45 -200 45
5093894282.3804 -4.1747379 -74.905769 -200 45 -200 45 -200 45
5094894399.0665 -4.1909838 -74.929649 -200 45 -200 45 -200 45
5095894515.7526 -4.2082977 -74.937935 -200 45 -200 45 -200 45
5096894632.4387 -4.2237201 -74.989418 -200 45 -200 45 -200 45
5097894749.1249 -4.2425556 -75.050674 -200 45 -200 45 -200 45
5098894865.811 -4.2605419 -75.142036 -200 45 -200 45 -200 45
5099894982.4971 -4.278914 -75.210144 -200 45 -200 45 -200 45
5100895099.1832 -4.296802 -75.315445 -200 45 -200 45 -200 45
5101895215.8693 -4.3190923 -75.447594 -200 45 -200 45 -200 45
5102895332.5554 -4.3372059 -75.551811 -200 45 -200 45 -200 45
5103895449.2415 -4.3549714 -75.690453 -200 45 -200 45 -200 45
5104895565.9277 -4.3687458 -75.855881 -200 45 -200 45 -200 45
5105895682.6138 -4.3902717 -76.041245 -200 45 -200 45 -200 45
5106895799.2999 -4.4043617 -76.206032 -200 45 -200 45 -200 45
5107895915.986 -4.4178295 -76.375244 -200 45 -200 45 -200 45
5108896032.6721 -4.4311404 -76.576828 -200 45 -200 45 -200 45
5109896149.3582 -4.4481573 -76.791832 -200 45 -200 45 -200 45
5110896266.0443 -4.4557047 -76.99366 -200 45 -200 45 -200 45
5111896382.7305 -4.4650497 -77.198395 -200 45 -200 45 -200 45
5112896499.4166 -4.4707918 -77.426346 -200 45 -200 45 -200 45
5113896616.1027 -4.4765034 -77.686821 -200 45 -200 45 -200 45
5114896732.7888 -4.4814377 -77.904427 -200 45 -200 45 -200 45
5115896849.4749 -4.4852581 -78.135933 -200 45 -200 45 -200 45
5116896966.161 -4.4887834 -78.354378 -200 45 -200 45 -200 45
5117897082.8471 -4.4885459 -78.601456 -200 45 -200 45 -200 45
5118897199.5333 -4.4822283 -78.822052 -200 45 -200 45 -200 45
5119897316.2194 -4.4780531 -79.039314 -200 45 -200 45 -200 45
5120897432.9055 -4.4731727 -79.255905 -200 45 -200 45 -200 45
5121897549.5916 -4.4684982 -79.496918 -200 45 -200 45 -200 45
5122897666.2777 -4.4563789 -79.692871 -200 45 -200 45 -200 45
5123897782.9638 -4.446754 -79.890213 -200 45 -200 45 -200 45
5124897899.6499 -4.4376159 -80.056984 -200 45 -200 45 -200 45
5125898016.3361 -4.4269633 -80.237572 -200 45 -200 45 -200 45
5126898133.0222 -4.4085116 -80.411652 -200 45 -200 45 -200 45
5127898249.7083 -4.3954029 -80.574028 -200 45 -200 45 -200 45
5128898366.3944 -4.3788905 -80.709816 -200 45 -200 45 -200 45
5129898483.0805 -4.3589048 -80.855286 -200 45 -200 45 -200 45
5130898599.7666 -4.341907 -80.956955 -200 45 -200 45 -200 45
5131898716.4527 -4.3188033 -81.063515 -200 45 -200 45 -200 45
5132898833.1389 -4.3010411 -81.143364 -200 45 -200 45 -200 45
5133898949.825 -4.281312 -81.224174 -200 45 -200 45 -200 45
5134899066.5111 -4.2616053 -81.279121 -200 45 -200 45 -200 45
5135899183.1972 -4.2414427 -81.313843 -200 45 -200 45 -200 45
5136899299.8833 -4.2231793 -81.341499 -200 45 -200 45 -200 45
5137899416.5694 -4.2015982 -81.369934 -200 45 -200 45 -200 45
5138899533.2555 -4.1812773 -81.367828 -200 45 -200 45 -200 45
5139899649.9417 -4.1607871 -81.36377 -200 45 -200 45 -200 45
5140899766.6278 -4.144712 -81.309677 -200 45 -200 45 -200 45
5141899883.3139 -4.1250958 -81.277382 -200 45 -200 45 -200 45
5142900000 -4.1096339 -81.205536 -200 45 -200 45 -200 45
5143900116.6861 -4.0886269 -81.126144 -200 45 -200 45 -200 45
5144900233.3722 -4.0705914 -81.025856 -200 45 -200 45 -200 45
5145900350.0583 -4.0541911 -80.93853 -200 45 -200 45 -200 45
5146900466.7445 -4.0430388 -80.833443 -200 45 -200 45 -200 45
5147900583.4306 -4.0261574 -80.707222 -200 45 -200 45 -200 45
5148900700.1167 -4.0139728 -80.56929 -200 45 -200 45 -200 45
5149900816.8028 -4.005609 -80.401489 -200 45 -200 45 -200 45
5150900933.4889 -3.9934759 -80.269562 -200 45 -200 45 -200 45
5151901050.175 -3.9831686 -80.118576 -200 45 -200 45 -200 45
5152901166.8611 -3.9744952 -79.929359 -200 45 -200 45 -200 45
5153901283.5473 -3.9674871 -79.763428 -200 45 -200 45 -200 45
5154901400.2334 -3.9608085 -79.585915 -200 45 -200 45 -200 45
5155901516.9195 -3.9604769 -79.404175 -200 45 -200 45 -200 45
5156901633.6056 -3.9558263 -79.220848 -200 45 -200 45 -200 45
5157901750.2917 -3.9570611 -79.033417 -200 45 -200 45 -200 45
5158901866.9778 -3.9571319 -78.860313 -200 45 -200 45 -200 45
5159901983.6639 -3.9595623 -78.665253 -200 45 -200 45 -200 45
5160902100.3501 -3.9606683 -78.476021 -200 45 -200 45 -200 45
5161902217.0362 -3.965203 -78.272751 -200 45 -200 45 -200 45
5162902333.7223 -3.9693074 -78.114006 -200 45 -200 45 -200 45
5163902450.4084 -3.9774146 -77.951843 -200 45 -200 45 -200 45
5164902567.0945 -3.9857438 -77.784111 -200 45 -200 45 -200 45
5165902683.7806 -3.9984429 -77.632988 -200 45 -200 45 -200 45
5166902800.4667 -4.0126514 -77.451302 -200 45 -200 45 -200 45
5167902917.1529 -4.0245347 -77.296791 -200 45 -200 45 -200 45
5168903033.839 -4.0398798 -77.150368 -200 45 -200 45 -200 45
5169903150.5251 -4.0546384 -77.023148 -200 45 -200 45 -200 45
5170903267.2112 -4.0721135 -76.911835 -200 45 -200 45 -200 45
5171903383.8973 -4.0877719 -76.816788 -200 45 -200 45 -200 45
5172903500.5834 -4.1038346 -76.718628 -200 45 -200 45 -200 45
5173903617.2695 -4.124084 -76.618782 -200 45 -200 45 -200 45
5174903733.9557 -4.1434798 -76.550636 -200 45 -200 45 -200 45
5175903850.6418 -4.1636014 -76.505783 -200 45 -200 45 -200 45
5176903967.3279 -4.1848917 -76.424675 -200 45 -200 45 -200 45
5177904084.014 -4.202713 -76.40625 -200 45 -200 45 -200 45
5178904200.7001 -4.2248015 -76.39801 -200 45 -200 45 -200 45
5179904317.3862 -4.2481017 -76.404884 -200 45 -200 45 -200 45
5180904434.0723 -4.2692285 -76.418381 -200 45 -200 45 -200 45
5181904550.7585 -4.2891259 -76.446121 -200 45 -200 45 -200 45
5182904667.4446 -4.3125567 -76.516426 -200 45 -200 45 -200 45
5183904784.1307 -4.3338404 -76.561134 -200 45 -200 45 -200 45
5184904900.8168 -4.3591394 -76.638275 -200 45 -200 45 -200 45
5185905017.5029 -4.3800712 -76.740219 -200 45 -200 45 -200 45
5186905134.189 -4.4005523 -76.876289 -200 45 -200 45 -200 45
5187905250.8751 -4.4189878 -76.974228 -200 45 -200 45 -200 45
5188905367.5613 -4.436358 -77.120445 -200 45 -200 45 -200 45
5189905484.2474 -4.4545846 -77.291374 -200 45 -200 45 -200 45
5190905600.9335 -4.4733462 -77.456688 -200 45 -200 45 -200 45
5191905717.6196 -4.488143 -77.626099 -200 45 -200 45 -200 45
5192905834.3057 -4.5060301 -77.826431 -200 45 -200 45 -200 45
5193905950.9918 -4.5160108 -78.022919 -200 45 -200 45 -200 45
5194906067.6779 -4.52457 -78.209038 -200 45 -200 45 -200 45
5195906184.3641 -4.5347223 -78.444885 -200 45 -200 45 -200 45
5196906301.0502 -4.5452514 -78.667343 -200 45 -200 45 -200 45
5197906417.7363 -4.550271 -78.907394 -200 45 -200 45 -200 45
5198906534.4224 -4.5521669 -79.09919 -200 45 -200 45 -200 45
5199906651.1085 -4.5568366 -79.357346 -200 45 -200 45 -200 45
5200906767.7946 -4.560493 -79.579659 -200 45 -200 45 -200 45
5201906884.4807 -4.5589666 -79.787827 -200 45 -200 45 -200 45
5202907001.1669 -4.5585222 -80.008476 -200 45 -200 45 -200 45
5203907117.853 -4.5547633 -80.263458 -200 45 -200 45 -200 45
5204907234.5391 -4.5443716 -80.485481 -200 45 -200 45 -200 45
5205907351.2252 -4.5383253 -80.725632 -200 45 -200 45 -200 45
5206907467.9113 -4.5273738 -80.926369 -200 45 -200 45 -200 45
5207907584.5974 -4.517858 -81.127731 -200 45 -200 45 -200 45
5208907701.2835 -4.5046892 -81.324303 -200 45 -200 45 -200 45
5209907817.9697 -4.4912453 -81.494446 -200 45 -200 45 -200 45
5210907934.6558 -4.4778423 -81.655006 -200 45 -200 45 -200 45
5211908051.3419 -4.4595923 -81.814926 -200 45 -200 45 -200 45
5212908168.028 -4.4425526 -81.965584 -200 45 -200 45 -200 45
5213908284.7141 -4.4243288 -82.101318 -200 45 -200 45 -200 45
5214908401.4002 -4.4068871 -82.230515 -200 45 -200 45 -200 45
5215908518.0863 -4.388587 -82.327827 -200 45 -200 45 -200 45
5216908634.7725 -4.3678241 -82.41571 -200 45 -200 45 -200 45
5217908751.4586 -4.3489242 -82.472641 -200 45 -200 45 -200 45
5218908868.1447 -4.3313932 -82.526619 -200 45 -200 45 -200 45
5219908984.8308 -4.3083014 -82.575439 -200 45 -200 45 -200 45
5220909101.5169 -4.2892065 -82.58593 -200 45 -200 45 -200 45
5221909218.203 -4.2659783 -82.609787 -200 45 -200 45 -200 45
5222909334.8891 -4.2431426 -82.605263 -200 45 -200 45 -200 45
5223909451.5753 -4.2259035 -82.569145 -200 45 -200 45 -200 45
5224909568.2614 -4.2082667 -82.513542 -200 45 -200 45 -200 45
5225909684.9475 -4.191731 -82.463348 -200 45 -200 45 -200 45
5226909801.6336 -4.1695127 -82.376213 -200 45 -200 45 -200 45
5227909918.3197 -4.1531768 -82.282852 -200 45 -200 45 -200 45
5228910035.0058 -4.1349154 -82.194923 -200 45 -200 45 -200 45
5229910151.6919 -4.1180911 -82.081085 -200 45 -200 45 -200 45
5230910268.3781 -4.1019874 -81.965004 -200 45 -200 45 -200 45
5231910385.0642 -4.0858889 -81.821732 -200 45 -200 45 -200 45
5232910501.7503 -4.0773039 -81.675896 -200 45 -200 45 -200 45
5233910618.4364 -4.0620122 -81.500359 -200 45 -200 45 -200 45
5234910735.1225 -4.052269 -81.332764 -200 45 -200 45 -200 45
5235910851.8086 -4.039607 -81.151711 -200 45 -200 45 -200 45
5236910968.4947 -4.03022 -80.979591 -200 45 -200 45 -200 45
5237911085.1809 -4.0239301 -80.809662 -200 45 -200 45 -200 45
5238911201.867 -4.0147319 -80.619492 -200 45 -200 45 -200 45
5239911318.5531 -4.0046678 -80.412361 -200 45 -200 45 -200 45
5240911435.2392 -4.0061531 -80.218643 -200 45 -200 45 -200 45
5241911551.9253 -4.0035396 -80.039787 -200 45 -200 45 -200 45
5242911668.6114 -4.0033193 -79.84687 -200 45 -200 45 -200 45
5243911785.2976 -4.0029106 -79.65226 -200 45 -200 45 -200 45
5244911901.9837 -4.0073066 -79.448128 -200 45 -200 45 -200 45
5245912018.6698 -4.0067286 -79.250084 -200 45 -200 45 -200 45
5246912135.3559 -4.0111175 -79.07473 -200 45 -200 45 -200 45
5247912252.042 -4.0162554 -78.894897 -200 45 -200 45 -200 45
5248912368.7281 -4.0217214 -78.713356 -200 45 -200 45 -200 45
5249912485.4142 -4.034205 -78.542923 -200 45 -200 45 -200 45
5250912602.1004 -4.0471711 -78.376717 -200 45 -200 45 -200 45
5251912718.7865 -4.0570993 -78.203102 -200 45 -200 45 -200 45
5252912835.4726 -4.0718026 -78.083626 -200 45 -200 45 -200 45
5253912952.1587 -4.0849071 -77.9506 -200 45 -200 45 -200 45
5254913068.8448 -4.1001019 -77.816673 -200 45 -200 45 -200 45
5255913185.5309 -4.1165428 -77.712624 -200 45 -200 45 -200 45
5256913302.217 -4.1329594 -77.602325 -200 45 -200 45 -200 45
5257913418.9032 -4.1568437 -77.537712 -200 45 -200 45 -200 45
5258913535.5893 -4.1728096 -77.478088 -200 45 -200 45 -200 45
5259913652.2754 -4.1906552 -77.394989 -200 45 -200 45 -200 45
5260913768.9615 -4.2112789 -77.352463 -200 45 -200 45 -200 45
5261913885.6476 -4.2348399 -77.307922 -200 45 -200 45 -200 45
5262914002.3337 -4.2551088 -77.330505 -200 45 -200 45 -200 45
5263914119.0198 -4.278194 -77.331741 -200 45 -200 45 -200 45
5264914235.706 -4.2974362 -77.343636 -200 45 -200 45 -200 45
5265914352.3921 -4.3215966 -77.393242 -200 45 -200 45 -200 45
5266914469.0782 -4.3463778 -77.436943 -200 45 -200 45 -200 45
5267914585.7643 -4.3662715 -77.512589 -200 45 -200 45 -200 45
5268914702.4504 -4.3889432 -77.586929 -200 45 -200 45 -200 45
5269914819.1365 -4.4106951 -77.697716 -200 45 -200 45 -200 45
5270914935.8226 -4.4310322 -77.809929 -200 45 -200 45 -200 45
5271915052.5088 -4.448266 -77.973854 -200 45 -200 45 -200 45
5272915169.1949 -4.46873 -78.112755 -200 45 -200 45 -200 45
5273915285.881 -4.4862504 -78.27359 -200 45 -200 45 -200 45
5274915402.5671 -4.5030756 -78.426147 -200 45 -200 45 -200 45
5275915519.2532 -4.5204263 -78.620667 -200 45 -200 45 -200 45
5276915635.9393 -4.5314932 -78.807709 -200 45 -200 45 -200 45
5277915752.6254 -4.5467587 -79.016678 -200 45 -200 45 -200 45
5278915869.3116 -4.5602617 -79.24041 -200 45 -200 45 -200 45
5279915985.9977 -4.568449 -79.464409 -200 45 -200 45 -200 45
5280916102.6838 -4.577291 -79.689186 -200 45 -200 45 -200 45
5281916219.3699 -4.5833926 -79.921158 -200 45 -200 45 -200 45
5282916336.056 -4.5881004 -80.181732 -200 45 -200 45 -200 45
5283916452.7421 -4.59689 -80.423317 -200 45 -200 45 -200 45
5284916569.4282 -4.5934825 -80.653404 -200 45 -200 45 -200 45
5285916686.1144 -4.5911951 -80.900078 -200 45 -200 45 -200 45
5286916802.8005 -4.5899248 -81.143776 -200 45 -200 45 -200 45
5287916919.4866 -4.5833192 -81.380325 -200 45 -200 45 -200 45
5288917036.1727 -4.5782003 -81.616882 -200 45 -200 45 -200 45
5289917152.8588 -4.570446 -81.856323 -200 45 -200 45 -200 45
5290917269.5449 -4.5597367 -82.077103 -200 45 -200 45 -200 45
5291917386.231 -4.5510025 -82.277092 -200 45 -200 45 -200 45
5292917502.9172 -4.5324831 -82.480804 -200 45 -200 45 -200 45
5293917619.6033 -4.52284 -82.656883 -200 45 -200 45 -200 45
5294917736.2894 -4.5097013 -82.848068 -200 45 -200 45 -200 45
5295917852.9755 -4.4900613 -83.010269 -200 45 -200 45 -200 45
5296917969.6616 -4.4714823 -83.162956 -200 45 -200 45 -200 45
5297918086.3477 -4.4512568 -83.295815 -200 45 -200 45 -200 45
5298918203.0338 -4.4318175 -83.415108 -200 45 -200 45 -200 45
5299918319.72 -4.4153156 -83.533218 -200 45 -200 45 -200 45
5300918436.4061 -4.3914356 -83.619934 -200 45 -200 45 -200 45
5301918553.0922 -4.3707795 -83.699478 -200 45 -200 45 -200 45
5302918669.7783 -4.350069 -83.755791 -200 45 -200 45 -200 45
5303918786.4644 -4.3263755 -83.811996 -200 45 -200 45 -200 45
5304918903.1505 -4.3021455 -83.819786 -200 45 -200 45 -200 45
5305919019.8366 -4.2810144 -83.84539 -200 45 -200 45 -200 45
5306919136.5228 -4.2595048 -83.846809 -200 45 -200 45 -200 45
5307919253.2089 -4.2400842 -83.817986 -200 45 -200 45 -200 45
5308919369.895 -4.2201438 -83.789528 -200 45 -200 45 -200 45
5309919486.5811 -4.2013655 -83.732147 -200 45 -200 45 -200 45
5310919603.2672 -4.1798306 -83.677567 -200 45 -200 45 -200 45
5311919719.9533 -4.1611838 -83.581635 -200 45 -200 45 -200 45
5312919836.6394 -4.1438146 -83.483665 -200 45 -200 45 -200 45
5313919953.3256 -4.1279902 -83.38488 -200 45 -200 45 -200 45
5314920070.0117 -4.1107521 -83.256271 -200 45 -200 45 -200 45
5315920186.6978 -4.0960379 -83.122169 -200 45 -200 45 -200 45
5316920303.3839 -4.0816712 -82.97271 -200 45 -200 45 -200 45
5317920420.07 -4.0707297 -82.837723 -200 45 -200 45 -200 45
5318920536.7561 -4.0615163 -82.684212 -200 45 -200 45 -200 45
5319920653.4422 -4.0491838 -82.498314 -200 45 -200 45 -200 45
5320920770.1284 -4.0389915 -82.329697 -200 45 -200 45 -200 45
5321920886.8145 -4.0308814 -82.151817 -200 45 -200 45 -200 45
5322921003.5006 -4.0257125 -81.946358 -200 45 -200 45 -200 45
5323921120.1867 -4.0192342 -81.759926 -200 45 -200 45 -200 45
5324921236.8728 -4.0195775 -81.563957 -200 45 -200 45 -200 45
5325921353.5589 -4.0204258 -81.360054 -200 45 -200 45 -200 45
5326921470.245 -4.0168476 -81.15509 -200 45 -200 45 -200 45
5327921586.9312 -4.0193181 -80.952438 -200 45 -200 45 -200 45
5328921703.6173 -4.0251117 -80.768372 -200 45 -200 45 -200 45
5329921820.3034 -4.0261669 -80.571335 -200 45 -200 45 -200 45
5330921936.9895 -4.033103 -80.375107 -200 45 -200 45 -200 45
5331922053.6756 -4.0399065 -80.170197 -200 45 -200 45 -200 45
5332922170.3617 -4.0493708 -79.998497 -200 45 -200 45 -200 45
5333922287.0478 -4.0591016 -79.828484 -200 45 -200 45 -200 45
5334922403.734 -4.0734615 -79.648758 -200 45 -200 45 -200 45
5335922520.4201 -4.0863628 -79.480263 -200 45 -200 45 -200 45
5336922637.1062 -4.099102 -79.346733 -200 45 -200 45 -200 45
5337922753.7923 -4.1175461 -79.195244 -200 45 -200 45 -200 45
5338922870.4784 -4.1327181 -79.058975 -200 45 -200 45 -200 45
5339922987.1645 -4.1524639 -78.936188 -200 45 -200 45 -200 45
5340923103.8506 -4.1694617 -78.847557 -200 45 -200 45 -200 45
5341923220.5368 -4.18922 -78.723778 -200 45 -200 45 -200 45
5342923337.2229 -4.2101288 -78.647186 -200 45 -200 45 -200 45
5343923453.909 -4.2332954 -78.589539 -200 45 -200 45 -200 45
5344923570.5951 -4.2526717 -78.517509 -200 45 -200 45 -200 45
5345923687.2812 -4.2755046 -78.497673 -200 45 -200 45 -200 45
5346923803.9673 -4.3004971 -78.480949 -200 45 -200 45 -200 45
5347923920.6534 -4.322958 -78.473381 -200 45 -200 45 -200 45
5348924037.3396 -4.3434358 -78.490662 -200 45 -200 45 -200 45
5349924154.0257 -4.3711629 -78.516296 -200 45 -200 45 -200 45
5350924270.7118 -4.3913908 -78.550873 -200 45 -200 45 -200 45
5351924387.3979 -4.4128284 -78.613358 -200 45 -200 45 -200 45
5352924504.084 -4.4344993 -78.686417 -200 45 -200 45 -200 45
5353924620.7701 -4.4581962 -78.779549 -200 45 -200 45 -200 45
5354924737.4562 -4.4823651 -78.910591 -200 45 -200 45 -200 45
5355924854.1424 -4.5000491 -79.017075 -200 45 -200 45 -200 45
5356924970.8285 -4.5199008 -79.136795 -200 45 -200 45 -200 45
5357925087.5146 -4.5354877 -79.306122 -200 45 -200 45 -200 45
5358925204.2007 -4.5529323 -79.467445 -200 45 -200 45 -200 45
5359925320.8868 -4.5694194 -79.633926 -200 45 -200 45 -200 45
5360925437.5729 -4.5854545 -79.84272 -200 45 -200 45 -200 45
5361925554.259 -4.6006031 -80.047371 -200 45 -200 45 -200 45
5362925670.9452 -4.6116929 -80.249298 -200 45 -200 45 -200 45
5363925787.6313 -4.6260595 -80.496468 -200 45 -200 45 -200 45
5364925904.3174 -4.6318345 -80.712326 -200 45 -200 45 -200 45
5365926021.0035 -4.6358814 -80.93911 -200 45 -200 45 -200 45
5366926137.6896 -4.6441722 -81.182487 -200 45 -200 45 -200 45
5367926254.3757 -4.6476989 -81.423927 -200 45 -200 45 -200 45
5368926371.0618 -4.6465855 -81.656914 -200 45 -200 45 -200 45
5369926487.748 -4.6475716 -81.912216 -200 45 -200 45 -200 45
5370926604.4341 -4.6441445 -82.152031 -200 45 -200 45 -200 45
5371926721.1202 -4.638514 -82.38179 -200 45 -200 45 -200 45
5372926837.8063 -4.6327257 -82.609161 -200 45 -200 45 -200 45
5373926954.4924 -4.6256394 -82.818756 -200 45 -200 45 -200 45
5374927071.1785 -4.614553 -83.061539 -200 45 -200 45 -200 45
5375927187.8646 -4.6083212 -83.271461 -200 45 -200 45 -200 45
5376927304.5508 -4.5937829 -83.47538 -200 45 -200 45 -200 45
5377927421.2369 -4.579587 -83.672165 -200 45 -200 45 -200 45
5378927537.923 -4.5625377 -83.833298 -200 45 -200 45 -200 45
5379927654.6091 -4.5473347 -84.022758 -200 45 -200 45 -200 45
5380927771.2952 -4.5254617 -84.183273 -200 45 -200 45 -200 45
5381927887.9813 -4.5055437 -84.296539 -200 45 -200 45 -200 45
5382928004.6674 -4.4845572 -84.43129 -200 45 -200 45 -200 45
5383928121.3536 -4.4649639 -84.547943 -200 45 -200 45 -200 45
5384928238.0397 -4.4418545 -84.624275 -200 45 -200 45 -200 45
5385928354.7258 -4.4213638 -84.711937 -200 45 -200 45 -200 45
5386928471.4119 -4.397459 -84.754555 -200 45 -200 45 -200 45
5387928588.098 -4.3768458 -84.813034 -200 45 -200 45 -200 45
5388928704.7841 -4.3546844 -84.84848 -200 45 -200 45 -200 45
5389928821.4702 -4.3341331 -84.854202 -200 45 -200 45 -200 45
5390928938.1564 -4.3104835 -84.847435 -200 45 -200 45 -200 45
5391929054.8425 -4.2872925 -84.8162 -200 45 -200 45 -200 45
5392929171.5286 -4.2701793 -84.792206 -200 45 -200 45 -200 45
5393929288.2147 -4.2469683 -84.753761 -200 45 -200 45 -200 45
5394929404.9008 -4.2269111 -84.69014 -200 45 -200 45 -200 45
5395929521.5869 -4.2132688 -84.579247 -200 45 -200 45 -200 45
5396929638.273 -4.1908112 -84.496513 -200 45 -200 45 -200 45
5397929754.9592 -4.1759868 -84.393532 -200 45 -200 45 -200 45
5398929871.6453 -4.1591935 -84.274483 -200 45 -200 45 -200 45
5399929988.3314 -4.1450243 -84.145012 -200 45 -200 45 -200 45
5400930105.0175 -4.129283 -84.004295 -200 45 -200 45 -200 45
5401930221.7036 -4.1167455 -83.862221 -200 45 -200 45 -200 45
5402930338.3897 -4.1048679 -83.69912 -200 45 -200 45 -200 45
5403930455.0758 -4.0951843 -83.51062 -200 45 -200 45 -200 45
5404930571.762 -4.0877552 -83.323868 -200 45 -200 45 -200 45
5405930688.4481 -4.0818601 -83.165596 -200 45 -200 45 -200 45
5406930805.1342 -4.0763502 -82.964348 -200 45 -200 45 -200 45
5407930921.8203 -4.0728555 -82.761383 -200 45 -200 45 -200 45
5408931038.5064 -4.0667481 -82.580627 -200 45 -200 45 -200 45
5409931155.1925 -4.0692415 -82.388908 -200 45 -200 45 -200 45
5410931271.8786 -4.0681181 -82.196548 -200 45 -200 45 -200 45
5411931388.5648 -4.0673766 -81.980431 -200 45 -200 45 -200 45
5412931505.2509 -4.072176 -81.771507 -200 45 -200 45 -200 45
5413931621.937 -4.0772066 -81.582085 -200 45 -200 45 -200 45
5414931738.6231 -4.0849357 -81.373642 -200 45 -200 45 -200 45
5415931855.3092 -4.0936747 -81.194252 -200 45 -200 45 -200 45
5416931971.9953 -4.1001754 -80.997025 -200 45 -200 45 -200 45
5417932088.6814 -4.1106782 -80.832268 -200 45 -200 45 -200 45
5418932205.3676 -4.121635 -80.637375 -200 45 -200 45 -200 45
5419932322.0537 -4.1362071 -80.487793 -200 45 -200 45 -200 45
5420932438.7398 -4.1506281 -80.32299 -200 45 -200 45 -200 45
5421932555.4259 -4.1697259 -80.176094 -200 45 -200 45 -200 45
5422932672.112 -4.1868587 -80.041313 -200 45 -200 45 -200 45
5423932788.7981 -4.2069521 -79.907387 -200 45 -200 45 -200 45
5424932905.4842 -4.2258048 -79.808456 -200 45 -200 45 -200 45
5425933022.1704 -4.2479868 -79.705208 -200 45 -200 45 -200 45
5426933138.8565 -4.2640047 -79.624062 -200 45 -200 45 -200 45
5427933255.5426 -4.2876983 -79.567986 -200 45 -200 45 -200 45
5428933372.2287 -4.3138099 -79.533722 -200 45 -200 45 -200 45
5429933488.9148 -4.3367643 -79.485153 -200 45 -200 45 -200 45
5430933605.6009 -4.3581266 -79.44474 -200 45 -200 45 -200 45
5431933722.287 -4.3816071 -79.443291 -200 45 -200 45 -200 45
5432933838.9732 -4.4029303 -79.456451 -200 45 -200 45 -200 45
5433933955.6593 -4.42799 -79.469467 -200 45 -200 45 -200 45
5434934072.3454 -4.4508233 -79.52536 -200 45 -200 45 -200 45
5435934189.0315 -4.4755182 -79.599152 -200 45 -200 45 -200 45
5436934305.7176 -4.4980707 -79.675606 -200 45 -200 45 -200 45
5437934422.4037 -4.5239329 -79.765213 -200 45 -200 45 -200 45
5438934539.0898 -4.5478549 -79.889168 -200 45 -200 45 -200 45
5439934655.776 -4.5680156 -79.999886 -200 45 -200 45 -200 45
5440934772.4621 -4.5870805 -80.145401 -200 45 -200 45 -200 45
5441934889.1482 -4.6063538 -80.306213 -200 45 -200 45 -200 45
5442935005.8343 -4.6228743 -80.465034 -200 45 -200 45 -200 45
5443935122.5204 -4.6390824 -80.649811 -200 45 -200 45 -200 45
5444935239.2065 -4.6506572 -80.85836 -200 45 -200 45 -200 45
5445935355.8926 -4.6679254 -81.061111 -200 45 -200 45 -200 45
5446935472.5788 -4.674859 -81.28875 -200 45 -200 45 -200 45
5447935589.2649 -4.6844325 -81.489304 -200 45 -200 45 -200 45
5448935705.951 -4.6951632 -81.747208 -200 45 -200 45 -200 45
5449935822.6371 -4.6975846 -81.976761 -200 45 -200 45 -200 45
5450935939.3232 -4.703692 -82.215271 -200 45 -200 45 -200 45
5451936056.0093 -4.7014551 -82.466255 -200 45 -200 45 -200 45
5452936172.6954 -4.6988258 -82.69545 -200 45 -200 45 -200 45
5453936289.3816 -4.700336 -82.951843 -200 45 -200 45 -200 45
5454936406.0677 -4.6943741 -83.179321 -200 45 -200 45 -200 45
5455936522.7538 -4.6947317 -83.42778 -200 45 -200 45 -200 45
5456936639.4399 -4.6853027 -83.668694 -200 45 -200 45 -200 45
5457936756.126 -4.6766009 -83.899963 -200 45 -200 45 -200 45
5458936872.8121 -4.6687326 -84.139534 -200 45 -200 45 -200 45
5459936989.4983 -4.6524911 -84.356201 -200 45 -200 45 -200 45
5460937106.1844 -4.6372519 -84.568329 -200 45 -200 45 -200 45
5461937222.8705 -4.6196914 -84.786469 -200 45 -200 45 -200 45
5462937339.5566 -4.6034536 -84.966385 -200 45 -200 45 -200 45
5463937456.2427 -4.5895095 -85.130989 -200 45 -200 45 -200 45
5464937572.9288 -4.5708957 -85.285652 -200 45 -200 45 -200 45
5465937689.6149 -4.5504403 -85.427513 -200 45 -200 45 -200 45
5466937806.3011 -4.528738 -85.521919 -200 45 -200 45 -200 45
5467937922.9872 -4.5023513 -85.66748 -200 45 -200 45 -200 45
5468938039.6733 -4.4823656 -85.764023 -200 45 -200 45 -200 45
5469938156.3594 -4.4602838 -85.871132 -200 45 -200 45 -200 45
5470938273.0455 -4.439424 -85.923317 -200 45 -200 45 -200 45
5471938389.7316 -4.4178057 -85.968307 -200 45 -200 45 -200 45
5472938506.4177 -4.392962 -85.987823 -200 45 -200 45 -200 45
5473938623.1039 -4.3688741 -85.995796 -200 45 -200 45 -200 45
5474938739.79 -4.346283 -86.001587 -200 45 -200 45 -200 45
5475938856.4761 -4.3220849 -85.957916 -200 45 -200 45 -200 45
5476938973.1622 -4.3009348 -85.959343 -200 45 -200 45 -200 45
5477939089.8483 -4.277 -85.918945 -200 45 -200 45 -200 45
5478939206.5344 -4.2547998 -85.837883 -200 45 -200 45 -200 45
5479939323.2205 -4.2349963 -85.764069 -200 45 -200 45 -200 45
5480939439.9067 -4.2193804 -85.646904 -200 45 -200 45 -200 45
5481939556.5928 -4.1998334 -85.539589 -200 45 -200 45 -200 45
5482939673.2789 -4.1820149 -85.400528 -200 45 -200 45 -200 45
5483939789.965 -4.1666203 -85.270706 -200 45 -200 45 -200 45
5484939906.6511 -4.1520658 -85.134315 -200 45 -200 45 -200 45
5485940023.3372 -4.1385975 -84.989433 -200 45 -200 45 -200 45
5486940140.0233 -4.1277137 -84.821404 -200 45 -200 45 -200 45
5487940256.7095 -4.1146264 -84.659111 -200 45 -200 45 -200 45
5488940373.3956 -4.1063933 -84.488777 -200 45 -200 45 -200 45
5489940490.0817 -4.0991197 -84.280632 -200 45 -200 45 -200 45
5490940606.7678 -4.0950255 -84.089272 -200 45 -200 45 -200 45
5491940723.4539 -4.0909872 -83.900673 -200 45 -200 45 -200 45
5492940840.14 -4.0833707 -83.701057 -200 45 -200 45 -200 45
5493940956.8261 -4.0806847 -83.491486 -200 45 -200 45 -200 45
5494941073.5123 -4.0840364 -83.287971 -200 45 -200 45 -200 45
5495941190.1984 -4.0844593 -83.112907 -200 45 -200 45 -200 45
5496941306.8845 -4.0839758 -82.880363 -200 45 -200 45 -200 45
5497941423.5706 -4.0910349 -82.70697 -200 45 -200 45 -200 45
5498941540.2567 -4.0984769 -82.484116 -200 45 -200 45 -200 45
5499941656.9428 -4.1063771 -82.278458 -200 45 -200 45 -200 45
5500941773.6289 -4.114625 -82.102921 -200 45 -200 45 -200 45
5501941890.3151 -4.1242032 -81.908226 -200 45 -200 45 -200 45
5502942007.0012 -4.1396198 -81.731407 -200 45 -200 45 -200 45
5503942123.6873 -4.1492271 -81.554337 -200 45 -200 45 -200 45
5504942240.3734 -4.1632533 -81.384834 -200 45 -200 45 -200 45
5505942357.0595 -4.1825023 -81.235802 -200 45 -200 45 -200 45
5506942473.7456 -4.1973753 -81.097572 -200 45 -200 45 -200 45
5507942590.4317 -4.2135649 -80.95224 -200 45 -200 45 -200 45
5508942707.1179 -4.2368569 -80.837578 -200 45 -200 45 -200 45
5509942823.804 -4.2590384 -80.774422 -200 45 -200 45 -200 45
5510942940.4901 -4.2750354 -80.664604 -200 45 -200 45 -200 45
5511943057.1762 -4.2965984 -80.594299 -200 45 -200 45 -200 45
5512943173.8623 -4.3249874 -80.531799 -200 45 -200 45 -200 45
5513943290.5484 -4.3470082 -80.485565 -200 45 -200 45 -200 45
5514943407.2345 -4.3702927 -80.446579 -200 45 -200 45 -200 45
5515943523.9207 -4.3965812 -80.419014 -200 45 -200 45 -200 45
5516943640.6068 -4.4240165 -80.449272 -200 45 -200 45 -200 45
5517943757.2929 -4.4463596 -80.483528 -200 45 -200 45 -200 45
5518943873.979 -4.47227 -80.540611 -200 45 -200 45 -200 45
5519943990.6651 -4.4949474 -80.579651 -200 45 -200 45 -200 45
5520944107.3512 -4.5183163 -80.654701 -200 45 -200 45 -200 45
5521944224.0373 -4.5463905 -80.718941 -200 45 -200 45 -200 45
5522944340.7235 -4.5707216 -80.817894 -200 45 -200 45 -200 45
5523944457.4096 -4.5899925 -80.972626 -200 45 -200 45 -200 45
5524944574.0957 -4.6142302 -81.107025 -200 45 -200 45 -200 45
5525944690.7818 -4.6315451 -81.269073 -200 45 -200 45 -200 45
5526944807.4679 -4.6488023 -81.415298 -200 45 -200 45 -200 45
5527944924.154 -4.6704202 -81.614502 -200 45 -200 45 -200 45
5528945040.8401 -4.6860313 -81.818382 -200 45 -200 45 -200 45
5529945157.5263 -4.7001934 -82.038383 -200 45 -200 45 -200 45
5530945274.2124 -4.7109756 -82.223022 -200 45 -200 45 -200 45
5531945390.8985 -4.7273269 -82.433029 -200 45 -200 45 -200 45
5532945507.5846 -4.7373505 -82.675079 -200 45 -200 45 -200 45
5533945624.2707 -4.7440858 -82.909828 -200 45 -200 45 -200 45
5534945740.9568 -4.7487445 -83.151588 -200 45 -200 45 -200 45
5535945857.6429 -4.7524376 -83.427979 -200 45 -200 45 -200 45
5536945974.3291 -4.7541537 -83.66021 -200 45 -200 45 -200 45
5537946091.0152 -4.7566566 -83.92691 -200 45 -200 45 -200 45
5538946207.7013 -4.7564898 -84.160248 -200 45 -200 45 -200 45
5539946324.3874 -4.7529097 -84.37941 -200 45 -200 45 -200 45
5540946441.0735 -4.7481208 -84.651375 -200 45 -200 45 -200 45
5541946557.7596 -4.7418108 -84.864868 -200 45 -200 45 -200 45
5542946674.4457 -4.7303772 -85.131325 -200 45 -200 45 -200 45
5543946791.1319 -4.7154288 -85.355415 -200 45 -200 45 -200 45
5544946907.818 -4.7015858 -85.553818 -200 45 -200 45 -200 45
5545947024.5041 -4.6899419 -85.785316 -200 45 -200 45 -200 45
5546947141.1902 -4.6756225 -85.942703 -200 45 -200 45 -200 45
5547947257.8763 -4.6622362 -86.133476 -200 45 -200 45 -200 45
5548947374.5624 -4.6408682 -86.299194 -200 45 -200 45 -200 45
5549947491.2485 -4.6253614 -86.448853 -200 45 -200 45 -200 45
5550947607.9347 -4.6064258 -86.602943 -200 45 -200 45 -200 45
5551947724.6208 -4.5857029 -86.724503 -200 45 -200 45 -200 45
5552947841.3069 -4.5638647 -86.832916 -200 45 -200 45 -200 45
5553947957.993 -4.5405192 -86.926651 -200 45 -200 45 -200 45
5554948074.6791 -4.5199046 -87.014565 -200 45 -200 45 -200 45
5555948191.3652 -4.4980159 -87.047935 -200 45 -200 45 -200 45
5556948308.0513 -4.4788942 -87.082886 -200 45 -200 45 -200 45
5557948424.7375 -4.4567652 -87.095818 -200 45 -200 45 -200 45
5558948541.4236 -4.4333205 -87.121536 -200 45 -200 45 -200 45
5559948658.1097 -4.4052706 -87.112404 -200 45 -200 45 -200 45
5560948774.7958 -4.3905845 -87.074242 -200 45 -200 45 -200 45
5561948891.4819 -4.3676496 -87.035881 -200 45 -200 45 -200 45
5562949008.168 -4.3476954 -86.996681 -200 45 -200 45 -200 45
5563949124.8541 -4.3287106 -86.899651 -200 45 -200 45 -200 45
5564949241.5403 -4.3141084 -86.787689 -200 45 -200 45 -200 45
5565949358.2264 -4.2974935 -86.685654 -200 45 -200 45 -200 45
5566949474.9125 -4.2783532 -86.560646 -200 45 -200 45 -200 45
5567949591.5986 -4.2613959 -86.44429 -200 45 -200 45 -200 45
5568949708.2847 -4.2499256 -86.294296 -200 45 -200 45 -200 45
5569949824.9708 -4.2379704 -86.176155 -200 45 -200 45 -200 45
5570949941.6569 -4.2253523 -85.999695 -200 45 -200 45 -200 45
5571950058.3431 -4.215764 -85.82679 -200 45 -200 45 -200 45
5572950175.0292 -4.2095723 -85.623894 -200 45 -200 45 -200 45
5573950291.7153 -4.205183 -85.446503 -200 45 -200 45 -200 45
5574950408.4014 -4.1995115 -85.27256 -200 45 -200 45 -200 45
5575950525.0875 -4.1922107 -85.069031 -200 45 -200 45 -200 45
5576950641.7736 -4.1898837 -84.871315 -200 45 -200 45 -200 45
5577950758.4597 -4.1903052 -84.649452 -200 45 -200 45 -200 45
5578950875.1459 -4.1937551 -84.448326 -200 45 -200 45 -200 45
5579950991.832 -4.1964278 -84.238953 -200 45 -200 45 -200 45
5580951108.5181 -4.2028575 -84.004547 -200 45 -200 45 -200 45
5581951225.2042 -4.2084079 -83.81105 -200 45 -200 45 -200 45
5582951341.8903 -4.2176762 -83.598885 -200 45 -200 45 -200 45
5583951458.5764 -4.2254167 -83.374702 -200 45 -200 45 -200 45
5584951575.2625 -4.2359862 -83.184227 -200 45 -200 45 -200 45
5585951691.9487 -4.2525902 -83.007874 -200 45 -200 45 -200 45
5586951808.6348 -4.2660236 -82.823647 -200 45 -200 45 -200 45
5587951925.3209 -4.2838001 -82.621986 -200 45 -200 45 -200 45
5588952042.007 -4.2998924 -82.446114 -200 45 -200 45 -200 45
5589952158.6931 -4.3204036 -82.255806 -200 45 -200 45 -200 45
5590952275.3792 -4.343926 -82.110321 -200 45 -200 45 -200 45
5591952392.0653 -4.3615103 -81.937515 -200 45 -200 45 -200 45
5592952508.7515 -4.3872766 -81.823074 -200 45 -200 45 -200 45
5593952625.4376 -4.4091754 -81.67849 -200 45 -200 45 -200 45
5594952742.1237 -4.429585 -81.55854 -200 45 -200 45 -200 45
5595952858.8098 -4.460505 -81.449417 -200 45 -200 45 -200 45
5596952975.4959 -4.487195 -81.324944 -200 45 -200 45 -200 45
5597953092.182 -4.5157189 -81.246155 -200 45 -200 45 -200 45
5598953208.8681 -4.5418324 -81.131966 -200 45 -200 45 -200 45
5599953325.5543 -4.5701847 -81.065804 -200 45 -200 45 -200 45
5600953442.2404 -4.5945539 -81.021843 -200 45 -200 45 -200 45
5601953558.9265 -4.6207523 -80.989098 -200 45 -200 45 -200 45
5602953675.6126 -4.646255 -80.931786 -200 45 -200 45 -200 45
5603953792.2987 -4.6676168 -80.939751 -200 45 -200 45 -200 45
5604953908.9848 -4.6905775 -80.915649 -200 45 -200 45 -200 45
5605954025.6709 -4.717165 -80.920662 -200 45 -200 45 -200 45
5606954142.3571 -4.7352672 -80.935081 -200 45 -200 45 -200 45
5607954259.0432 -4.7482767 -80.991493 -200 45 -200 45 -200 45
5608954375.7293 -4.7658701 -81.010826 -200 45 -200 45 -200 45
5609954492.4154 -4.7761517 -81.114876 -200 45 -200 45 -200 45
5610954609.1015 -4.7921205 -81.193268 -200 45 -200 45 -200 45
5611954725.7876 -4.7998438 -81.30983 -200 45 -200 45 -200 45
5612954842.4737 -4.8064198 -81.420654 -200 45 -200 45 -200 45
5613954959.1599 -4.8098769 -81.581276 -200 45 -200 45 -200 45
5614955075.846 -4.8126941 -81.717979 -200 45 -200 45 -200 45
5615955192.5321 -4.8115773 -81.901131 -200 45 -200 45 -200 45
5616955309.2182 -4.8067942 -82.100571 -200 45 -200 45 -200 45
5617955425.9043 -4.8015141 -82.314316 -200 45 -200 45 -200 45
5618955542.5904 -4.7978506 -82.541649 -200 45 -200 45 -200 45
5619955659.2765 -4.7876568 -82.77552 -200 45 -200 45 -200 45
5620955775.9627 -4.7808852 -82.99189 -200 45 -200 45 -200 45
5621955892.6488 -4.7726655 -83.233475 -200 45 -200 45 -200 45
5622956009.3349 -4.7559772 -83.480896 -200 45 -200 45 -200 45
5623956126.021 -4.7442188 -83.741005 -200 45 -200 45 -200 45
5624956242.7071 -4.7286706 -83.980255 -200 45 -200 45 -200 45
5625956359.3932 -4.7107811 -84.206238 -200 45 -200 45 -200 45
5626956476.0793 -4.6904111 -84.454231 -200 45 -200 45 -200 45
5627956592.7655 -4.6709466 -84.701797 -200 45 -200 45 -200 45
5628956709.4516 -4.6512456 -84.927765 -200 45 -200 45 -200 45
5629956826.1377 -4.6286502 -85.162529 -200 45 -200 45 -200 45
5630956942.8238 -4.6058807 -85.368248 -200 45 -200 45 -200 45
5631957059.5099 -4.5808949 -85.572945 -200 45 -200 45 -200 45
5632957176.196 -4.5535302 -85.789467 -200 45 -200 45 -200 45
5633957292.8821 -4.5257268 -85.980217 -200 45 -200 45 -200 45
5634957409.5683 -4.5002966 -86.135162 -200 45 -200 45 -200 45
5635957526.2544 -4.4732738 -86.301399 -200 45 -200 45 -200 45
5636957642.9405 -4.4457197 -86.441833 -200 45 -200 45 -200 45
5637957759.6266 -4.4201245 -86.600838 -200 45 -200 45 -200 45
5638957876.3127 -4.395669 -86.707535 -200 45 -200 45 -200 45
5639957992.9988 -4.3718343 -86.810722 -200 45 -200 45 -200 45
5640958109.6849 -4.3434062 -86.900482 -200 45 -200 45 -200 45
5641958226.3711 -4.3213511 -86.959053 -200 45 -200 45 -200 45
5642958343.0572 -4.2985277 -87.00798 -200 45 -200 45 -200 45
5643958459.7433 -4.2756276 -87.035339 -200 45 -200 45 -200 45
5644958576.4294 -4.2523503 -87.04808 -200 45 -200 45 -200 45
5645958693.1155 -4.2319126 -87.056778 -200 45 -200 45 -200 45
5646958809.8016 -4.2115297 -87.007683 -200 45 -200 45 -200 45
5647958926.4877 -4.1900554 -86.984619 -200 45 -200 45 -200 45
5648959043.1739 -4.1747842 -86.931313 -200 45 -200 45 -200 45
5649959159.86 -4.1556535 -86.850639 -200 45 -200 45 -200 45
5650959276.5461 -4.1357613 -86.777649 -200 45 -200 45 -200 45
5651959393.2322 -4.1228309 -86.663589 -200 45 -200 45 -200 45
5652959509.9183 -4.1069345 -86.564484 -200 45 -200 45 -200 45
5653959626.6044 -4.0956345 -86.436958 -200 45 -200 45 -200 45
5654959743.2905 -4.0857568 -86.33728 -200 45 -200 45 -200 45
5655959859.9767 -4.0742598 -86.169052 -200 45 -200 45 -200 45
5656959976.6628 -4.066184 -86.01506 -200 45 -200 45 -200 45
5657960093.3489 -4.0589595 -85.853325 -200 45 -200 45 -200 45
5658960210.035 -4.0543828 -85.669456 -200 45 -200 45 -200 45
5659960326.7211 -4.0514674 -85.509094 -200 45 -200 45 -200 45
5660960443.4072 -4.0482941 -85.343338 -200 45 -200 45 -200 45
5661960560.0933 -4.0486274 -85.154121 -200 45 -200 45 -200 45
5662960676.7795 -4.0455041 -84.964195 -200 45 -200 45 -200 45
5663960793.4656 -4.0498409 -84.784363 -200 45 -200 45 -200 45
5664960910.1517 -4.0526772 -84.598015 -200 45 -200 45 -200 45
5665961026.8378 -4.0585203 -84.425705 -200 45 -200 45 -200 45
5666961143.5239 -4.0627251 -84.245453 -200 45 -200 45 -200 45
5667961260.21 -4.0721507 -84.068382 -200 45 -200 45 -200 45
5668961376.8961 -4.0868053 -83.892525 -200 45 -200 45 -200 45
5669961493.5823 -4.093379 -83.73703 -200 45 -200 45 -200 45
5670961610.2684 -4.1058645 -83.556725 -200 45 -200 45 -200 45
5671961726.9545 -4.119267 -83.406197 -200 45 -200 45 -200 45
5672961843.6406 -4.1363735 -83.270309 -200 45 -200 45 -200 45
5673961960.3267 -4.1541572 -83.133568 -200 45 -200 45 -200 45
5674962077.0128 -4.1714501 -82.994644 -200 45 -200 45 -200 45
5675962193.6989 -4.1892028 -82.868256 -200 45 -200 45 -200 45
5676962310.3851 -4.2140646 -82.771454 -200 45 -200 45 -200 45
5677962427.0712 -4.2312727 -82.667633 -200 45 -200 45 -200 45
5678962543.7573 -4.2522683 -82.584908 -200 45 -200 45 -200 45
5679962660.4434 -4.2783942 -82.520752 -200 45 -200 45 -200 45
5680962777.1295 -4.3021817 -82.464592 -200 45 -200 45 -200 45
5681962893.8156 -4.3243079 -82.427078 -200 45 -200 45 -200 45
5682963010.5018 -4.3459601 -82.424065 -200 45 -200 45 -200 45
5683963127.1879 -4.3699331 -82.400925 -200 45 -200 45 -200 45
5684963243.874 -4.4000344 -82.421669 -200 45 -200 45 -200 45
5685963360.5601 -4.418992 -82.439964 -200 45 -200 45 -200 45
5686963477.2462 -4.4460416 -82.476089 -200 45 -200 45 -200 45
5687963593.9323 -4.4700723 -82.546143 -200 45 -200 45 -200 45
5688963710.6184 -4.4916067 -82.604012 -200 45 -200 45 -200 45
5689963827.3046 -4.5142355 -82.704048 -200 45 -200 45 -200 45
5690963943.9907 -4.539516 -82.803673 -200 45 -200 45 -200 45
5691964060.6768 -4.5602455 -82.918839 -200 45 -200 45 -200 45
5692964177.3629 -4.5809383 -83.056976 -200 45 -200 45 -200 45
5693964294.049 -4.6014643 -83.208389 -200 45 -200 45 -200 45
5694964410.7351 -4.6218805 -83.382767 -200 45 -200 45 -200 45
5695964527.4212 -4.6387229 -83.564873 -200 45 -200 45 -200 45
5696964644.1074 -4.6587982 -83.740479 -200 45 -200 45 -200 45
5697964760.7935 -4.6658039 -83.945381 -200 45 -200 45 -200 45
5698964877.4796 -4.6803002 -84.171021 -200 45 -200 45 -200 45
5699964994.1657 -4.690486 -84.380714 -200 45 -200 45 -200 45
5700965110.8518 -4.6999354 -84.622772 -200 45 -200 45 -200 45
5701965227.5379 -4.7074957 -84.839539 -200 45 -200 45 -200 45
5702965344.224 -4.7154255 -85.075081 -200 45 -200 45 -200 45
5703965460.9102 -4.7180681 -85.335907 -200 45 -200 45 -200 45
5704965577.5963 -4.7202973 -85.557144 -200 45 -200 45 -200 45
5705965694.2824 -4.7203059 -85.801025 -200 45 -200 45 -200 45
5706965810.9685 -4.7196965 -86.05619 -200 45 -200 45 -200 45
5707965927.6546 -4.7163424 -86.300743 -200 45 -200 45 -200 45
5708966044.3407 -4.7103248 -86.531944 -200 45 -200 45 -200 45
5709966161.0268 -4.7040186 -86.775795 -200 45 -200 45 -200 45
5710966277.713 -4.6934748 -86.994774 -200 45 -200 45 -200 45
5711966394.3991 -4.6817837 -87.204437 -200 45 -200 45 -200 45
5712966511.0852 -4.6691895 -87.438469 -200 45 -200 45 -200 45
5713966627.7713 -4.6587219 -87.592476 -200 45 -200 45 -200 45
5714966744.4574 -4.639133 -87.819778 -200 45 -200 45 -200 45
5715966861.1435 -4.6207123 -87.991364 -200 45 -200 45 -200 45
5716966977.8296 -4.6033769 -88.138016 -200 45 -200 45 -200 45
5717967094.5158 -4.5874944 -88.292862 -200 45 -200 45 -200 45
5718967211.2019 -4.5684214 -88.402962 -200 45 -200 45 -200 45
5719967327.888 -4.5442462 -88.516075 -200 45 -200 45 -200 45
5720967444.5741 -4.5235572 -88.613205 -200 45 -200 45 -200 45
5721967561.2602 -4.5019774 -88.724007 -200 45 -200 45 -200 45
5722967677.9463 -4.4782495 -88.798317 -200 45 -200 45 -200 45
5723967794.6324 -4.4569612 -88.844749 -200 45 -200 45 -200 45
5724967911.3186 -4.4334211 -88.870689 -200 45 -200 45 -200 45
5725968028.0047 -4.4127479 -88.899323 -200 45 -200 45 -200 45
5726968144.6908 -4.3907461 -88.896049 -200 45 -200 45 -200 45
5727968261.3769 -4.3681569 -88.879601 -200 45 -200 45 -200 45
5728968378.063 -4.3420329 -88.85775 -200 45 -200 45 -200 45
5729968494.7491 -4.3241096 -88.818451 -200 45 -200 45 -200 45
5730968611.4352 -4.300272 -88.753021 -200 45 -200 45 -200 45
5731968728.1214 -4.2796597 -88.688835 -200 45 -200 45 -200 45
5732968844.8075 -4.2611694 -88.606491 -200 45 -200 45 -200 45
5733968961.4936 -4.2442975 -88.480034 -200 45 -200 45 -200 45
5734969078.1797 -4.2249675 -88.372986 -200 45 -200 45 -200 45
5735969194.8658 -4.2106471 -88.256943 -200 45 -200 45 -200 45
5736969311.5519 -4.1962304 -88.129272 -200 45 -200 45 -200 45
5737969428.238 -4.1832638 -87.973022 -200 45 -200 45 -200 45
5738969544.9242 -4.1706266 -87.809372 -200 45 -200 45 -200 45
5739969661.6103 -4.1612229 -87.674286 -200 45 -200 45 -200 45
5740969778.2964 -4.149229 -87.495918 -200 45 -200 45 -200 45
5741969894.9825 -4.1437087 -87.326698 -200 45 -200 45 -200 45
5742970011.6686 -4.1328464 -87.151329 -200 45 -200 45 -200 45
5743970128.3547 -4.1312008 -86.914581 -200 45 -200 45 -200 45
5744970245.0408 -4.1270843 -86.738899 -200 45 -200 45 -200 45
5745970361.727 -4.1261311 -86.547066 -200 45 -200 45 -200 45
5746970478.4131 -4.1242023 -86.340508 -200 45 -200 45 -200 45
5747970595.0992 -4.1248994 -86.142166 -200 45 -200 45 -200 45
5748970711.7853 -4.1281204 -85.952911 -200 45 -200 45 -200 45
5749970828.4714 -4.1305389 -85.745445 -200 45 -200 45 -200 45
5750970945.1575 -4.1374459 -85.561142 -200 45 -200 45 -200 45
5751971061.8436 -4.1456552 -85.375542 -200 45 -200 45 -200 45
5752971178.5298 -4.1549516 -85.176971 -200 45 -200 45 -200 45
5753971295.2159 -4.1669121 -85.004585 -200 45 -200 45 -200 45
5754971411.902 -4.1760941 -84.811684 -200 45 -200 45 -200 45
5755971528.5881 -4.1909385 -84.632111 -200 45 -200 45 -200 45
5756971645.2742 -4.2071662 -84.491142 -200 45 -200 45 -200 45
5757971761.9603 -4.2238469 -84.354805 -200 45 -200 45 -200 45
5758971878.6464 -4.2431946 -84.222527 -200 45 -200 45 -200 45
5759971995.3326 -4.2602663 -84.091194 -200 45 -200 45 -200 45
5760972112.0187 -4.2762194 -83.965508 -200 45 -200 45 -200 45
5761972228.7048 -4.3001323 -83.868736 -200 45 -200 45 -200 45
5762972345.3909 -4.3222198 -83.785118 -200 45 -200 45 -200 45
5763972462.077 -4.3405752 -83.708839 -200 45 -200 45 -200 45
5764972578.7631 -4.3645248 -83.650337 -200 45 -200 45 -200 45
5765972695.4492 -4.3887291 -83.607002 -200 45 -200 45 -200 45
5766972812.1354 -4.4125857 -83.601219 -200 45 -200 45 -200 45
5767972928.8215 -4.4347267 -83.555595 -200 45 -200 45 -200 45
5768973045.5076 -4.4585643 -83.568146 -200 45 -200 45 -200 45
5769973162.1937 -4.4817801 -83.582542 -200 45 -200 45 -200 45
5770973278.8798 -4.5100999 -83.640976 -200 45 -200 45 -200 45
5771973395.5659 -4.5359898 -83.68103 -200 45 -200 45 -200 45
5772973512.252 -4.5592413 -83.753792 -200 45 -200 45 -200 45
5773973628.9382 -4.5807309 -83.864738 -200 45 -200 45 -200 45
5774973745.6243 -4.6003237 -83.959015 -200 45 -200 45 -200 45
5775973862.3104 -4.6242714 -84.076614 -200 45 -200 45 -200 45
5776973978.9965 -4.6441717 -84.229553 -200 45 -200 45 -200 45
5777974095.6826 -4.663218 -84.367851 -200 45 -200 45 -200 45
5778974212.3687 -4.6827803 -84.542465 -200 45 -200 45 -200 45
5779974329.0548 -4.6998062 -84.699211 -200 45 -200 45 -200 45
5780974445.741 -4.7178411 -84.907425 -200 45 -200 45 -200 45
5781974562.4271 -4.72824 -85.123817 -200 45 -200 45 -200 45
5782974679.1132 -4.743083 -85.329666 -200 45 -200 45 -200 45
5783974795.7993 -4.7550406 -85.549683 -200 45 -200 45 -200 45
5784974912.4854 -4.7639861 -85.774841 -200 45 -200 45 -200 45
5785975029.1715 -4.7736869 -86.018997 -200 45 -200 45 -200 45
5786975145.8576 -4.7779331 -86.259659 -200 45 -200 45 -200 45
5787975262.5438 -4.7830997 -86.471092 -200 45 -200 45 -200 45
5788975379.2299 -4.7808022 -86.717316 -200 45 -200 45 -200 45
5789975495.916 -4.7798424 -86.973877 -200 45 -200 45 -200 45
5790975612.6021 -4.7777133 -87.225861 -200 45 -200 45 -200 45
5791975729.2882 -4.775733 -87.470871 -200 45 -200 45 -200 45
5792975845.9743 -4.7671256 -87.724167 -200 45 -200 45 -200 45
5793975962.6604 -4.7617297 -87.9506 -200 45 -200 45 -200 45
5794976079.3466 -4.7489805 -88.172424 -200 45 -200 45 -200 45
5795976196.0327 -4.7390394 -88.389488 -200 45 -200 45 -200 45
5796976312.7188 -4.7251425 -88.605965 -200 45 -200 45 -200 45
5797976429.4049 -4.7080736 -88.811745 -200 45 -200 45 -200 45
5798976546.091 -4.6937165 -89.005676 -200 45 -200 45 -200 45
5799976662.7771 -4.6763244 -89.169067 -200 45 -200 45 -200 45
5800976779.4632 -4.6589398 -89.339661 -200 45 -200 45 -200 45
5801976896.1494 -4.6394591 -89.48204 -200 45 -200 45 -200 45
5802977012.8355 -4.6185455 -89.632141 -200 45 -200 45 -200 45
5803977129.5216 -4.5967155 -89.730171 -200 45 -200 45 -200 45
5804977246.2077 -4.5764847 -89.842361 -200 45 -200 45 -200 45
5805977362.8938 -4.5527887 -89.91349 -200 45 -200 45 -200 45
5806977479.5799 -4.5323725 -90.020271 -200 45 -200 45 -200 45
5807977596.266 -4.5055232 -90.060547 -200 45 -200 45 -200 45
5808977712.9522 -4.4843073 -90.109299 -200 45 -200 45 -200 45
5809977829.6383 -4.4601784 -90.125671 -200 45 -200 45 -200 45
5810977946.3244 -4.4367728 -90.126022 -200 45 -200 45 -200 45
5811978063.0105 -4.4129267 -90.097221 -200 45 -200 45 -200 45
5812978179.6966 -4.3909745 -90.068344 -200 45 -200 45 -200 45
5813978296.3827 -4.3700624 -90.036903 -200 45 -200 45 -200 45
5814978413.0688 -4.3490267 -89.973106 -200 45 -200 45 -200 45
5815978529.755 -4.3279815 -89.912109 -200 45 -200 45 -200 45
5816978646.4411 -4.3082151 -89.830803 -200 45 -200 45 -200 45
5817978763.1272 -4.2876306 -89.708412 -200 45 -200 45 -200 45
5818978879.8133 -4.2728109 -89.603882 -200 45 -200 45 -200 45
5819978996.4994 -4.2567148 -89.45784 -200 45 -200 45 -200 45
5820979113.1855 -4.2446589 -89.343788 -200 45 -200 45 -200 45
5821979229.8716 -4.2300181 -89.163864 -200 45 -200 45 -200 45
5822979346.5578 -4.2125468 -89.003159 -200 45 -200 45 -200 45
5823979463.2439 -4.2043686 -88.850548 -200 45 -200 45 -200 45
5824979579.93 -4.1922102 -88.671005 -200 45 -200 45 -200 45
5825979696.6161 -4.1853943 -88.468338 -200 45 -200 45 -200 45
5826979813.3022 -4.1795688 -88.297897 -200 45 -200 45 -200 45
5827979929.9883 -4.1737967 -88.092712 -200 45 -200 45 -200 45
5828980046.6744 -4.1723857 -87.907913 -200 45 -200 45 -200 45
5829980163.3606 -4.1679521 -87.700272 -200 45 -200 45 -200 45
5830980280.0467 -4.1645284 -87.47374 -200 45 -200 45 -200 45
5831980396.7328 -4.1642289 -87.271713 -200 45 -200 45 -200 45
5832980513.4189 -4.1694446 -87.065735 -200 45 -200 45 -200 45
5833980630.105 -4.1728344 -86.86834 -200 45 -200 45 -200 45
5834980746.7911 -4.1796637 -86.672905 -200 45 -200 45 -200 45
5835980863.4772 -4.1877041 -86.462044 -200 45 -200 45 -200 45
5836980980.1634 -4.1991458 -86.250679 -200 45 -200 45 -200 45
5837981096.8495 -4.2072773 -86.065598 -200 45 -200 45 -200 45
5838981213.5356 -4.2209992 -85.902802 -200 45 -200 45 -200 45
5839981330.2217 -4.2281342 -85.745003 -200 45 -200 45 -200 45
5840981446.9078 -4.2445369 -85.559067 -200 45 -200 45 -200 45
5841981563.5939 -4.2605605 -85.411934 -200 45 -200 45 -200 45
5842981680.28 -4.2795644 -85.263367 -200 45 -200 45 -200 45
5843981796.9662 -4.2967477 -85.11953 -200 45 -200 45 -200 45
5844981913.6523 -4.3159428 -84.99971 -200 45 -200 45 -200 45
5845982030.3384 -4.3353529 -84.89196 -200 45 -200 45 -200 45
5846982147.0245 -4.3572173 -84.769882 -200 45 -200 45 -200 45
5847982263.7106 -4.3796401 -84.718208 -200 45 -200 45 -200 45
5848982380.3967 -4.4064035 -84.644119 -200 45 -200 45 -200 45
5849982497.0828 -4.4267635 -84.587212 -200 45 -200 45 -200 45
5850982613.769 -4.4501123 -84.562241 -200 45 -200 45 -200 45
5851982730.4551 -4.4739604 -84.517708 -200 45 -200 45 -200 45
5852982847.1412 -4.5023894 -84.52327 -200 45 -200 45 -200 45
5853982963.8273 -4.5231342 -84.51738 -200 45 -200 45 -200 45
5854983080.5134 -4.5521555 -84.566803 -200 45 -200 45 -200 45
5855983197.1995 -4.5731001 -84.612595 -200 45 -200 45 -200 45
5856983313.8856 -4.5954556 -84.685432 -200 45 -200 45 -200 45
5857983430.5718 -4.6204791 -84.782753 -200 45 -200 45 -200 45
5858983547.2579 -4.643918 -84.908867 -200 45 -200 45 -200 45
5859983663.944 -4.6669059 -85.006462 -200 45 -200 45 -200 45
5860983780.6301 -4.685298 -85.109879 -200 45 -200 45 -200 45
5861983897.3162 -4.7092319 -85.272263 -200 45 -200 45 -200 45
5862984014.0023 -4.7268133 -85.427673 -200 45 -200 45 -200 45
5863984130.6884 -4.7443461 -85.583199 -200 45 -200 45 -200 45
5864984247.3746 -4.7617464 -85.767715 -200 45 -200 45 -200 45
5865984364.0607 -4.7749057 -85.962463 -200 45 -200 45 -200 45
5866984480.7468 -4.7880068 -86.175041 -200 45 -200 45 -200 45
5867984597.4329 -4.7988319 -86.38504 -200 45 -200 45 -200 45
5868984714.119 -4.8088226 -86.601494 -200 45 -200 45 -200 45
5869984830.8051 -4.818759 -86.833748 -200 45 -200 45 -200 45
5870984947.4912 -4.8205051 -87.068733 -200 45 -200 45 -200 45
5871985064.1774 -4.8247161 -87.305672 -200 45 -200 45 -200 45
5872985180.8635 -4.8219419 -87.552467 -200 45 -200 45 -200 45
5873985297.5496 -4.8207045 -87.820435 -200 45 -200 45 -200 45
5874985414.2357 -4.8218479 -88.051201 -200 45 -200 45 -200 45
5875985530.9218 -4.8157754 -88.316284 -200 45 -200 45 -200 45
5876985647.6079 -4.8076634 -88.546379 -200 45 -200 45 -200 45
5877985764.294 -4.7992916 -88.762672 -200 45 -200 45 -200 45
5878985880.9802 -4.7900696 -89.004974 -200 45 -200 45 -200 45
5879985997.6663 -4.7781796 -89.228416 -200 45 -200 45 -200 45
5880986114.3524 -4.7657776 -89.45163 -200 45 -200 45 -200 45
5881986231.0385 -4.7489028 -89.650726 -200 45 -200 45 -200 45
5882986347.7246 -4.7314534 -89.838249 -200 45 -200 45 -200 45
5883986464.4107 -4.7137394 -90.039986 -200 45 -200 45 -200 45
5884986581.0968 -4.6947541 -90.209335 -200 45 -200 45 -200 45
5885986697.783 -4.6751838 -90.348648 -200 45 -200 45 -200 45
5886986814.4691 -4.6510954 -90.467628 -200 45 -200 45 -200 45
5887986931.1552 -4.628756 -90.600021 -200 45 -200 45 -200 45
5888987047.8413 -4.6076832 -90.72541 -200 45 -200 45 -200 45
5889987164.5274 -4.5858583 -90.819756 -200 45 -200 45 -200 45
5890987281.2135 -4.5590692 -90.909325 -200 45 -200 45 -200 45
5891987397.8997 -4.537569 -90.972305 -200 45 -200 45 -200 45
5892987514.5858 -4.5130382 -91.001534 -200 45 -200 45 -200 45
5893987631.2719 -4.4914942 -91.030487 -200 45 -200 45 -200 45
5894987747.958 -4.4690957 -91.03698 -200 45 -200 45 -200 45
5895987864.6441 -4.4458284 -91.022247 -200 45 -200 45 -200 45
5896987981.3302 -4.4195294 -90.990944 -200 45 -200 45 -200 45
5897988098.0163 -4.3991566 -90.962296 -200 45 -200 45 -200 45
5898988214.7025 -4.3775201 -90.92189 -200 45 -200 45 -200 45
5899988331.3886 -4.359251 -90.842331 -200 45 -200 45 -200 45
5900988448.0747 -4.3388095 -90.751862 -200 45 -200 45 -200 45
5901988564.7608 -4.3198524 -90.639717 -200 45 -200 45 -200 45
5902988681.4469 -4.3005757 -90.539429 -200 45 -200 45 -200 45
5903988798.133 -4.2862997 -90.392212 -200 45 -200 45 -200 45
5904988914.8191 -4.2673731 -90.282166 -200 45 -200 45 -200 45
5905989031.5053 -4.2529044 -90.119919 -200 45 -200 45 -200 45
5906989148.1914 -4.2391477 -89.953796 -200 45 -200 45 -200 45
5907989264.8775 -4.2220898 -89.803635 -200 45 -200 45 -200 45
5908989381.5636 -4.2185001 -89.6287 -200 45 -200 45 -200 45
5909989498.2497 -4.2112393 -89.446938 -200 45 -200 45 -200 45
5910989614.9358 -4.2020574 -89.239304 -200 45 -200 45 -200 45
5911989731.6219 -4.1940241 -89.04583 -200 45 -200 45 -200 45
5912989848.3081 -4.1925759 -88.839279 -200 45 -200 45 -200 45
5913989964.9942 -4.1882963 -88.648506 -200 45 -200 45 -200 45
5914990081.6803 -4.1871152 -88.441528 -200 45 -200 45 -200 45
5915990198.3664 -4.1886983 -88.243172 -200 45 -200 45 -200 45
5916990315.0525 -4.1900754 -88.017334 -200 45 -200 45 -200 45
5917990431.7386 -4.1959257 -87.826553 -200 45 -200 45 -200 45
5918990548.4247 -4.2030716 -87.633972 -200 45 -200 45 -200 45
5919990665.1109 -4.2077088 -87.407135 -200 45 -200 45 -200 45
5920990781.797 -4.216835 -87.21534 -200 45 -200 45 -200 45
5921990898.4831 -4.225348 -87.025421 -200 45 -200 45 -200 45
5922991015.1692 -4.2347455 -86.865128 -200 45 -200 45 -200 45
5923991131.8553 -4.2488289 -86.675323 -200 45 -200 45 -200 45
5924991248.5414 -4.2651501 -86.53157 -200 45 -200 45 -200 45
5925991365.2275 -4.276629 -86.355034 -200 45 -200 45 -200 45
5926991481.9137 -4.2969131 -86.211365 -200 45 -200 45 -200 45
5927991598.5998 -4.3182445 -86.088875 -200 45 -200 45 -200 45
5928991715.2859 -4.3365006 -85.952652 -200 45 -200 45 -200 45
5929991831.972 -4.357142 -85.834038 -200 45 -200 45 -200 45
5930991948.6581 -4.3759632 -85.74025 -200 45 -200 45 -200 45
5931992065.3442 -4.3992205 -85.664505 -200 45 -200 45 -200 45
5932992182.0303 -4.4242706 -85.615128 -200 45 -200 45 -200 45
5933992298.7165 -4.44416 -85.553192 -200 45 -200 45 -200 45
5934992415.4026 -4.4674158 -85.502983 -200 45 -200 45 -200 45
5935992532.0887 -4.4918294 -85.487923 -200 45 -200 45 -200 45
5936992648.7748 -4.5170846 -85.494225 -200 45 -200 45 -200 45
5937992765.4609 -4.5427728 -85.517441 -200 45 -200 45 -200 45
5938992882.147 -4.5642738 -85.527107 -200 45 -200 45 -200 45
5939992998.8331 -4.5901732 -85.591179 -200 45 -200 45 -200 45
5940993115.5193 -4.6114326 -85.669243 -200 45 -200 45 -200 45
5941993232.2054 -4.6377945 -85.739067 -200 45 -200 45 -200 45
5942993348.8915 -4.6601152 -85.831474 -200 45 -200 45 -200 45
5943993465.5776 -4.6850677 -85.960381 -200 45 -200 45 -200 45
5944993582.2637 -4.7046571 -86.068199 -200 45 -200 45 -200 45
5945993698.9498 -4.7242494 -86.224998 -200 45 -200 45 -200 45
5946993815.6359 -4.7464294 -86.389214 -200 45 -200 45 -200 45
5947993932.3221 -4.7624841 -86.560532 -200 45 -200 45 -200 45
5948994049.0082 -4.7786989 -86.755569 -200 45 -200 45 -200 45
5949994165.6943 -4.7929096 -86.957291 -200 45 -200 45 -200 45
5950994282.3804 -4.8050933 -87.17997 -200 45 -200 45 -200 45
5951994399.0665 -4.817544 -87.39872 -200 45 -200 45 -200 45
5952994515.7526 -4.8252625 -87.597725 -200 45 -200 45 -200 45
5953994632.4387 -4.8352976 -87.855553 -200 45 -200 45 -200 45
5954994749.1249 -4.8396068 -88.087814 -200 45 -200 45 -200 45
5955994865.811 -4.843472 -88.346336 -200 45 -200 45 -200 45
5956994982.4971 -4.8485436 -88.574409 -200 45 -200 45 -200 45
5957995099.1832 -4.8482323 -88.835678 -200 45 -200 45 -200 45
5958995215.8693 -4.8471022 -89.083229 -200 45 -200 45 -200 45
5959995332.5554 -4.844326 -89.31646 -200 45 -200 45 -200 45
5960995449.2415 -4.8384719 -89.5783 -200 45 -200 45 -200 45
5961995565.9277 -4.8316422 -89.806274 -200 45 -200 45 -200 45
5962995682.6138 -4.8189621 -90.035995 -200 45 -200 45 -200 45
5963995799.2999 -4.8101301 -90.276649 -200 45 -200 45 -200 45
5964995915.986 -4.7985668 -90.480186 -200 45 -200 45 -200 45
5965996032.6721 -4.7805142 -90.690628 -200 45 -200 45 -200 45
5966996149.3582 -4.7666755 -90.900276 -200 45 -200 45 -200 45
5967996266.0443 -4.7491121 -91.075996 -200 45 -200 45 -200 45
5968996382.7305 -4.732728 -91.238205 -200 45 -200 45 -200 45
5969996499.4166 -4.7092471 -91.400696 -200 45 -200 45 -200 45
5970996616.1027 -4.6889992 -91.555931 -200 45 -200 45 -200 45
5971996732.7888 -4.6673555 -91.664429 -200 45 -200 45 -200 45
5972996849.4749 -4.6407495 -91.782135 -200 45 -200 45 -200 45
5973996966.161 -4.6216235 -91.890823 -200 45 -200 45 -200 45
5974997082.8471 -4.5962319 -91.955711 -200 45 -200 45 -200 45
5975997199.5333 -4.5714355 -92.018959 -200 45 -200 45 -200 45
5976997316.2194 -4.5488329 -92.060989 -200 45 -200 45 -200 45
5977997432.9055 -4.5257497 -92.067642 -200 45 -200 45 -200 45
5978997549.5916 -4.4981785 -92.071045 -200 45 -200 45 -200 45
5979997666.2777 -4.4773965 -92.106644 -200 45 -200 45 -200 45
5980997782.9638 -4.4529891 -92.072495 -200 45 -200 45 -200 45
5981997899.6499 -4.4290633 -92.023354 -200 45 -200 45 -200 45
5982998016.3361 -4.4047632 -91.995003 -200 45 -200 45 -200 45
5983998133.0222 -4.3835697 -91.910461 -200 45 -200 45 -200 45
5984998249.7083 -4.3613496 -91.801918 -200 45 -200 45 -200 45
5985998366.3944 -4.3438344 -91.71833 -200 45 -200 45 -200 45
5986998483.0805 -4.3235421 -91.578735 -200 45 -200 45 -200 45
5987998599.7666 -4.3024693 -91.467186 -200 45 -200 45 -200 45
5988998716.4527 -4.2907414 -91.319252 -200 45 -200 45 -200 45
5989998833.1389 -4.2748442 -91.174377 -200 45 -200 45 -200 45
5990998949.825 -4.2617326 -91.017052 -200 45 -200 45 -200 45
5991999066.5111 -4.2499685 -90.835167 -200 45 -200 45 -200 45
5992999183.1972 -4.24191 -90.671783 -200 45 -200 45 -200 45
5993999299.8833 -4.232491 -90.49572 -200 45 -200 45 -200 45
5994999416.5694 -4.2236214 -90.296814 -200 45 -200 45 -200 45
5995999533.2555 -4.2190781 -90.118065 -200 45 -200 45 -200 45
5996999649.9417 -4.2122593 -89.93486 -200 45 -200 45 -200 45
5997999766.6278 -4.209991 -89.704903 -200 45 -200 45 -200 45
5998999883.3139 -4.2080007 -89.53019 -200 45 -200 45 -200 45
6000000000 -4.206429 -89.314957 -200 45 -200 45 -200 45
